Cs Ca F                                 
   1.00000000000000     
     9.1669389999999993   -9.1669389999999993    0.0000000000000000
     9.1669389999999993    9.1669389999999993    0.0000000000000000
     0.0000000000000000    0.0000000000000000   18.3338779999999986
   Ca   Cs   F 
    32    32    96
Direct
 -0.0002748435786097  0.2507583005088586  0.1245539595146647
 -0.0003868646232887  0.2506243024698459  0.3746003801801337
  0.9994500934903728  0.2507595419334557  0.6245974005163660
 -0.0003615309649769  0.2509411656697251  0.8746198480089710
  0.4996856217347921  0.2507408559157858  0.1246738242929574
  0.4995717142236014  0.2506302842752965  0.3746917618705785
  0.4994763279538467  0.2508019353532973  0.6246233500425441
  0.4996609335622999  0.2509748149016618  0.8746757952891472
  0.2497197037624185  0.5007588983538629  0.1245822926127331
  0.2496783924190055  0.5005716237744583  0.3746202259868779
  0.2494529119320897  0.5008227822936265  0.6246418175167392
  0.2495982731051654  0.5009979290222325  0.8746491030973944
 -0.0002716473704967  0.7507922601493185  0.1246134198302217
 -0.0003698876672095  0.7506456476070904  0.3746484042111849
 -0.0005192237700812  0.7508255589028366  0.6245983562178256
  0.9996543783907479  0.7510171252292165  0.8746710836629774
  0.7496768814379108  0.5008129168962941  0.1245652523751788
  0.7497024432288785  0.5006050570336037  0.3746181479031692
  0.7494778853770430  0.5007397964563526  0.6246494768980060
  0.7496823648726911  0.5009392725585274  0.8746846111593534
  0.4997141792212252  0.7507973582628914  0.1245905524333089
  0.4996681399735435  0.7505049023031457  0.3746474313293525
  0.4995468266586986  0.7507611242118755  0.6245920753189701
  0.4996743777040525  0.7509958790809367  0.8746116850779831
  0.2497072133517284  0.0007761062693533  0.1246691491652851
  0.2496072236226355  0.0005819419401785  0.3746711961711061
  0.2495280255853964  0.0007147453442831  0.6245546345299376
  0.2496147120957162  0.0009998032472727  0.8746089224898005
  0.7496633690127719  0.0008119557762149  0.1246228834054324
  0.7496462894716507  0.0006469182474293  0.3746446074207508
  0.7495426662985057  0.0007746729102101  0.6246008675177049
  0.7496432254013538  0.0009653429607739  0.8746335754908916
 -0.0004194951563111  0.0009628125939424 -0.0003838463308219
 -0.0002517628491970  0.0006679693844897  0.2496269672127559
  0.9995057213082740  0.0007163510850472  0.4996267179854071
 -0.0003404858853870  0.0009167351007701  0.7495697840962681
  0.4997195260032037  0.0009578402954915  0.9996096464098044
  0.4997158090175849  0.0005714758765172  0.2497364123352158
  0.4995583467872627  0.0006561007489237  0.4996501441576749
  0.4996825768593611  0.0008609578929488  0.7495884535914391
  0.2496898019531440  0.2509434355418505  0.9996111441990684
  0.2498151313085584  0.2506175772681558  0.2496463840691618
  0.2494277160519111  0.2507353983651099  0.4996586079741923
  0.2496380503412379  0.2509397570334496  0.7496382614869237
 -0.0003250056932867  0.5009182038802206 -0.0003850214329929
  0.9998441180789465  0.5006817325878982  0.2495984635294006
 -0.0004233048436525  0.5007894568409151  0.4995772245445735
 -0.0003946782326152  0.5008513196247100  0.7496885003827070
  0.7497287491445621  0.2509663905305994 -0.0003295761842919
  0.7496786772002753  0.2506855554462118  0.2497000650296851
  0.7495557499970227  0.2506889973645153  0.4996364176092877
  0.7496601033170830  0.2509485416301502  0.7496441905859960
  0.4997097067121511  0.5010302341825890  0.9996352792642843
  0.4998091077518469  0.5006316085657471  0.2495903789579575
  0.4996177594317043  0.5006989033520709  0.4996648336311052
  0.4996567014388271  0.5009029095704612  0.7496916598089378
  0.2497411494504612  0.7510359724547137 -0.0004037402880913
  0.2497185621399554  0.7506180825570722  0.2496282486529229
  0.2495599664657700  0.7505887582625596  0.4996403869289756
  0.2496338182486165  0.7508999559392228  0.7496183381462113
  0.7497771226614627  0.7510429220941739 -0.0003635633049971
  0.7497203433233544  0.7506338417370726  0.2496325420469794
  0.7496240592960791  0.7506665392144010  0.4996350776657540
  0.7496795526916946  0.7508932916610666  0.7496484974432751
  0.0001427083178399  0.2508252785360467 -0.0004362072556698
 -0.0006036223238143  0.2504850517756111  0.2495805036953502
  0.9996417956240604  0.2509367804358281  0.4996081557942623
  0.9993927442903731  0.2506664313242675  0.7496089381866075
  0.5002188996118858  0.2508284404587461  0.9996865454868105
  0.4992268645299562  0.2502375164464630  0.2496700988365079
  0.4996979680798315  0.2511261274627785  0.4996501821326402
  0.4992422976271738  0.2506855114756621  0.7496515538047184
  0.2492092002934887  0.5006544840721551 -0.0003939045861417
  0.2501439147669654  0.5008339875253981  0.2496057145856522
  0.2493909611738326  0.5003979527536637  0.4996555570997904
  0.2498611900385637  0.5010863134465132  0.7496400250048466
  0.0001963463336612  0.7509332041516420 -0.0003837277973220
  0.9990356613741690  0.7504941799731970  0.2496284852901529
  0.0001036003919640  0.7508766618981018  0.4996116678969099
 -0.0010434595077203  0.7509545211174399  0.7496457558546592
  0.7493203081063952  0.5004447416889730 -0.0003484936538708
  0.7500919798817112  0.5009885328228779  0.2496042616825785
  0.7493586515441971  0.5002057197890464  0.4996473327198110
  0.7497846265026890  0.5011335174794611  0.7496746642510673
  0.4999015201651832  0.7513876401380235 -0.0004213690216509
  0.4992811379252716  0.7501744025417691  0.2496331984336836
  0.5000358831889574  0.7506414347258128  0.4996061135799809
  0.4992744254682158  0.7505057656698372  0.7496192155917090
  0.2494123538984292  0.0006372200959673 -0.0003736589376439
  0.2501350071183837  0.0010561852250919  0.2496507327340692
  0.2492140374280097  0.0001289254616574  0.4995986907709590
  0.2499371839534019  0.0011467130529978  0.7495920979265823
  0.7491313523383136  0.0007626851986846 -0.0003668139968246
  0.7501355723127900  0.0008926741799785  0.2496526472847464
  0.7494101398079741  0.0004078401029504  0.4995955501538015
  0.7499666488230735  0.0009773922460333  0.7496040170640004
  0.1248382951287050  0.1258398455722503  0.1248411487556279
  0.1244703439822922  0.1254138726751360  0.3747461825979081
  0.1244776749889112  0.1257188218630056  0.6243742435060667
  0.1245771030053290  0.1259127531786342  0.8744095265003115
  0.6247609914488919  0.1258572873358810  0.1249438040144169
  0.6245021178846165  0.1255126833273149  0.3748448786685837
  0.6244559286786269  0.1257354852085099  0.6244027868536042
  0.6245682241383580  0.1258692813550386  0.8743469334369799
  0.3745929763141022  0.3756571732327707  0.1243042075786135
  0.3747495311095713  0.3756877825434284  0.3745169125820620
  0.3744142839527451  0.3757719349524419  0.6247560005344901
  0.3748055429619008  0.3761500273242343  0.8749207879933890
  0.1249242799796042  0.6259178297701786  0.1248000179983143
  0.1245693769532328  0.6254744560302133  0.3744392767980745
  0.1243397074243871  0.6256706749129627  0.6247980083929212
  0.1246242330994004  0.6259807028219735  0.8744627551111537
  0.8745579785345139  0.3756753710352095  0.1243811393806944
  0.8748145672137102  0.3757677729814836  0.3744144434346504
  0.8744851715046265  0.3757863452585833  0.6247230784659026
  0.8747586629555631  0.3760792257066630  0.8747933571937199
  0.6248206965987432  0.6258968574621980  0.1244046057796339
  0.6246605170917573  0.6255025897897234  0.3744656945613525
  0.6243659409541592  0.6255624995813464  0.6247028727480324
  0.6246407912007520  0.6259033032314905  0.8748080887649300
  0.3746395832022774  0.8756482949265287  0.1247360277532397
  0.3746127641913099  0.8754607047610802  0.3747270417932290
  0.3746473659520714  0.8757799968368503  0.6243962409550448
  0.3748157410298289  0.8761893069589727  0.8744868173467591
  0.8745819452591492  0.8757150450795294  0.1242446782391821
  0.8746420592880310  0.8756513410187953  0.3748039236347335
  0.8746113884020390  0.8758931009826423  0.6242982001758840
  0.8747749199222932  0.8760935057951412  0.8749634986749387
  0.8748074366333612  0.1256772370042365  0.1240756484644977
  0.8745518629078990  0.1257276331622194  0.3748751494830281
  0.8744767767494901  0.1257510202651477  0.6242907262391458
  0.8745148196231777  0.1261053367771948  0.8749026438528769
  0.3748729778827556  0.1256739367432737  0.1240936185835939
  0.3745247327593911  0.1255694641644032  0.3752593012311756
  0.3744250486588742  0.1257978416267449  0.6241410835666552
  0.3744620296359260  0.1261614322404843  0.8749599973759647
  0.1245910367341428  0.3758713635479560  0.1248722511276300
  0.1248209335924277  0.3753770267184134  0.3743499469533667
  0.1244364658564360  0.3757681581420951  0.6247951820748612
  0.1247634163739938  0.3758692854738401  0.8742860253340081
  0.8748784870170627  0.6256030354743500  0.1241252958014063
  0.8746780610186009  0.6256360588850698  0.3750613875099524
  0.8743539704721698  0.6259046302969722  0.6241789643281586
  0.8745742052877298  0.6260889435762350  0.8749800613903411
  0.6245727368945765  0.3758210157146694  0.1251742313542948
  0.6248544805127848  0.3753634019824604  0.3741983691720110
  0.6244520915022239  0.3756885741732926  0.6250330466721078
  0.6247079557163037  0.3759065344707883  0.8742710135111005
  0.3749074609834614  0.6255969769255179  0.1239827743540288
  0.3747067171764281  0.6255182289630993  0.3749463750152021
  0.3744130716043707  0.6259340628864107  0.6242722945526402
  0.3745189918600748  0.6261405689519810  0.8750314425770318
  0.1246012891153422  0.8758665463017835  0.1250799594761776
  0.1247243270685743  0.8754727581638823  0.3740878070808464
  0.1246434908576340  0.8756431311093126  0.6250739823251020
  0.1247401101098948  0.8759349663782989  0.8742784873377679
  0.6245649164510788  0.8758554379008975  0.1250532361056911
  0.6247104182201436  0.8755000539428759  0.3742794288436762
  0.6246997855560598  0.8756359374660726  0.6249365189869597
  0.6247739214975089  0.8758642452441240  0.8741550667391450
 
  0.00000000E+00  0.00000000E+00  0.00000000E+00
  0.00000000E+00  0.00000000E+00  0.00000000E+00
  0.00000000E+00  0.00000000E+00  0.00000000E+00
  0.00000000E+00  0.00000000E+00  0.00000000E+00
  0.00000000E+00  0.00000000E+00  0.00000000E+00
  0.00000000E+00  0.00000000E+00  0.00000000E+00
  0.00000000E+00  0.00000000E+00  0.00000000E+00
  0.00000000E+00  0.00000000E+00  0.00000000E+00
  0.00000000E+00  0.00000000E+00  0.00000000E+00
  0.00000000E+00  0.00000000E+00  0.00000000E+00
  0.00000000E+00  0.00000000E+00  0.00000000E+00
  0.00000000E+00  0.00000000E+00  0.00000000E+00
  0.00000000E+00  0.00000000E+00  0.00000000E+00
  0.00000000E+00  0.00000000E+00  0.00000000E+00
  0.00000000E+00  0.00000000E+00  0.00000000E+00
  0.00000000E+00  0.00000000E+00  0.00000000E+00
  0.00000000E+00  0.00000000E+00  0.00000000E+00
  0.00000000E+00  0.00000000E+00  0.00000000E+00
  0.00000000E+00  0.00000000E+00  0.00000000E+00
  0.00000000E+00  0.00000000E+00  0.00000000E+00
  0.00000000E+00  0.00000000E+00  0.00000000E+00
  0.00000000E+00  0.00000000E+00  0.00000000E+00
  0.00000000E+00  0.00000000E+00  0.00000000E+00
  0.00000000E+00  0.00000000E+00  0.00000000E+00
  0.00000000E+00  0.00000000E+00  0.00000000E+00
  0.00000000E+00  0.00000000E+00  0.00000000E+00
  0.00000000E+00  0.00000000E+00  0.00000000E+00
  0.00000000E+00  0.00000000E+00  0.00000000E+00
  0.00000000E+00  0.00000000E+00  0.00000000E+00
  0.00000000E+00  0.00000000E+00  0.00000000E+00
  0.00000000E+00  0.00000000E+00  0.00000000E+00
  0.00000000E+00  0.00000000E+00  0.00000000E+00
  0.00000000E+00  0.00000000E+00  0.00000000E+00
  0.00000000E+00  0.00000000E+00  0.00000000E+00
  0.00000000E+00  0.00000000E+00  0.00000000E+00
  0.00000000E+00  0.00000000E+00  0.00000000E+00
  0.00000000E+00  0.00000000E+00  0.00000000E+00
  0.00000000E+00  0.00000000E+00  0.00000000E+00
  0.00000000E+00  0.00000000E+00  0.00000000E+00
  0.00000000E+00  0.00000000E+00  0.00000000E+00
  0.00000000E+00  0.00000000E+00  0.00000000E+00
  0.00000000E+00  0.00000000E+00  0.00000000E+00
  0.00000000E+00  0.00000000E+00  0.00000000E+00
  0.00000000E+00  0.00000000E+00  0.00000000E+00
  0.00000000E+00  0.00000000E+00  0.00000000E+00
  0.00000000E+00  0.00000000E+00  0.00000000E+00
  0.00000000E+00  0.00000000E+00  0.00000000E+00
  0.00000000E+00  0.00000000E+00  0.00000000E+00
  0.00000000E+00  0.00000000E+00  0.00000000E+00
  0.00000000E+00  0.00000000E+00  0.00000000E+00
  0.00000000E+00  0.00000000E+00  0.00000000E+00
  0.00000000E+00  0.00000000E+00  0.00000000E+00
  0.00000000E+00  0.00000000E+00  0.00000000E+00
  0.00000000E+00  0.00000000E+00  0.00000000E+00
  0.00000000E+00  0.00000000E+00  0.00000000E+00
  0.00000000E+00  0.00000000E+00  0.00000000E+00
  0.00000000E+00  0.00000000E+00  0.00000000E+00
  0.00000000E+00  0.00000000E+00  0.00000000E+00
  0.00000000E+00  0.00000000E+00  0.00000000E+00
  0.00000000E+00  0.00000000E+00  0.00000000E+00
  0.00000000E+00  0.00000000E+00  0.00000000E+00
  0.00000000E+00  0.00000000E+00  0.00000000E+00
  0.00000000E+00  0.00000000E+00  0.00000000E+00
  0.00000000E+00  0.00000000E+00  0.00000000E+00
  0.00000000E+00  0.00000000E+00  0.00000000E+00
  0.00000000E+00  0.00000000E+00  0.00000000E+00
  0.00000000E+00  0.00000000E+00  0.00000000E+00
  0.00000000E+00  0.00000000E+00  0.00000000E+00
  0.00000000E+00  0.00000000E+00  0.00000000E+00
  0.00000000E+00  0.00000000E+00  0.00000000E+00
  0.00000000E+00  0.00000000E+00  0.00000000E+00
  0.00000000E+00  0.00000000E+00  0.00000000E+00
  0.00000000E+00  0.00000000E+00  0.00000000E+00
  0.00000000E+00  0.00000000E+00  0.00000000E+00
  0.00000000E+00  0.00000000E+00  0.00000000E+00
  0.00000000E+00  0.00000000E+00  0.00000000E+00
  0.00000000E+00  0.00000000E+00  0.00000000E+00
  0.00000000E+00  0.00000000E+00  0.00000000E+00
  0.00000000E+00  0.00000000E+00  0.00000000E+00
  0.00000000E+00  0.00000000E+00  0.00000000E+00
  0.00000000E+00  0.00000000E+00  0.00000000E+00
  0.00000000E+00  0.00000000E+00  0.00000000E+00
  0.00000000E+00  0.00000000E+00  0.00000000E+00
  0.00000000E+00  0.00000000E+00  0.00000000E+00
  0.00000000E+00  0.00000000E+00  0.00000000E+00
  0.00000000E+00  0.00000000E+00  0.00000000E+00
  0.00000000E+00  0.00000000E+00  0.00000000E+00
  0.00000000E+00  0.00000000E+00  0.00000000E+00
  0.00000000E+00  0.00000000E+00  0.00000000E+00
  0.00000000E+00  0.00000000E+00  0.00000000E+00
  0.00000000E+00  0.00000000E+00  0.00000000E+00
  0.00000000E+00  0.00000000E+00  0.00000000E+00
  0.00000000E+00  0.00000000E+00  0.00000000E+00
  0.00000000E+00  0.00000000E+00  0.00000000E+00
  0.00000000E+00  0.00000000E+00  0.00000000E+00
  0.00000000E+00  0.00000000E+00  0.00000000E+00
  0.00000000E+00  0.00000000E+00  0.00000000E+00
  0.00000000E+00  0.00000000E+00  0.00000000E+00
  0.00000000E+00  0.00000000E+00  0.00000000E+00
  0.00000000E+00  0.00000000E+00  0.00000000E+00
  0.00000000E+00  0.00000000E+00  0.00000000E+00
  0.00000000E+00  0.00000000E+00  0.00000000E+00
  0.00000000E+00  0.00000000E+00  0.00000000E+00
  0.00000000E+00  0.00000000E+00  0.00000000E+00
  0.00000000E+00  0.00000000E+00  0.00000000E+00
  0.00000000E+00  0.00000000E+00  0.00000000E+00
  0.00000000E+00  0.00000000E+00  0.00000000E+00
  0.00000000E+00  0.00000000E+00  0.00000000E+00
  0.00000000E+00  0.00000000E+00  0.00000000E+00
  0.00000000E+00  0.00000000E+00  0.00000000E+00
  0.00000000E+00  0.00000000E+00  0.00000000E+00
  0.00000000E+00  0.00000000E+00  0.00000000E+00
  0.00000000E+00  0.00000000E+00  0.00000000E+00
  0.00000000E+00  0.00000000E+00  0.00000000E+00
  0.00000000E+00  0.00000000E+00  0.00000000E+00
  0.00000000E+00  0.00000000E+00  0.00000000E+00
  0.00000000E+00  0.00000000E+00  0.00000000E+00
  0.00000000E+00  0.00000000E+00  0.00000000E+00
  0.00000000E+00  0.00000000E+00  0.00000000E+00
  0.00000000E+00  0.00000000E+00  0.00000000E+00
  0.00000000E+00  0.00000000E+00  0.00000000E+00
  0.00000000E+00  0.00000000E+00  0.00000000E+00
  0.00000000E+00  0.00000000E+00  0.00000000E+00
  0.00000000E+00  0.00000000E+00  0.00000000E+00
  0.00000000E+00  0.00000000E+00  0.00000000E+00
  0.00000000E+00  0.00000000E+00  0.00000000E+00
  0.00000000E+00  0.00000000E+00  0.00000000E+00
  0.00000000E+00  0.00000000E+00  0.00000000E+00
  0.00000000E+00  0.00000000E+00  0.00000000E+00
  0.00000000E+00  0.00000000E+00  0.00000000E+00
  0.00000000E+00  0.00000000E+00  0.00000000E+00
  0.00000000E+00  0.00000000E+00  0.00000000E+00
  0.00000000E+00  0.00000000E+00  0.00000000E+00
  0.00000000E+00  0.00000000E+00  0.00000000E+00
  0.00000000E+00  0.00000000E+00  0.00000000E+00
  0.00000000E+00  0.00000000E+00  0.00000000E+00
  0.00000000E+00  0.00000000E+00  0.00000000E+00
  0.00000000E+00  0.00000000E+00  0.00000000E+00
  0.00000000E+00  0.00000000E+00  0.00000000E+00
  0.00000000E+00  0.00000000E+00  0.00000000E+00
  0.00000000E+00  0.00000000E+00  0.00000000E+00
  0.00000000E+00  0.00000000E+00  0.00000000E+00
  0.00000000E+00  0.00000000E+00  0.00000000E+00
  0.00000000E+00  0.00000000E+00  0.00000000E+00
  0.00000000E+00  0.00000000E+00  0.00000000E+00
  0.00000000E+00  0.00000000E+00  0.00000000E+00
  0.00000000E+00  0.00000000E+00  0.00000000E+00
  0.00000000E+00  0.00000000E+00  0.00000000E+00
  0.00000000E+00  0.00000000E+00  0.00000000E+00
  0.00000000E+00  0.00000000E+00  0.00000000E+00
  0.00000000E+00  0.00000000E+00  0.00000000E+00
  0.00000000E+00  0.00000000E+00  0.00000000E+00
  0.00000000E+00  0.00000000E+00  0.00000000E+00
  0.00000000E+00  0.00000000E+00  0.00000000E+00
  0.00000000E+00  0.00000000E+00  0.00000000E+00
  0.00000000E+00  0.00000000E+00  0.00000000E+00
  0.00000000E+00  0.00000000E+00  0.00000000E+00
  0.00000000E+00  0.00000000E+00  0.00000000E+00
  0.00000000E+00  0.00000000E+00  0.00000000E+00
  0.00000000E+00  0.00000000E+00  0.00000000E+00
