Cs Sn Cl                                
   1.00000000000000     
    11.2408859999999997  -11.2408859999999997    0.0000000000000000
    11.2408859999999997   11.2408859999999997    0.0000000000000000
     0.0000000000000000    0.0000000000000000   22.4817730000000005
   Cl   Cs   Sn
    96    32    32
Direct
  0.0395129888524243  0.2486631006051099  0.0075004470892993
  0.9665863348655819  0.2439201994220594  0.2569637332602292
  0.0358678180244335  0.2441642058937524  0.5081818131538575
  0.9700641078748984  0.2573427669846623  0.7578906997897731
  0.5197500951263632  0.2643309374159220  0.0078378661931082
  0.4770569556390615  0.2339124655338848  0.2566120802053038
  0.5239887712192116  0.2555321969944919  0.5065582720766505
  0.4889728895687128  0.2481249946989545  0.7571594905674244
  0.2226211829012015  0.4962106422643547  0.0067995025557028
  0.2724988624666532  0.5012036680064456  0.2572899916171917
  0.2273638774506845  0.4860530083088622  0.5076658560578016
  0.2757422376176074  0.5259089876548506  0.7576362679781392
  0.0223582836706762  0.7642813153966619  0.0081936687817196
  0.9769362498142847  0.7347917916995680  0.2570501275276024
  0.0235599658568613  0.7555959045823794  0.5069953280781094
  0.9882920417571514  0.7479233613064471  0.7574782411328619
  0.7175357176083679  0.5065095748684890  0.0080425275347460
  0.7828123665054039  0.4870517490163962  0.2577350168178883
  0.7207747819758343  0.5063381700753232  0.5069806468850379
  0.7877897552058019  0.5022898643108571  0.7575464619389367
  0.5388693090855804  0.7483522215372878  0.0074549001326449
  0.4664217148728760  0.7442889811961877  0.2569406130474180
  0.5351465604185663  0.7437475171314407  0.5080335740175478
  0.4709273234208823  0.7572144128940952  0.7578107286354765
  0.2174418559537075  0.0065620258300693  0.0082177877571145
  0.2826669356071739  0.9871084046463868  0.2579586338571411
  0.2207428783264051  0.0068968269078103  0.5071319897946943
  0.2885453263992401  0.0028273269686536  0.7575669673509497
  0.7223735029282562  0.9961099887420344  0.0068082804940863
  0.7734716360183727  0.9995957480535788  0.2571570080097120
  0.7268845261848231  0.9863810836412841  0.5075494588248787
  0.7745049483545042  0.0242949612139939  0.7576063949420420
  0.1223278402839217  0.1112496575046126  0.1447165185943382
  0.1300669311803710  0.1402298653845477  0.3544106221500293
  0.1360919587533524  0.1442278850771285  0.6432739194927812
  0.1246387627226248  0.1071896053965650  0.8535793943447123
  0.6025922598035416  0.1267256144351369  0.1310668427552633
  0.6357700844376678  0.1418486567705550  0.3647996336428684
  0.6411794041003092  0.1455348010000718  0.6312720628604236
  0.6164955924479528  0.1085290605635662  0.8688273769706054
  0.3848883506255236  0.4100828511825995  0.1121837952232980
  0.3505978776263590  0.3561421459727345  0.3813908804675298
  0.3524894557816431  0.3562906002881406  0.6197831754221589
  0.4077018711853712  0.3988648252682849  0.8776185048019159
  0.1022766379846605  0.6263826031617064  0.1317978313367026
  0.1342536306016028  0.6406068951559823  0.3660820256327274
  0.1405371981894749  0.6446957791081186  0.6312641012106314
  0.1164070049143909  0.6084396974130555  0.8686505346605625
  0.9037051135861801  0.3914535048135318  0.1040912629343685
  0.8482231168870431  0.3570709197116714  0.3920879475427332
  0.8501003137689515  0.3582921927774851  0.6032765223829554
  0.9081906127545657  0.3918295445303371  0.8910353640838993
  0.6224783875276247  0.6114850984749749  0.1444979992479764
  0.6294968694032348  0.6398907369263109  0.3542785758860715
  0.6369568073310962  0.6451791128006971  0.6428277624168289
  0.6250366741621209  0.6077719936845635  0.8537904383263477
  0.4042481596093680  0.8919043756732616  0.1044789390070583
  0.3480813187644141  0.8571786823334713  0.3924104011959018
  0.3502366060539387  0.8585387446219799  0.6033715152484331
  0.4081770733446784  0.8917736946649768  0.8909610823770769
  0.8855348973087896  0.9105763978254316  0.1116245611019916
  0.8495834941703009  0.8553969653689212  0.3821258856265589
  0.8524788891756402  0.8565511123888085  0.6199607518677837
  0.9078265936636954  0.8988101515844885  0.8779300045430068
  0.8501654317746379  0.1442324673614383  0.1052830326938800
  0.8851025678241390  0.0916354678971251  0.3890366169623135
  0.8854347325479448  0.0911946505319464  0.6070050012689285
  0.8493430740303602  0.1446101629749494  0.8937398716622403
  0.3522806184500296  0.1403712531849562  0.1112877607597152
  0.3862396718328429  0.0919328081869747  0.3895255764234222
  0.3875127584477922  0.0932997016563024  0.6078799283328450
  0.3672563210253874  0.1623953011174712  0.8879447544726691
  0.1339589823757248  0.3611394354945198  0.1412030874256785
  0.1011269665686623  0.3763210818260108  0.3575623913988284
  0.0996853011958801  0.3799093743125681  0.6368093733888034
  0.1363800609050759  0.3582642579468532  0.8539612205492121
  0.8526817905717577  0.6401059584825658  0.1110977371458846
  0.8860078933554452  0.5918039267610335  0.3895288583009952
  0.8881892972578173  0.5925134265219788  0.6076656958103775
  0.8679516706660967  0.6621686059566734  0.8887978852214090
  0.6308028912689416  0.3619636387033327  0.1407215823664904
  0.6008469861354229  0.3764658407854706  0.3581178623041474
  0.6018237962814791  0.3804182144542912  0.6364852866128331
  0.6557397542759555  0.3725604744556743  0.8624813077376744
  0.3504937929738224  0.6440451140252170  0.1054177594025318
  0.3840434920452295  0.5928185071801454  0.3891829501365045
  0.3854683028748653  0.5912108839323306  0.6070930973775289
  0.3497558399999949  0.6444391804042819  0.8941491299052388
  0.1316273851483301  0.8610704988598789  0.1419343915532343
  0.1008848234734781  0.8759936313442109  0.3593464727402829
  0.1022719835531010  0.8796987443441707  0.6368633682281541
  0.1562193411902738  0.8722040608149974  0.8616277518699124
  0.6345492479968149  0.8605901563200039  0.1408746902863153
  0.6011397172080053  0.8765976059025242  0.3574075085226628
  0.5990829351170546  0.8804815359603023  0.6361800705051466
  0.6364744986597564  0.8581517711272834  0.8547426997831454
  0.9948021419893112  0.0245339119385140  0.9977993952425362
  0.9985017148269834  0.0040797914461906  0.2517952628878380
  0.9999336867732640  0.9796309145615182  0.4986010305750312
  0.9995350361348835  0.0045851454979402  0.7457425950500637
  0.4985539606976285  0.0301126030080271  0.9997731201089678
  0.5045397807988190  0.0005502142776243  0.2455671172861751
  0.4980160375836157  0.9712922286471115  0.4988389445535171
  0.5105767043587335  0.9990921709857575  0.7536188004321717
  0.2593589268602298  0.2735072609838584  0.0018290121476310
  0.2507797724595463  0.2503033429364518  0.2494844993221766
  0.2599318540412620  0.2315976399234633  0.5013704239704840
  0.2612377312398226  0.2431724678788407  0.7521553931881120
  0.9988165816447125  0.5301124991222956  0.9998737122407851
  0.0045632246126507  0.5007962910832998  0.2461226383173038
  0.9986650458449676  0.4714065436908620  0.4986220411216365
  0.0096765678227560  0.4989268109051133  0.7534555644554292
  0.7489724049740029  0.2777163686188391  0.0005233926128768
  0.7443549944164297  0.2515472637117878  0.2513863893028311
  0.7510289739576615  0.2207984967730380  0.4987595878102264
  0.7482736065092659  0.2542325626659367  0.7471041384148769
  0.4947531178051413  0.5239265830513024  0.9981976478887780
  0.4975818743055827  0.5052119309937958  0.2513497873728578
  0.4996498334731759  0.4799225695586902  0.4979471725975019
  0.5001317240459835  0.5049770697945705  0.7459045150546034
  0.2505627089503930  0.7784875891553403  0.0004075528795756
  0.2441068552659374  0.7511776974663904  0.2535187127675259
  0.2505634354853888  0.7211385683535156  0.4991003461986641
  0.2490320788066212  0.7547848174613713  0.7461125519685163
  0.7585803641461096  0.7730222041028256  0.0020207153145801
  0.7507843998396140  0.7501599342762413  0.2496557780447376
  0.7590628930845216  0.7315284673501299  0.5022958421066451
  0.7611088975758906  0.7432757427373503  0.7528661986492539
  0.0039424837397399  0.2591333825112289  0.1221688348824621
  0.0008181987716241  0.2434967878258442  0.3718237824805241
  0.0050917734475117  0.2446097521457085  0.6244189552283586
  0.0051257886889520  0.2585227837417892  0.8732390372800036
  0.4999427513003653  0.2590107620038708  0.1260541385789306
  0.5016574837086586  0.2431436548143355  0.3735596331545397
  0.5056426663056752  0.2452744031701564  0.6244874301934866
  0.5033489655766678  0.2609320342501212  0.8751725156351123
  0.2509724559995184  0.5111447284520368  0.1224258744814459
  0.2514855794644751  0.4915687129874062  0.3744334807178224
  0.2525292328747660  0.4923561498958277  0.6243226758260280
  0.2527908642893373  0.5114295782071794  0.8744223481449216
  0.0004893215320879  0.7590553833791390  0.1261300523790688
  0.0006634043791389  0.7429922841585863  0.3740909917957905
  0.0053395084717186  0.7449446284760474  0.6247295801859875
  0.0038429788060192  0.7609384681578819  0.8753712825568214
  0.7491942974652404  0.5075573484863376  0.1241763517482787
  0.7533616419993633  0.4917814446954645  0.3743319501262314
  0.7547005917406679  0.4932816098138141  0.6216143977434885
  0.7550350111382340  0.5066007445396024  0.8728399899522348
  0.5039311493793466  0.7591387551505504  0.1223131197982193
  0.5008039018969324  0.7437892222337493  0.3718370353087078
  0.5051059813549134  0.7445929792202086  0.6243939392678410
  0.5050751438427554  0.7582599301715941  0.8734190461900716
  0.2490652221549974  0.0075204517061652  0.1244099138889664
  0.2534304742637433  0.9921509263605280  0.3746279407142757
  0.2545353541559224  0.9935869133761392  0.6218538143992447
  0.2548834934998681  0.0065594070373707  0.8727226151892615
  0.7513453785787108  0.0108206543968358  0.1223537592463289
  0.7517280317103304  0.9915070029099764  0.3742461828551182
  0.7522963157767933  0.9924910650043854  0.6241588228160385
  0.7527251066009037  0.0111004332686054  0.8746622967408690
 
  0.00000000E+00  0.00000000E+00  0.00000000E+00
  0.00000000E+00  0.00000000E+00  0.00000000E+00
  0.00000000E+00  0.00000000E+00  0.00000000E+00
  0.00000000E+00  0.00000000E+00  0.00000000E+00
  0.00000000E+00  0.00000000E+00  0.00000000E+00
  0.00000000E+00  0.00000000E+00  0.00000000E+00
  0.00000000E+00  0.00000000E+00  0.00000000E+00
  0.00000000E+00  0.00000000E+00  0.00000000E+00
  0.00000000E+00  0.00000000E+00  0.00000000E+00
  0.00000000E+00  0.00000000E+00  0.00000000E+00
  0.00000000E+00  0.00000000E+00  0.00000000E+00
  0.00000000E+00  0.00000000E+00  0.00000000E+00
  0.00000000E+00  0.00000000E+00  0.00000000E+00
  0.00000000E+00  0.00000000E+00  0.00000000E+00
  0.00000000E+00  0.00000000E+00  0.00000000E+00
  0.00000000E+00  0.00000000E+00  0.00000000E+00
  0.00000000E+00  0.00000000E+00  0.00000000E+00
  0.00000000E+00  0.00000000E+00  0.00000000E+00
  0.00000000E+00  0.00000000E+00  0.00000000E+00
  0.00000000E+00  0.00000000E+00  0.00000000E+00
  0.00000000E+00  0.00000000E+00  0.00000000E+00
  0.00000000E+00  0.00000000E+00  0.00000000E+00
  0.00000000E+00  0.00000000E+00  0.00000000E+00
  0.00000000E+00  0.00000000E+00  0.00000000E+00
  0.00000000E+00  0.00000000E+00  0.00000000E+00
  0.00000000E+00  0.00000000E+00  0.00000000E+00
  0.00000000E+00  0.00000000E+00  0.00000000E+00
  0.00000000E+00  0.00000000E+00  0.00000000E+00
  0.00000000E+00  0.00000000E+00  0.00000000E+00
  0.00000000E+00  0.00000000E+00  0.00000000E+00
  0.00000000E+00  0.00000000E+00  0.00000000E+00
  0.00000000E+00  0.00000000E+00  0.00000000E+00
  0.00000000E+00  0.00000000E+00  0.00000000E+00
  0.00000000E+00  0.00000000E+00  0.00000000E+00
  0.00000000E+00  0.00000000E+00  0.00000000E+00
  0.00000000E+00  0.00000000E+00  0.00000000E+00
  0.00000000E+00  0.00000000E+00  0.00000000E+00
  0.00000000E+00  0.00000000E+00  0.00000000E+00
  0.00000000E+00  0.00000000E+00  0.00000000E+00
  0.00000000E+00  0.00000000E+00  0.00000000E+00
  0.00000000E+00  0.00000000E+00  0.00000000E+00
  0.00000000E+00  0.00000000E+00  0.00000000E+00
  0.00000000E+00  0.00000000E+00  0.00000000E+00
  0.00000000E+00  0.00000000E+00  0.00000000E+00
  0.00000000E+00  0.00000000E+00  0.00000000E+00
  0.00000000E+00  0.00000000E+00  0.00000000E+00
  0.00000000E+00  0.00000000E+00  0.00000000E+00
  0.00000000E+00  0.00000000E+00  0.00000000E+00
  0.00000000E+00  0.00000000E+00  0.00000000E+00
  0.00000000E+00  0.00000000E+00  0.00000000E+00
  0.00000000E+00  0.00000000E+00  0.00000000E+00
  0.00000000E+00  0.00000000E+00  0.00000000E+00
  0.00000000E+00  0.00000000E+00  0.00000000E+00
  0.00000000E+00  0.00000000E+00  0.00000000E+00
  0.00000000E+00  0.00000000E+00  0.00000000E+00
  0.00000000E+00  0.00000000E+00  0.00000000E+00
  0.00000000E+00  0.00000000E+00  0.00000000E+00
  0.00000000E+00  0.00000000E+00  0.00000000E+00
  0.00000000E+00  0.00000000E+00  0.00000000E+00
  0.00000000E+00  0.00000000E+00  0.00000000E+00
  0.00000000E+00  0.00000000E+00  0.00000000E+00
  0.00000000E+00  0.00000000E+00  0.00000000E+00
  0.00000000E+00  0.00000000E+00  0.00000000E+00
  0.00000000E+00  0.00000000E+00  0.00000000E+00
  0.00000000E+00  0.00000000E+00  0.00000000E+00
  0.00000000E+00  0.00000000E+00  0.00000000E+00
  0.00000000E+00  0.00000000E+00  0.00000000E+00
  0.00000000E+00  0.00000000E+00  0.00000000E+00
  0.00000000E+00  0.00000000E+00  0.00000000E+00
  0.00000000E+00  0.00000000E+00  0.00000000E+00
  0.00000000E+00  0.00000000E+00  0.00000000E+00
  0.00000000E+00  0.00000000E+00  0.00000000E+00
  0.00000000E+00  0.00000000E+00  0.00000000E+00
  0.00000000E+00  0.00000000E+00  0.00000000E+00
  0.00000000E+00  0.00000000E+00  0.00000000E+00
  0.00000000E+00  0.00000000E+00  0.00000000E+00
  0.00000000E+00  0.00000000E+00  0.00000000E+00
  0.00000000E+00  0.00000000E+00  0.00000000E+00
  0.00000000E+00  0.00000000E+00  0.00000000E+00
  0.00000000E+00  0.00000000E+00  0.00000000E+00
  0.00000000E+00  0.00000000E+00  0.00000000E+00
  0.00000000E+00  0.00000000E+00  0.00000000E+00
  0.00000000E+00  0.00000000E+00  0.00000000E+00
  0.00000000E+00  0.00000000E+00  0.00000000E+00
  0.00000000E+00  0.00000000E+00  0.00000000E+00
  0.00000000E+00  0.00000000E+00  0.00000000E+00
  0.00000000E+00  0.00000000E+00  0.00000000E+00
  0.00000000E+00  0.00000000E+00  0.00000000E+00
  0.00000000E+00  0.00000000E+00  0.00000000E+00
  0.00000000E+00  0.00000000E+00  0.00000000E+00
  0.00000000E+00  0.00000000E+00  0.00000000E+00
  0.00000000E+00  0.00000000E+00  0.00000000E+00
  0.00000000E+00  0.00000000E+00  0.00000000E+00
  0.00000000E+00  0.00000000E+00  0.00000000E+00
  0.00000000E+00  0.00000000E+00  0.00000000E+00
  0.00000000E+00  0.00000000E+00  0.00000000E+00
  0.00000000E+00  0.00000000E+00  0.00000000E+00
  0.00000000E+00  0.00000000E+00  0.00000000E+00
  0.00000000E+00  0.00000000E+00  0.00000000E+00
  0.00000000E+00  0.00000000E+00  0.00000000E+00
  0.00000000E+00  0.00000000E+00  0.00000000E+00
  0.00000000E+00  0.00000000E+00  0.00000000E+00
  0.00000000E+00  0.00000000E+00  0.00000000E+00
  0.00000000E+00  0.00000000E+00  0.00000000E+00
  0.00000000E+00  0.00000000E+00  0.00000000E+00
  0.00000000E+00  0.00000000E+00  0.00000000E+00
  0.00000000E+00  0.00000000E+00  0.00000000E+00
  0.00000000E+00  0.00000000E+00  0.00000000E+00
  0.00000000E+00  0.00000000E+00  0.00000000E+00
  0.00000000E+00  0.00000000E+00  0.00000000E+00
  0.00000000E+00  0.00000000E+00  0.00000000E+00
  0.00000000E+00  0.00000000E+00  0.00000000E+00
  0.00000000E+00  0.00000000E+00  0.00000000E+00
  0.00000000E+00  0.00000000E+00  0.00000000E+00
  0.00000000E+00  0.00000000E+00  0.00000000E+00
  0.00000000E+00  0.00000000E+00  0.00000000E+00
  0.00000000E+00  0.00000000E+00  0.00000000E+00
  0.00000000E+00  0.00000000E+00  0.00000000E+00
  0.00000000E+00  0.00000000E+00  0.00000000E+00
  0.00000000E+00  0.00000000E+00  0.00000000E+00
  0.00000000E+00  0.00000000E+00  0.00000000E+00
  0.00000000E+00  0.00000000E+00  0.00000000E+00
  0.00000000E+00  0.00000000E+00  0.00000000E+00
  0.00000000E+00  0.00000000E+00  0.00000000E+00
  0.00000000E+00  0.00000000E+00  0.00000000E+00
  0.00000000E+00  0.00000000E+00  0.00000000E+00
  0.00000000E+00  0.00000000E+00  0.00000000E+00
  0.00000000E+00  0.00000000E+00  0.00000000E+00
  0.00000000E+00  0.00000000E+00  0.00000000E+00
  0.00000000E+00  0.00000000E+00  0.00000000E+00
  0.00000000E+00  0.00000000E+00  0.00000000E+00
  0.00000000E+00  0.00000000E+00  0.00000000E+00
  0.00000000E+00  0.00000000E+00  0.00000000E+00
  0.00000000E+00  0.00000000E+00  0.00000000E+00
  0.00000000E+00  0.00000000E+00  0.00000000E+00
  0.00000000E+00  0.00000000E+00  0.00000000E+00
  0.00000000E+00  0.00000000E+00  0.00000000E+00
  0.00000000E+00  0.00000000E+00  0.00000000E+00
  0.00000000E+00  0.00000000E+00  0.00000000E+00
  0.00000000E+00  0.00000000E+00  0.00000000E+00
  0.00000000E+00  0.00000000E+00  0.00000000E+00
  0.00000000E+00  0.00000000E+00  0.00000000E+00
  0.00000000E+00  0.00000000E+00  0.00000000E+00
  0.00000000E+00  0.00000000E+00  0.00000000E+00
  0.00000000E+00  0.00000000E+00  0.00000000E+00
  0.00000000E+00  0.00000000E+00  0.00000000E+00
  0.00000000E+00  0.00000000E+00  0.00000000E+00
  0.00000000E+00  0.00000000E+00  0.00000000E+00
  0.00000000E+00  0.00000000E+00  0.00000000E+00
  0.00000000E+00  0.00000000E+00  0.00000000E+00
  0.00000000E+00  0.00000000E+00  0.00000000E+00
  0.00000000E+00  0.00000000E+00  0.00000000E+00
  0.00000000E+00  0.00000000E+00  0.00000000E+00
  0.00000000E+00  0.00000000E+00  0.00000000E+00
  0.00000000E+00  0.00000000E+00  0.00000000E+00
  0.00000000E+00  0.00000000E+00  0.00000000E+00
  0.00000000E+00  0.00000000E+00  0.00000000E+00
  0.00000000E+00  0.00000000E+00  0.00000000E+00
  0.00000000E+00  0.00000000E+00  0.00000000E+00
  0.00000000E+00  0.00000000E+00  0.00000000E+00
