Ca Rb F                                 
   1.00000000000000     
     9.0362659999999995   -9.0362659999999995    0.0000000000000000
     9.0362659999999995    9.0362659999999995    0.0000000000000000
     0.0000000000000000    0.0000000000000000   18.0725319999999989
   Ca   F    Rb
    32    96    32
Direct
 -0.0005807634228481  0.2492543723333192  0.1252386296781024
 -0.0005070748750822  0.2500805428929526  0.3754313445411380
 -0.0006821090312441  0.2508712072471909  0.6253614467897906
  0.9993459595181045  0.2500068507644741  0.8753699910734947
  0.4994241526580619  0.2490925828952508  0.1253077766084728
  0.4994220330733809  0.2500330643482530  0.3753842585181666
  0.4993414632606726  0.2507118211432021  0.6252485305998344
  0.4994993066195541  0.2499510750423003  0.8754129806038259
  0.2494023948640017  0.4990930525701198  0.1253367990670576
  0.2495117015135146  0.4999281330986983  0.3755288222191768
  0.2494136749252898  0.5007878191081752  0.6253978615905041
  0.2494710851491995  0.4998779546642065  0.8754375446419839
 -0.0006203567386870  0.7492008620452512  0.1252190378186890
 -0.0005674087665480  0.7500400081740155  0.3754400857693835
 -0.0007180291071334  0.7508701329773283  0.6253502990982103
 -0.0006688451792821  0.7500129889284879  0.8753106107684147
  0.7493518375673258  0.4991410712146581  0.1253525782468371
  0.7495162558619684  0.4999992586731822  0.3753499111857287
  0.7494042673656973  0.5007720621513994  0.6252969455597496
  0.7494793883704238  0.5000152545395024  0.8754963037752427
  0.4993615665602669  0.7491413805218713  0.1252983306846239
  0.4993482724000751  0.7500416210385324  0.3754256016942365
  0.4992692313567561  0.7507369731915549  0.6252961405024996
  0.4994226239249028  0.7499201587215493  0.8754377963401879
  0.2494570680230164 -0.0009161753082600  0.1252077115973276
  0.2494571163135889 -0.0000500448889594  0.3753500151252714
  0.2493767078184657  0.0007880876638460  0.6252811843310879
  0.2494273772231098 -0.0000849382646409  0.8752930631254865
  0.7494315888259500 -0.0008573516049321  0.1252631592790744
  0.7495015479662133  0.0000451947673421  0.3752694285087845
  0.7493370066196779  0.0006968130792540  0.6252318961058592
  0.7493548998216993 -0.0000196495389166  0.8754500246653194
  0.0206095358407801  0.2407462121804495  0.0002496966759411
 -0.0208505238948746  0.2605983905206296  0.2503350796838177
  0.0201276029458079  0.2400531383209194  0.5004177619972583
 -0.0216359787882628  0.2593250966463436  0.7504058538408600
  0.5205756003445019  0.2403491972156630  0.0003358601777198
  0.4788027291406345  0.2602515239056230  0.2503307216233245
  0.5200990009549510  0.2398054434433225  0.5003384456247615
  0.4788723375508089  0.2590526281718025  0.7503370492365220
  0.2288781649732717  0.5100949552721357  0.0003984298436477
  0.2700726457876441  0.4904534099191969  0.2504384686386883
  0.2286523876076307  0.5097573552348358  0.5004336281874615
  0.2700959780611911  0.4897414438796118  0.7504138532287254
  0.0204521789087811  0.7406743165068896  0.0002674828485405
 -0.0209741299654891  0.7601119632185084  0.2503215795769548
  0.0200355593574183  0.7403285147802230  0.5004334374930061
  0.9782666753592112  0.7591639479599748  0.7503158402929061
  0.7286897686748584  0.5106877881167722  0.0004567088357456
  0.7703712344521748  0.4900793378893200  0.2503552156284454
  0.7286312464009199  0.5097904562926266  0.5002894204339798
  0.7697638919493384  0.4893176233724437  0.7503878140418712
  0.5206364112128089  0.7404923626729756  0.0003680260866608
  0.4785799412287490  0.7603740674802280  0.2503463674329733
  0.5203698162447621  0.7398812884722560  0.5003785457247282
  0.4787001285976653  0.7589516701152248  0.7503750557965034
  0.2286821050738049  0.0098465109142308  0.0002605285697248
  0.2702990209407103  0.9904817594083820  0.2502803436194775
  0.2282858061574805  0.0096825855609079  0.5002916274085802
  0.2703135335483145  0.9896568009871608  0.7502911209110739
  0.7286746719964633  0.0103284288297498  0.0003896112673164
  0.7705611197542503  0.9903365615223263  0.2502847189605837
  0.7286655316860448  0.0095736224079329  0.5002128332407019
  0.7698539981915777 -0.0104217154607305  0.7503316237905887
  0.1250320389629477  0.1248528350488449  0.1405283739942997
  0.1179992721173354  0.1185521740087561  0.3599577460522622
  0.1265201577587207  0.1279606123061230  0.6408678105132339
  0.1308089230056637  0.1313493106370113  0.8600176169490793
  0.6250735822915541  0.1248147426062236  0.1408572420712650
  0.6180266531701296  0.1186404412354522  0.3599258148297231
  0.6264358421830899  0.1276662320180174  0.6404741631479655
  0.6308877860832101  0.1314492513388802  0.8600348123423587
  0.3738664507468751  0.3736260738001276  0.1097178545124457
  0.3812062698569280  0.3816785446327864  0.3907997402924313
  0.3722097675490115  0.3735614684444121  0.6098993940245122
  0.3679477043454208  0.3683244804170494  0.8907514652632353
  0.1249564402621763  0.6248112513654986  0.1405478257154463
  0.1179875129359496  0.6185015750312436  0.3603264088017110
  0.1265465574022741  0.6279683648967733  0.6407183497078901
  0.1309302368542105  0.6314273740077107  0.8601611166488310
  0.8738271697186081  0.3737041835591313  0.1095738465336225
  0.8811695598299846  0.3817060751694844  0.3908662817447704
  0.8723144891169088  0.3737292682373969  0.6097180997642944
  0.8679015616546566  0.3684616640338071  0.8910045402388608
  0.6248577091452813  0.6247375668516935  0.1410499416522309
  0.6179744009716333  0.6185865190733288  0.3599510445411686
  0.6264850092217010  0.6277821281760469  0.6406591363758377
  0.6310270575278675  0.6315620258956783  0.8600154107967121
  0.3737239872460813  0.8734688764944758  0.1094217799083709
  0.3810381113751331  0.8816311746125606  0.3909909389304680
  0.3720399025809229  0.8734256911798296  0.6096500392539415
  0.3678343696458778  0.8682999340746929  0.8906883612963569
  0.8737829066122699  0.8736196491044559  0.1096525801762508
  0.8810313356653707  0.8816120316358599  0.3907371343994707
  0.8720493969742348  0.8735315182508785  0.6096965273207138
  0.8678377908042714  0.8684366196146018  0.8908668565181888
  0.8751724009496583  0.1235850071666301  0.1190989114639432
  0.8675057462558928  0.1320826731525736  0.3811756191288754
  0.8764188266945528  0.1235923269650653  0.6192195195321153
  0.8813645241955078  0.1179522225898437  0.8813865432424939
  0.3752114665328559  0.1234246211104320  0.1189250875221470
  0.3674559302827003  0.1319800180860941  0.3813318770097627
  0.3765123600149013  0.1234858811248612  0.6189482975319331
  0.3813704424267091  0.1179716595298171  0.8814910474229710
  0.1240017506644897  0.3746892050317580  0.1313039227935692
  0.1316544505332041  0.3678824818847505  0.3699373982323971
  0.1218080209206067  0.3782614379134012  0.6316387915140111
  0.1174926216309584  0.3819055964808892  0.8693552176143632
  0.8751229979172929  0.6235055160459242  0.1191569871009496
  0.8675509519490301  0.6319967033117664  0.3812573043060023
  0.8766053513018162  0.6234383376710075  0.6189253488520599
  0.8814981657968987  0.6179326872418205  0.8813563643786252
  0.6239051674482214  0.3747050408347977  0.1311102358441902
  0.6316682511607185  0.3678754698175113  0.3697499054468293
  0.6220050098868174  0.3779907057927336  0.6312151894463860
  0.6175643383249247  0.3819487951499452  0.8698982679202878
  0.3752554752763398  0.6233502818142868  0.1192277910727384
  0.3674589946891170  0.6320054152601203  0.3812988649777154
  0.3765461234073681  0.6234748286083166  0.6190139982493723
  0.3814616305370357  0.6178639252193528  0.8814576460947771
  0.1237928964414669  0.8748967307586897  0.1312917672139879
  0.1314430305122139  0.8679814520948307  0.3695544170182331
  0.1217033641107597  0.8783678968695052  0.6315204179761257
  0.1174131981526920  0.8819260908210687  0.8692548083961918
  0.6238040573744703  0.8748303443586580  0.1313798718650564
  0.6314016615692485  0.8680752216117386  0.3694479255523603
  0.6216555732028466  0.8782428895544409  0.6314852565202760
  0.6174084605903225  0.8819464311813935  0.8695094535161177
 -0.0018419926081648 -0.0012492762836116 -0.0000168692317575
  0.0004507848130334 -0.0026254182578889  0.2495689099548838
 -0.0014454256455433  0.0021586563011673  0.5011490100068516
  0.0007469290083352  0.0019117306537413  0.7505326542857299
  0.4979004991694722 -0.0014396910405777  0.0000461661265558
  0.5003917219923848 -0.0026127361602199  0.2497016741366025
  0.4988320782635309  0.0021621448973625  0.5010985938791070
  0.5011547708947043  0.0017179225069211  0.7505031556903461
  0.2502333031797207  0.2469672715770984  0.0010285149930843
  0.2477987379240780  0.2489554689137049  0.2508516933811504
  0.2505656036039788  0.2504743401231539  0.4998706598909737
  0.2487062722473073  0.2530534244382472  0.7500625957350001
 -0.0018460974967109  0.4984869428074042  0.0000101737871011
  0.0002053300784984  0.4977776517006967  0.2497631703198004
 -0.0012238795153402  0.5022797536230467  0.5013004029573347
  0.0009389204118715  0.5017142754284399  0.7505938844097946
  0.7500931053289971  0.2472047686069019  0.0011501728743748
  0.7482352126863971  0.2488229836068379  0.2508568778785163
  0.7505406365417874  0.2508458240548901  0.4997638512478779
  0.7486441845330225  0.2528777948455440  0.7497828890307313
  0.4980699704987436  0.4983962563371095  0.0001279153694596
  0.4999973183196338  0.4976409289288012  0.2496828199972173
  0.4988030017152192  0.5022229475502055  0.5011881918544724
  0.5011719763288389  0.5016367616724857  0.7506219542006000
  0.2500476210765256  0.7469852098393702  0.0007912160547312
  0.2479263098139101  0.7486960258233067  0.2507502330982843
  0.2503124210627860  0.7506133305580418  0.4999806479705178
  0.2486858785200346  0.7530110540754172  0.7500926620503551
  0.7501949693360256  0.7469818185843209  0.0010135629319992
  0.7479991714646442  0.7489585085278186  0.2507478571971120
  0.7506239237367315  0.7505451751670676  0.4997657436024855
  0.7482136175735985  0.7532797278322033  0.7499018444112314
 
  0.00000000E+00  0.00000000E+00  0.00000000E+00
  0.00000000E+00  0.00000000E+00  0.00000000E+00
  0.00000000E+00  0.00000000E+00  0.00000000E+00
  0.00000000E+00  0.00000000E+00  0.00000000E+00
  0.00000000E+00  0.00000000E+00  0.00000000E+00
  0.00000000E+00  0.00000000E+00  0.00000000E+00
  0.00000000E+00  0.00000000E+00  0.00000000E+00
  0.00000000E+00  0.00000000E+00  0.00000000E+00
  0.00000000E+00  0.00000000E+00  0.00000000E+00
  0.00000000E+00  0.00000000E+00  0.00000000E+00
  0.00000000E+00  0.00000000E+00  0.00000000E+00
  0.00000000E+00  0.00000000E+00  0.00000000E+00
  0.00000000E+00  0.00000000E+00  0.00000000E+00
  0.00000000E+00  0.00000000E+00  0.00000000E+00
  0.00000000E+00  0.00000000E+00  0.00000000E+00
  0.00000000E+00  0.00000000E+00  0.00000000E+00
  0.00000000E+00  0.00000000E+00  0.00000000E+00
  0.00000000E+00  0.00000000E+00  0.00000000E+00
  0.00000000E+00  0.00000000E+00  0.00000000E+00
  0.00000000E+00  0.00000000E+00  0.00000000E+00
  0.00000000E+00  0.00000000E+00  0.00000000E+00
  0.00000000E+00  0.00000000E+00  0.00000000E+00
  0.00000000E+00  0.00000000E+00  0.00000000E+00
  0.00000000E+00  0.00000000E+00  0.00000000E+00
  0.00000000E+00  0.00000000E+00  0.00000000E+00
  0.00000000E+00  0.00000000E+00  0.00000000E+00
  0.00000000E+00  0.00000000E+00  0.00000000E+00
  0.00000000E+00  0.00000000E+00  0.00000000E+00
  0.00000000E+00  0.00000000E+00  0.00000000E+00
  0.00000000E+00  0.00000000E+00  0.00000000E+00
  0.00000000E+00  0.00000000E+00  0.00000000E+00
  0.00000000E+00  0.00000000E+00  0.00000000E+00
  0.00000000E+00  0.00000000E+00  0.00000000E+00
  0.00000000E+00  0.00000000E+00  0.00000000E+00
  0.00000000E+00  0.00000000E+00  0.00000000E+00
  0.00000000E+00  0.00000000E+00  0.00000000E+00
  0.00000000E+00  0.00000000E+00  0.00000000E+00
  0.00000000E+00  0.00000000E+00  0.00000000E+00
  0.00000000E+00  0.00000000E+00  0.00000000E+00
  0.00000000E+00  0.00000000E+00  0.00000000E+00
  0.00000000E+00  0.00000000E+00  0.00000000E+00
  0.00000000E+00  0.00000000E+00  0.00000000E+00
  0.00000000E+00  0.00000000E+00  0.00000000E+00
  0.00000000E+00  0.00000000E+00  0.00000000E+00
  0.00000000E+00  0.00000000E+00  0.00000000E+00
  0.00000000E+00  0.00000000E+00  0.00000000E+00
  0.00000000E+00  0.00000000E+00  0.00000000E+00
  0.00000000E+00  0.00000000E+00  0.00000000E+00
  0.00000000E+00  0.00000000E+00  0.00000000E+00
  0.00000000E+00  0.00000000E+00  0.00000000E+00
  0.00000000E+00  0.00000000E+00  0.00000000E+00
  0.00000000E+00  0.00000000E+00  0.00000000E+00
  0.00000000E+00  0.00000000E+00  0.00000000E+00
  0.00000000E+00  0.00000000E+00  0.00000000E+00
  0.00000000E+00  0.00000000E+00  0.00000000E+00
  0.00000000E+00  0.00000000E+00  0.00000000E+00
  0.00000000E+00  0.00000000E+00  0.00000000E+00
  0.00000000E+00  0.00000000E+00  0.00000000E+00
  0.00000000E+00  0.00000000E+00  0.00000000E+00
  0.00000000E+00  0.00000000E+00  0.00000000E+00
  0.00000000E+00  0.00000000E+00  0.00000000E+00
  0.00000000E+00  0.00000000E+00  0.00000000E+00
  0.00000000E+00  0.00000000E+00  0.00000000E+00
  0.00000000E+00  0.00000000E+00  0.00000000E+00
  0.00000000E+00  0.00000000E+00  0.00000000E+00
  0.00000000E+00  0.00000000E+00  0.00000000E+00
  0.00000000E+00  0.00000000E+00  0.00000000E+00
  0.00000000E+00  0.00000000E+00  0.00000000E+00
  0.00000000E+00  0.00000000E+00  0.00000000E+00
  0.00000000E+00  0.00000000E+00  0.00000000E+00
  0.00000000E+00  0.00000000E+00  0.00000000E+00
  0.00000000E+00  0.00000000E+00  0.00000000E+00
  0.00000000E+00  0.00000000E+00  0.00000000E+00
  0.00000000E+00  0.00000000E+00  0.00000000E+00
  0.00000000E+00  0.00000000E+00  0.00000000E+00
  0.00000000E+00  0.00000000E+00  0.00000000E+00
  0.00000000E+00  0.00000000E+00  0.00000000E+00
  0.00000000E+00  0.00000000E+00  0.00000000E+00
  0.00000000E+00  0.00000000E+00  0.00000000E+00
  0.00000000E+00  0.00000000E+00  0.00000000E+00
  0.00000000E+00  0.00000000E+00  0.00000000E+00
  0.00000000E+00  0.00000000E+00  0.00000000E+00
  0.00000000E+00  0.00000000E+00  0.00000000E+00
  0.00000000E+00  0.00000000E+00  0.00000000E+00
  0.00000000E+00  0.00000000E+00  0.00000000E+00
  0.00000000E+00  0.00000000E+00  0.00000000E+00
  0.00000000E+00  0.00000000E+00  0.00000000E+00
  0.00000000E+00  0.00000000E+00  0.00000000E+00
  0.00000000E+00  0.00000000E+00  0.00000000E+00
  0.00000000E+00  0.00000000E+00  0.00000000E+00
  0.00000000E+00  0.00000000E+00  0.00000000E+00
  0.00000000E+00  0.00000000E+00  0.00000000E+00
  0.00000000E+00  0.00000000E+00  0.00000000E+00
  0.00000000E+00  0.00000000E+00  0.00000000E+00
  0.00000000E+00  0.00000000E+00  0.00000000E+00
  0.00000000E+00  0.00000000E+00  0.00000000E+00
  0.00000000E+00  0.00000000E+00  0.00000000E+00
  0.00000000E+00  0.00000000E+00  0.00000000E+00
  0.00000000E+00  0.00000000E+00  0.00000000E+00
  0.00000000E+00  0.00000000E+00  0.00000000E+00
  0.00000000E+00  0.00000000E+00  0.00000000E+00
  0.00000000E+00  0.00000000E+00  0.00000000E+00
  0.00000000E+00  0.00000000E+00  0.00000000E+00
  0.00000000E+00  0.00000000E+00  0.00000000E+00
  0.00000000E+00  0.00000000E+00  0.00000000E+00
  0.00000000E+00  0.00000000E+00  0.00000000E+00
  0.00000000E+00  0.00000000E+00  0.00000000E+00
  0.00000000E+00  0.00000000E+00  0.00000000E+00
  0.00000000E+00  0.00000000E+00  0.00000000E+00
  0.00000000E+00  0.00000000E+00  0.00000000E+00
  0.00000000E+00  0.00000000E+00  0.00000000E+00
  0.00000000E+00  0.00000000E+00  0.00000000E+00
  0.00000000E+00  0.00000000E+00  0.00000000E+00
  0.00000000E+00  0.00000000E+00  0.00000000E+00
  0.00000000E+00  0.00000000E+00  0.00000000E+00
  0.00000000E+00  0.00000000E+00  0.00000000E+00
  0.00000000E+00  0.00000000E+00  0.00000000E+00
  0.00000000E+00  0.00000000E+00  0.00000000E+00
  0.00000000E+00  0.00000000E+00  0.00000000E+00
  0.00000000E+00  0.00000000E+00  0.00000000E+00
  0.00000000E+00  0.00000000E+00  0.00000000E+00
  0.00000000E+00  0.00000000E+00  0.00000000E+00
  0.00000000E+00  0.00000000E+00  0.00000000E+00
  0.00000000E+00  0.00000000E+00  0.00000000E+00
  0.00000000E+00  0.00000000E+00  0.00000000E+00
  0.00000000E+00  0.00000000E+00  0.00000000E+00
  0.00000000E+00  0.00000000E+00  0.00000000E+00
  0.00000000E+00  0.00000000E+00  0.00000000E+00
  0.00000000E+00  0.00000000E+00  0.00000000E+00
  0.00000000E+00  0.00000000E+00  0.00000000E+00
  0.00000000E+00  0.00000000E+00  0.00000000E+00
  0.00000000E+00  0.00000000E+00  0.00000000E+00
  0.00000000E+00  0.00000000E+00  0.00000000E+00
  0.00000000E+00  0.00000000E+00  0.00000000E+00
  0.00000000E+00  0.00000000E+00  0.00000000E+00
  0.00000000E+00  0.00000000E+00  0.00000000E+00
  0.00000000E+00  0.00000000E+00  0.00000000E+00
  0.00000000E+00  0.00000000E+00  0.00000000E+00
  0.00000000E+00  0.00000000E+00  0.00000000E+00
  0.00000000E+00  0.00000000E+00  0.00000000E+00
  0.00000000E+00  0.00000000E+00  0.00000000E+00
  0.00000000E+00  0.00000000E+00  0.00000000E+00
  0.00000000E+00  0.00000000E+00  0.00000000E+00
  0.00000000E+00  0.00000000E+00  0.00000000E+00
  0.00000000E+00  0.00000000E+00  0.00000000E+00
  0.00000000E+00  0.00000000E+00  0.00000000E+00
  0.00000000E+00  0.00000000E+00  0.00000000E+00
  0.00000000E+00  0.00000000E+00  0.00000000E+00
  0.00000000E+00  0.00000000E+00  0.00000000E+00
  0.00000000E+00  0.00000000E+00  0.00000000E+00
  0.00000000E+00  0.00000000E+00  0.00000000E+00
  0.00000000E+00  0.00000000E+00  0.00000000E+00
  0.00000000E+00  0.00000000E+00  0.00000000E+00
  0.00000000E+00  0.00000000E+00  0.00000000E+00
  0.00000000E+00  0.00000000E+00  0.00000000E+00
  0.00000000E+00  0.00000000E+00  0.00000000E+00
  0.00000000E+00  0.00000000E+00  0.00000000E+00
  0.00000000E+00  0.00000000E+00  0.00000000E+00
  0.00000000E+00  0.00000000E+00  0.00000000E+00
  0.00000000E+00  0.00000000E+00  0.00000000E+00
