Li Ba F                                 
   1.00000000000000     
     8.0981120000000004   -8.0981120000000004    0.0000000000000000
     8.0981120000000004    8.0981120000000004    0.0000000000000000
     0.0000000000000000    0.0000000000000000   16.1962249999999983
   Ba   F    Li
    32    96    32
Direct
  0.9990292672350942 -0.0003799450247346  0.0005614849730885
  0.9990056827444639 -0.0002031500356701  0.2505951505974628
 -0.0007737167641442 -0.0002191939687848  0.5005170613259453
 -0.0008722676303977 -0.0004049320616236  0.7505349483235648
  0.4990123513298323 -0.0004793628178997  0.0005698691700428
  0.4990755305628304 -0.0004436140557708  0.2505845712244102
  0.4992759167048174 -0.0003482325494741  0.5005486178404943
  0.4991344311699715 -0.0003854696822823  0.7505307304200631
  0.2490012048604897  0.2497095133211924  0.0005653779622147
  0.2489348681341031  0.2497669508598510  0.2505322066107840
  0.2492008292813427  0.2498643284440302  0.5004905871015770
  0.2491274159396381  0.2497575913475564  0.7505257132530410
  0.9988808441552333  0.4995319456041283  0.0005832384123632
  0.9989256513078505  0.4996549145132409  0.2505861008873254
 -0.0009307188264647  0.4997637216661284  0.5005535187740886
 -0.0010220880325110  0.4995969472960950  0.7505474655332296
  0.7490007346855270  0.2493834592648392  0.0005789807991455
  0.7489427753298549  0.2495755727430777  0.2505277757483006
  0.7492006360088043  0.2496594043014252  0.5005477184057404
  0.7491304903701824  0.2494659304243154  0.7505484923818162
  0.4989379418417378  0.4994900153883061  0.0005849966171520
  0.4988888872541763  0.4995986022632362  0.2505420151400178
  0.4990839391085923  0.4996868475928243  0.5004980126163497
  0.4989826083744543  0.4995544284652582  0.7505936320917718
  0.2488923575206327  0.7496874327416307  0.0005628175877360
  0.2488870631062647  0.7497302987821238  0.2505324356268958
  0.2491884034495928  0.7498164126062727  0.5004930574673875
  0.2489982415771498  0.7497533540270351  0.7505269550842204
  0.7489189202837394  0.7493823891821529  0.0005530184482991
  0.7488842584007422  0.7495446681530983  0.2504906315388961
  0.7490696061515799  0.7496320809974893  0.5005477283863389
  0.7491211818520381  0.7494083625609883  0.7505637856131619
 -0.0009014362599689  0.2494287525219847  0.0004343778859627
  0.9987668799170317  0.2499949798562126  0.2505489741426031
 -0.0008613248660152  0.2495165756862029  0.5005520121138796
 -0.0009940217379961  0.2499216485965195  0.7505059487138711
  0.4990662821807731  0.2489008777809235  0.0004983096080056
  0.4989564248941705  0.2499041049776180  0.2504744961029728
  0.4992017310535042  0.2494402577273396  0.5004388474969239
  0.4989700544600043  0.2498697571778903  0.7505029457375075
  0.2485735981478465  0.4998859785819030  0.0004743617715728
  0.2491230383073548  0.4995745068111266  0.2504932341614495
  0.2491065491700709  0.5001397630743502  0.5004965082898141
  0.2491730691243357  0.4994301728421208  0.7504834063207455
  0.9989356197502277  0.7492167812605812  0.0005027507139374
  0.9988285795502041  0.7500643064981697  0.2505180935360174
 -0.0008552995603704  0.7495092272624569  0.5004750525533577
  0.9991838405572416  0.7499420765108498  0.7504891256654481
  0.7487191892359054  0.4996939770543380  0.0004750723879528
  0.7490373527611233  0.4991427659884767  0.2504887239547238
  0.7488590799223206  0.4998335137750511  0.5005665871766174
  0.7490000382991970  0.4990615514911114  0.7505274580314435
  0.4989361060290562  0.7492253879416880  0.0004561150257035
  0.4987024331399820  0.7497708004115384  0.2504997570839798
  0.4993169077790303  0.7494214436520832  0.5005352998289099
  0.4988664933237517  0.7499037015339511  0.7506009616412184
  0.2489729462616389  0.0000198517301094  0.0005532359814106
  0.2490292550948466  0.9995588615788447  0.2505165233863400
  0.2491086030606482  0.0003047364685598  0.5004962171963040
  0.2494173717234793 -0.0005535630561579  0.7505160766376704
  0.7489329770239872  0.9996929573539990  0.0004675097398216
  0.7492638320718403 -0.0008355164339816  0.2504536767501619
  0.7489605177660036 -0.0002928597261990  0.5005119628472056
  0.7495851893671147  0.9991406689214043  0.7505074665236487
  0.1241619911117795  0.1249544940013055  0.1255634641355578
  0.1243080899253090  0.1250218588992188  0.3753289389836351
  0.1243097714572409  0.1247668954430356  0.6256732862863825
  0.1244337858076188  0.1248849933100534  0.8753278123373892
  0.6242634756018581  0.1245755012888444  0.1256873567228924
  0.6243506128373649  0.1246789409555941  0.3753010632243293
  0.6242701501614772  0.1245520518267239  0.6256897724015412
  0.6243636576033156  0.1244783722474118  0.8752251720160198
  0.3738126820690910  0.3745141877932497  0.1252217131054245
  0.3740215351857900  0.3747864906532233  0.3755561718702580
  0.3743698157380305  0.3749096399063030  0.6253641361095684
  0.3741328324833789  0.3746526935063698  0.8757322134042924
  0.1240425143473919  0.6248625977693040  0.1256993780253726
  0.1241608293911747  0.6249120423072665  0.3753122591762282
  0.1240371353440615  0.6247014050088392  0.6255909573351466
  0.1242452543374290  0.6249320202434320  0.8753561237968839
  0.8738401067503937  0.3743579171053166  0.1252794481891845
  0.8740259089543615  0.3747888842606104  0.3757283817782246
  0.8742946641691484  0.3748407769175168  0.6254284251943519
  0.8740411878493873  0.3743989117729051  0.8757039626521588
  0.6240915811431489  0.6246368993782229  0.1256612012668425
  0.6241393445131405  0.6245693900472301  0.3752633608866914
  0.6239286426828320  0.6244199489421601  0.6258028621610621
  0.6241923388791785  0.6244902205062196  0.8753769577586414
  0.3738739423167813  0.8745139679637344  0.1253258482799116
  0.3742734678155274  0.8749286524837804  0.3756350123341989
  0.3744166029736550  0.8749188107280539  0.6252758890904913
  0.3740861405653769  0.8746840955734628  0.8756891578575275
  0.8739104686127355  0.8743708829784038  0.1252512280024147
  0.8743127429444699  0.8748339113372935  0.3756369396030569
  0.8743994000074600  0.8746954492573802  0.6252973351538489
  0.8740541772009793  0.8742722224127399  0.8756829133283518
  0.8742636583032305  0.1243817247345219  0.1255282885850290
  0.8742332655760690  0.1247131307070472  0.3754791637700197
  0.8742808685319485  0.1246949956553501  0.6255058435190627
  0.8743874504779798  0.1243608646676641  0.8754041949208735
  0.3742297078486875  0.1245403081047615  0.1256610710171008
  0.3743260276265349  0.1247211665832046  0.3753661403436678
  0.3742916308729199  0.1248815284877520  0.6255537808390523
  0.3743440372280827  0.1245773436983610  0.8753370518577267
  0.1237974642693765  0.3748678514715032  0.1254923472847823
  0.1239980582069362  0.3749936181023983  0.3756255380394437
  0.1243150318273915  0.3746866418314500  0.6253228030707642
  0.1240277366480627  0.3748763780655655  0.8754740832599682
  0.8740444518846591  0.6243823633657064  0.1256066357054710
  0.8740442981236027  0.6247730813198410  0.3754491065005197
  0.8740230103136338  0.6247714797871469  0.6255887193990768
  0.8742735678418420  0.6242501543502492  0.8753231535391849
  0.6238341868618452  0.3745951426543844  0.1253546364655934
  0.6240604390499906  0.3746524595192182  0.3755972163281278
  0.6243051238588638  0.3744265164296141  0.6254349508506636
  0.6241877206135327  0.3742877405381749  0.8756047249826143
  0.3740872024104065  0.6245113887734487  0.1254223653961675
  0.3741040314726632  0.6248143429785542  0.3755101332154042
  0.3740088088676793  0.6248651188876706  0.6256791011768386
  0.3741120430007101  0.6245640205281470  0.8754735095417964
  0.1238772115150381  0.8748541328927383  0.1254070420579483
  0.1242373214805957  0.8748643665757735  0.3756221205607236
  0.1243508188982178  0.8747903816582286  0.6253403662771891
  0.1240888274418049  0.8748318821049537  0.8755823200202417
  0.6238981924284650  0.8745519326368120  0.1253626748132826
  0.6243026573024788  0.8745558190190175  0.3754694726540302
  0.6243794497805252  0.8744473388576022  0.6255573771657488
  0.6241120281576150  0.8744272097983452  0.8755198603778308
 -0.0011714137945330  0.2496051574087655  0.1255343677275787
  0.9989196156090193  0.2498988197387418  0.3756742855245368
 -0.0009470812504913  0.2496729022464261  0.6256332278563639
 -0.0009655777765218  0.2496611921412774  0.8756044249422494
  0.4989010614902672  0.2494136787286724  0.1256679403581803
  0.4990155281162206  0.2495735835257826  0.3755120000294087
  0.4991156126115766  0.2495827044091276  0.6255576655537597
  0.4990092635620093  0.2493386797911708  0.8755915392311074
  0.2486553904606874  0.4997788883679150  0.1255128467620662
  0.2488551826531598  0.4998694083755265  0.3756298168489529
  0.2489655352661741  0.4997923545738555  0.6255704532511954
  0.2488218083945120  0.4997231061151657  0.8755884498327667
  0.9987655389220466  0.7496667636946431  0.1256159530148293
  0.9989523532962741  0.7498493531501101  0.3755894805268803
 -0.0009216538687283  0.7496835552239212  0.6254823993394010
  0.9989703403007615  0.7495636483146811  0.8756117888253447
  0.7486646581460792  0.4992965604874431  0.1256506925525403
  0.7488570266506088  0.4995322908799187  0.3755794349497413
  0.7487430736320843  0.4995659064634202  0.6257006563524751
  0.7489026882924977  0.4991369879601085  0.8756584823230590
  0.4986483681937134  0.7495045888382026  0.1255529149703629
  0.4989417575314881  0.7496493187920668  0.3755657452074057
  0.4989235553023709  0.7495184560349905  0.6257269247370134
  0.4988780826204388  0.7495285642104713  0.8756399360643249
  0.2487858762238430 -0.0002312227666648  0.1256442052798174
  0.2491277209725566 -0.0000490396889063  0.3756168590274284
  0.2491832471019647 -0.0001449806238011  0.6255486532262992
  0.2491097065973295 -0.0002272944048445  0.8756810507826582
  0.7489051906562147  0.9992734516839411  0.1255675056497305
  0.7491524749049533 -0.0005881876604309  0.3755758930727470
  0.7492973522832245  0.9993733644501688  0.6256173556090885
  0.7490074123603161  0.9992135697266036  0.8755317295967201
 
  0.00000000E+00  0.00000000E+00  0.00000000E+00
  0.00000000E+00  0.00000000E+00  0.00000000E+00
  0.00000000E+00  0.00000000E+00  0.00000000E+00
  0.00000000E+00  0.00000000E+00  0.00000000E+00
  0.00000000E+00  0.00000000E+00  0.00000000E+00
  0.00000000E+00  0.00000000E+00  0.00000000E+00
  0.00000000E+00  0.00000000E+00  0.00000000E+00
  0.00000000E+00  0.00000000E+00  0.00000000E+00
  0.00000000E+00  0.00000000E+00  0.00000000E+00
  0.00000000E+00  0.00000000E+00  0.00000000E+00
  0.00000000E+00  0.00000000E+00  0.00000000E+00
  0.00000000E+00  0.00000000E+00  0.00000000E+00
  0.00000000E+00  0.00000000E+00  0.00000000E+00
  0.00000000E+00  0.00000000E+00  0.00000000E+00
  0.00000000E+00  0.00000000E+00  0.00000000E+00
  0.00000000E+00  0.00000000E+00  0.00000000E+00
  0.00000000E+00  0.00000000E+00  0.00000000E+00
  0.00000000E+00  0.00000000E+00  0.00000000E+00
  0.00000000E+00  0.00000000E+00  0.00000000E+00
  0.00000000E+00  0.00000000E+00  0.00000000E+00
  0.00000000E+00  0.00000000E+00  0.00000000E+00
  0.00000000E+00  0.00000000E+00  0.00000000E+00
  0.00000000E+00  0.00000000E+00  0.00000000E+00
  0.00000000E+00  0.00000000E+00  0.00000000E+00
  0.00000000E+00  0.00000000E+00  0.00000000E+00
  0.00000000E+00  0.00000000E+00  0.00000000E+00
  0.00000000E+00  0.00000000E+00  0.00000000E+00
  0.00000000E+00  0.00000000E+00  0.00000000E+00
  0.00000000E+00  0.00000000E+00  0.00000000E+00
  0.00000000E+00  0.00000000E+00  0.00000000E+00
  0.00000000E+00  0.00000000E+00  0.00000000E+00
  0.00000000E+00  0.00000000E+00  0.00000000E+00
  0.00000000E+00  0.00000000E+00  0.00000000E+00
  0.00000000E+00  0.00000000E+00  0.00000000E+00
  0.00000000E+00  0.00000000E+00  0.00000000E+00
  0.00000000E+00  0.00000000E+00  0.00000000E+00
  0.00000000E+00  0.00000000E+00  0.00000000E+00
  0.00000000E+00  0.00000000E+00  0.00000000E+00
  0.00000000E+00  0.00000000E+00  0.00000000E+00
  0.00000000E+00  0.00000000E+00  0.00000000E+00
  0.00000000E+00  0.00000000E+00  0.00000000E+00
  0.00000000E+00  0.00000000E+00  0.00000000E+00
  0.00000000E+00  0.00000000E+00  0.00000000E+00
  0.00000000E+00  0.00000000E+00  0.00000000E+00
  0.00000000E+00  0.00000000E+00  0.00000000E+00
  0.00000000E+00  0.00000000E+00  0.00000000E+00
  0.00000000E+00  0.00000000E+00  0.00000000E+00
  0.00000000E+00  0.00000000E+00  0.00000000E+00
  0.00000000E+00  0.00000000E+00  0.00000000E+00
  0.00000000E+00  0.00000000E+00  0.00000000E+00
  0.00000000E+00  0.00000000E+00  0.00000000E+00
  0.00000000E+00  0.00000000E+00  0.00000000E+00
  0.00000000E+00  0.00000000E+00  0.00000000E+00
  0.00000000E+00  0.00000000E+00  0.00000000E+00
  0.00000000E+00  0.00000000E+00  0.00000000E+00
  0.00000000E+00  0.00000000E+00  0.00000000E+00
  0.00000000E+00  0.00000000E+00  0.00000000E+00
  0.00000000E+00  0.00000000E+00  0.00000000E+00
  0.00000000E+00  0.00000000E+00  0.00000000E+00
  0.00000000E+00  0.00000000E+00  0.00000000E+00
  0.00000000E+00  0.00000000E+00  0.00000000E+00
  0.00000000E+00  0.00000000E+00  0.00000000E+00
  0.00000000E+00  0.00000000E+00  0.00000000E+00
  0.00000000E+00  0.00000000E+00  0.00000000E+00
  0.00000000E+00  0.00000000E+00  0.00000000E+00
  0.00000000E+00  0.00000000E+00  0.00000000E+00
  0.00000000E+00  0.00000000E+00  0.00000000E+00
  0.00000000E+00  0.00000000E+00  0.00000000E+00
  0.00000000E+00  0.00000000E+00  0.00000000E+00
  0.00000000E+00  0.00000000E+00  0.00000000E+00
  0.00000000E+00  0.00000000E+00  0.00000000E+00
  0.00000000E+00  0.00000000E+00  0.00000000E+00
  0.00000000E+00  0.00000000E+00  0.00000000E+00
  0.00000000E+00  0.00000000E+00  0.00000000E+00
  0.00000000E+00  0.00000000E+00  0.00000000E+00
  0.00000000E+00  0.00000000E+00  0.00000000E+00
  0.00000000E+00  0.00000000E+00  0.00000000E+00
  0.00000000E+00  0.00000000E+00  0.00000000E+00
  0.00000000E+00  0.00000000E+00  0.00000000E+00
  0.00000000E+00  0.00000000E+00  0.00000000E+00
  0.00000000E+00  0.00000000E+00  0.00000000E+00
  0.00000000E+00  0.00000000E+00  0.00000000E+00
  0.00000000E+00  0.00000000E+00  0.00000000E+00
  0.00000000E+00  0.00000000E+00  0.00000000E+00
  0.00000000E+00  0.00000000E+00  0.00000000E+00
  0.00000000E+00  0.00000000E+00  0.00000000E+00
  0.00000000E+00  0.00000000E+00  0.00000000E+00
  0.00000000E+00  0.00000000E+00  0.00000000E+00
  0.00000000E+00  0.00000000E+00  0.00000000E+00
  0.00000000E+00  0.00000000E+00  0.00000000E+00
  0.00000000E+00  0.00000000E+00  0.00000000E+00
  0.00000000E+00  0.00000000E+00  0.00000000E+00
  0.00000000E+00  0.00000000E+00  0.00000000E+00
  0.00000000E+00  0.00000000E+00  0.00000000E+00
  0.00000000E+00  0.00000000E+00  0.00000000E+00
  0.00000000E+00  0.00000000E+00  0.00000000E+00
  0.00000000E+00  0.00000000E+00  0.00000000E+00
  0.00000000E+00  0.00000000E+00  0.00000000E+00
  0.00000000E+00  0.00000000E+00  0.00000000E+00
  0.00000000E+00  0.00000000E+00  0.00000000E+00
  0.00000000E+00  0.00000000E+00  0.00000000E+00
  0.00000000E+00  0.00000000E+00  0.00000000E+00
  0.00000000E+00  0.00000000E+00  0.00000000E+00
  0.00000000E+00  0.00000000E+00  0.00000000E+00
  0.00000000E+00  0.00000000E+00  0.00000000E+00
  0.00000000E+00  0.00000000E+00  0.00000000E+00
  0.00000000E+00  0.00000000E+00  0.00000000E+00
  0.00000000E+00  0.00000000E+00  0.00000000E+00
  0.00000000E+00  0.00000000E+00  0.00000000E+00
  0.00000000E+00  0.00000000E+00  0.00000000E+00
  0.00000000E+00  0.00000000E+00  0.00000000E+00
  0.00000000E+00  0.00000000E+00  0.00000000E+00
  0.00000000E+00  0.00000000E+00  0.00000000E+00
  0.00000000E+00  0.00000000E+00  0.00000000E+00
  0.00000000E+00  0.00000000E+00  0.00000000E+00
  0.00000000E+00  0.00000000E+00  0.00000000E+00
  0.00000000E+00  0.00000000E+00  0.00000000E+00
  0.00000000E+00  0.00000000E+00  0.00000000E+00
  0.00000000E+00  0.00000000E+00  0.00000000E+00
  0.00000000E+00  0.00000000E+00  0.00000000E+00
  0.00000000E+00  0.00000000E+00  0.00000000E+00
  0.00000000E+00  0.00000000E+00  0.00000000E+00
  0.00000000E+00  0.00000000E+00  0.00000000E+00
  0.00000000E+00  0.00000000E+00  0.00000000E+00
  0.00000000E+00  0.00000000E+00  0.00000000E+00
  0.00000000E+00  0.00000000E+00  0.00000000E+00
  0.00000000E+00  0.00000000E+00  0.00000000E+00
  0.00000000E+00  0.00000000E+00  0.00000000E+00
  0.00000000E+00  0.00000000E+00  0.00000000E+00
  0.00000000E+00  0.00000000E+00  0.00000000E+00
  0.00000000E+00  0.00000000E+00  0.00000000E+00
  0.00000000E+00  0.00000000E+00  0.00000000E+00
  0.00000000E+00  0.00000000E+00  0.00000000E+00
  0.00000000E+00  0.00000000E+00  0.00000000E+00
  0.00000000E+00  0.00000000E+00  0.00000000E+00
  0.00000000E+00  0.00000000E+00  0.00000000E+00
  0.00000000E+00  0.00000000E+00  0.00000000E+00
  0.00000000E+00  0.00000000E+00  0.00000000E+00
  0.00000000E+00  0.00000000E+00  0.00000000E+00
  0.00000000E+00  0.00000000E+00  0.00000000E+00
  0.00000000E+00  0.00000000E+00  0.00000000E+00
  0.00000000E+00  0.00000000E+00  0.00000000E+00
  0.00000000E+00  0.00000000E+00  0.00000000E+00
  0.00000000E+00  0.00000000E+00  0.00000000E+00
  0.00000000E+00  0.00000000E+00  0.00000000E+00
  0.00000000E+00  0.00000000E+00  0.00000000E+00
  0.00000000E+00  0.00000000E+00  0.00000000E+00
  0.00000000E+00  0.00000000E+00  0.00000000E+00
  0.00000000E+00  0.00000000E+00  0.00000000E+00
  0.00000000E+00  0.00000000E+00  0.00000000E+00
  0.00000000E+00  0.00000000E+00  0.00000000E+00
  0.00000000E+00  0.00000000E+00  0.00000000E+00
  0.00000000E+00  0.00000000E+00  0.00000000E+00
  0.00000000E+00  0.00000000E+00  0.00000000E+00
  0.00000000E+00  0.00000000E+00  0.00000000E+00
  0.00000000E+00  0.00000000E+00  0.00000000E+00
  0.00000000E+00  0.00000000E+00  0.00000000E+00
  0.00000000E+00  0.00000000E+00  0.00000000E+00
  0.00000000E+00  0.00000000E+00  0.00000000E+00
  0.00000000E+00  0.00000000E+00  0.00000000E+00
