Cs I Sn                                 
   1.00000000000000     
    12.5436949999999996  -12.5436949999999996    0.0000000000000000
    12.5436949999999996   12.5436949999999996    0.0000000000000000
     0.0000000000000000    0.0000000000000000   25.0873910000000002
   Cs   I    Sn
    32    96    32
Direct
  0.9771145003134846  0.2269667652145857  0.1316931692934673
  0.9853342278060857  0.2380567061409732  0.3894938479967224
  0.0322795313544576  0.2601764010490547  0.6298398592949987
  0.9845100803398958  0.2329200834036581  0.8812838116100680
  0.5140537544282692  0.2639252501230621  0.1071901427094323
  0.5078753145191993  0.2670465710398070  0.3665497794002144
  0.5155364189821732  0.2660210079947418  0.6234724054700344
  0.4662308483640433  0.2360894806171294  0.8723747864255724
  0.2387328743718485  0.4876915095056832  0.1459732254931973
  0.2280285443498992  0.4847078648438186  0.3880022666870615
  0.2617820396574808  0.5065818014209095  0.6267180369719352
  0.2228999867296879  0.4993262147680863  0.8763390264463924
  0.0194232547892170  0.7610783532718566  0.1097837738856337
  0.0115728637736193  0.7676310656798087  0.3679034945617093
  0.0191154344492637  0.7662128535627617  0.6222912857355989
  0.9676343677496121  0.7427756819195940  0.8693930816998399
  0.7724445447200198  0.5225153500874590  0.1141325942974213
  0.7573335769891931  0.5073696557729016  0.3561453774524415
  0.7756942885954438  0.5042309288347671  0.6239519262474431
  0.7402714799691100  0.4963350614714568  0.8747790042489619
  0.4807878236012761  0.7280383925060724  0.1350014644530879
  0.4873526639772364  0.7372789693039549  0.3926269080965037
  0.5284553323874027  0.7628839840577842  0.6288865804665152
  0.4869445408276267  0.7353741056663067  0.8781664966533412
  0.2728266745371442  0.0215932959227460  0.1152161069932322
  0.2574823461989433  0.0045967941729210  0.3542365385049520
  0.2746410036097288  0.9991046642110910  0.6245682088487994
  0.2278922370485527  0.0072401911502517  0.8764241451562954
  0.7408340371386468 -0.0073892367130169  0.1475104118280653
  0.7265147660645608  0.9824846974503183  0.3867784778561896
  0.7754083705989301  0.9924559060598919  0.6250061438255632
  0.7260261439671603  0.0036089368084332  0.8780910468332538
  0.1052199930586239  0.1517108150891406  0.0104010260797593
  0.1454689889928266  0.1073998840763159  0.2295725578986584
  0.1042666743505041  0.1486808242894947  0.5077701807596422
  0.1042773498646066  0.1517720024223512  0.7570081557636260
  0.6064536951543441  0.1530643497031262  0.9781879426543916
  0.6414571723001832  0.1081501775400768  0.2733232536092288
  0.6068309387200791  0.1475240780654657  0.4781194297759010
  0.6037557641237965  0.1498204399124332  0.7679375745609127
  0.3976166591483891  0.3603510914976219  0.9899655953745903
  0.3559986715216092  0.3963783559968553  0.2732422827282988
  0.3992549971470609  0.3532800356582574  0.4929204191087618
  0.4016864453234006  0.3540485902292323  0.7484639686520405
  0.1072288079440436  0.6534612418726544  0.9745944181355500
  0.1422584836850522  0.6065564680818099  0.2719082520350300
  0.1078852229172129  0.6469649637254161  0.4804913236114022
  0.1057185373244727  0.6482066920966323  0.7678746290797651
  0.8966343391394214  0.3640197937232598  0.0211438788635281
  0.8539408107896050  0.3949579569549602  0.2292228241093593
  0.8977247458156247  0.3585083807056059  0.5247426175174232
  0.8945778938652633  0.3596541066274952  0.7280809588514534
  0.6055356437941587  0.6528671009186968  0.0135648912729678
  0.6463121843158027  0.6069229420423420  0.2293712618673148
  0.6066964424166800  0.6453206057092798  0.5116482263057655
  0.6051607559689728  0.6515037521188700  0.7519808468890357
  0.3995804849080841  0.8615252405652641  0.0233636113489980
  0.3576111263309441  0.8918444398928310  0.2272876185709281
  0.3972283799414519  0.8592040089220152  0.5219163946022337
  0.3969249463953755  0.8582431935989334  0.7328082698234164
  0.9021611454683498  0.8542291006846379  0.9934827907869017
  0.8585599044101144  0.8940145016549096  0.2746501089642046
  0.8994114676834495  0.8554814897710944  0.4953958846665583
  0.9016330713535751  0.8564350668567082  0.7423579813577991
  0.8530583171142070  0.1115423812449512  0.9878001171481618
  0.8891730863055253  0.1441646253543030  0.2651972114975122
  0.8522322874882384  0.1053310330198697  0.4825245757284337
  0.8484355902743423  0.1035405552230323  0.7653363905800621
  0.3525914793883191  0.1130958085648589  0.9824103882554233
  0.3871873766338204  0.1403882547989551  0.2689180912201053
  0.3458122390867302  0.0998038681296882  0.4810858700849159
  0.3506105106329998  0.1037193245596643  0.7674424905949447
  0.1477763574750151  0.4067504765647805  0.0143699110895884
  0.1010773885623382  0.3543569246571042  0.2273447644629552
  0.1419507021765584  0.3965459111932673  0.5204316055133550
  0.1460004309322293  0.3983202650838181  0.7343865915501954
  0.8527201109142579  0.6140446004419350  0.9806160382413487
  0.8891238153658561  0.6407391025962005  0.2704539773639926
  0.8487975575343506  0.6020696842953572  0.4822054434426669
  0.8521642709222812  0.6061288066150156  0.7670777381820356
  0.6444066510595384  0.4037269431445475  0.0165842096274682
  0.5982529860260668  0.3536074874116924  0.2364161770826904
  0.6421080382619342  0.3934674345938622  0.5218697585357784
  0.6467026468689624  0.4022059370765891  0.7333184042438609
  0.3533630311552331  0.6120952839769843  0.9798544717468595
  0.3916422447390736  0.6448089802108080  0.2669581543972646
  0.3525896579564579  0.6060365050774447  0.4851724508063771
  0.3491807476603116  0.6044402203626341  0.7675797334192670
  0.1450316406946549  0.9036387831987994  0.0166622780573042
  0.1036760752647017  0.8570992957255809  0.2372922178584372
  0.1424695263601560  0.8945813348538206  0.5187213783920249
  0.1470352027902745  0.9024911552202073  0.7367145875928025
  0.6504239965660543  0.9082831212205235  0.0174428063260138
  0.6056002577331990  0.8577832453162180  0.2282042382580780
  0.6407622083483685  0.8963057809454326  0.5198303087894117
  0.6469819451783412  0.9000401048384559  0.7339898267626694
  0.9613887561868660 -0.0037071663534909  0.1289641136596747
  0.0365813442794138 -0.0023556642917916  0.3766963489440796
  0.9924491848995904  0.0222942953875312  0.6264383512078003
  0.0094848967430920 -0.0060709262754808  0.8780163119356784
  0.5032227303438458  0.0421720133918350  0.1225363184750377
  0.4939716365386992  0.9576724762320972  0.3709636603586880
  0.4966965593999462  0.0390784183227651  0.6216802199184918
  0.5036611567352868  0.9647672061516421  0.8723344572211418
  0.2899081032900476  0.2519580046261927  0.1278935610211247
  0.2131875730206353  0.2556491529308860  0.3761667651189756
  0.2683611953485858  0.2292568451294267  0.6276633492026119
  0.2275093955322728  0.2692671189089524  0.8784677248958750
  0.0031190551558219  0.5398008464917805  0.1216550351019357
 -0.0052116281080365  0.4584239401094161  0.3712946395032911
  0.0005942597851774  0.5406007385571832  0.6219325408454905
 -0.0030365925777244  0.4608994515909760  0.8713169666274917
  0.7426754064048772  0.2139407340879417  0.1287865949730432
  0.7547280733626411  0.2870048619239984  0.3781744783024320
  0.7372924288112277  0.2109499064513485  0.6272741853953846
  0.7635976208130580  0.2798469020633557  0.8771544917761633
  0.4603288128722725  0.4976626427506182  0.1287962872718706
  0.5363430932331293  0.4972582975133567  0.3774247391388320
  0.4803054377098935  0.5158596050610854  0.6269985638552817
  0.5214338711400577  0.4986565415133057  0.8778212362628375
  0.2463998063715337  0.7084970536363862  0.1281569455316391
  0.2536837300664664  0.7852882669932298  0.3775334994240057
  0.2421584106086197  0.7245906829052823  0.6283452683599120
  0.2644626148366623  0.7896811492512903  0.8776450063028433
  0.7935977041800978  0.7520594763655551  0.1286259300676783
  0.7130248203289248  0.7524369100515290  0.3767809962891486
  0.7703238027751649  0.7336473135414903  0.6276684797493843
  0.7262454141361601  0.7723087346975998  0.8788154429241125
  0.0004133464436181  0.9942274789811437 -0.0000055653848816
  0.9955312740107882  0.9917720210629184  0.2492113424723079
  0.0057492123695225  0.9925835897796956  0.4973422579529204
  0.0046651992008681  0.9960119245840132  0.7464518960938804
  0.5036292272962100  0.9950457544676427  0.0053198373019685
  0.4971536647481608  0.9873806778015781  0.2501987760479469
  0.4996773577773657  0.9950995740910551  0.5045766063363383
  0.5020782952128842  0.9907988517117092  0.7516155552036240
  0.2463323317852500  0.2505329114209774  0.9991700997331786
  0.2517100342791417  0.2413866000280239  0.2471284131811362
  0.2482325641703797  0.2383676618363309  0.4950809502278349
  0.2510189444562920  0.2428236258713953  0.7487238595584236
  0.0024308737290112  0.4968035992267157  0.0037147273537528
  0.9961732853639632  0.4870392622102083  0.2504839400283504
  0.0000420563343904  0.4933272486277284  0.5050578936230639
  0.0005721558154913  0.4898631340707318  0.7508044672048790
  0.7478113003110104  0.2466514557658922  0.9956598047061469
  0.7466870443509905  0.2405680970546774  0.2501179990685839
  0.7467265176950831  0.2422905722979009  0.4962252978246683
  0.7464836246264677  0.2385731098495591  0.7474508455752712
  0.5016473367992087  0.4969667875095552  0.9982278967656515
  0.4946977040713480  0.4918036631825353  0.2484830297223086
  0.5053044495718257  0.4902345348146264  0.4980097922857714
  0.5039324046938535  0.4941244155980111  0.7462426908299120
  0.2493032763743597  0.7462961359914606  0.9940018968912031
  0.2487843407056905  0.7383773412118114  0.2489495667791002
  0.2475604455006049  0.7434675270543253  0.4959885608014467
  0.2477285590038159  0.7404580422963072  0.7506873178056092
  0.7462647852277084  0.7508047179451831 -0.0007612392636123
  0.7534906181829564  0.7406122135846996  0.2467573970751250
  0.7480582860407450  0.7385675186841703  0.4958000777134466
  0.7498198157739964  0.7440418878311172  0.7486846909013066
 
  0.00000000E+00  0.00000000E+00  0.00000000E+00
  0.00000000E+00  0.00000000E+00  0.00000000E+00
  0.00000000E+00  0.00000000E+00  0.00000000E+00
  0.00000000E+00  0.00000000E+00  0.00000000E+00
  0.00000000E+00  0.00000000E+00  0.00000000E+00
  0.00000000E+00  0.00000000E+00  0.00000000E+00
  0.00000000E+00  0.00000000E+00  0.00000000E+00
  0.00000000E+00  0.00000000E+00  0.00000000E+00
  0.00000000E+00  0.00000000E+00  0.00000000E+00
  0.00000000E+00  0.00000000E+00  0.00000000E+00
  0.00000000E+00  0.00000000E+00  0.00000000E+00
  0.00000000E+00  0.00000000E+00  0.00000000E+00
  0.00000000E+00  0.00000000E+00  0.00000000E+00
  0.00000000E+00  0.00000000E+00  0.00000000E+00
  0.00000000E+00  0.00000000E+00  0.00000000E+00
  0.00000000E+00  0.00000000E+00  0.00000000E+00
  0.00000000E+00  0.00000000E+00  0.00000000E+00
  0.00000000E+00  0.00000000E+00  0.00000000E+00
  0.00000000E+00  0.00000000E+00  0.00000000E+00
  0.00000000E+00  0.00000000E+00  0.00000000E+00
  0.00000000E+00  0.00000000E+00  0.00000000E+00
  0.00000000E+00  0.00000000E+00  0.00000000E+00
  0.00000000E+00  0.00000000E+00  0.00000000E+00
  0.00000000E+00  0.00000000E+00  0.00000000E+00
  0.00000000E+00  0.00000000E+00  0.00000000E+00
  0.00000000E+00  0.00000000E+00  0.00000000E+00
  0.00000000E+00  0.00000000E+00  0.00000000E+00
  0.00000000E+00  0.00000000E+00  0.00000000E+00
  0.00000000E+00  0.00000000E+00  0.00000000E+00
  0.00000000E+00  0.00000000E+00  0.00000000E+00
  0.00000000E+00  0.00000000E+00  0.00000000E+00
  0.00000000E+00  0.00000000E+00  0.00000000E+00
  0.00000000E+00  0.00000000E+00  0.00000000E+00
  0.00000000E+00  0.00000000E+00  0.00000000E+00
  0.00000000E+00  0.00000000E+00  0.00000000E+00
  0.00000000E+00  0.00000000E+00  0.00000000E+00
  0.00000000E+00  0.00000000E+00  0.00000000E+00
  0.00000000E+00  0.00000000E+00  0.00000000E+00
  0.00000000E+00  0.00000000E+00  0.00000000E+00
  0.00000000E+00  0.00000000E+00  0.00000000E+00
  0.00000000E+00  0.00000000E+00  0.00000000E+00
  0.00000000E+00  0.00000000E+00  0.00000000E+00
  0.00000000E+00  0.00000000E+00  0.00000000E+00
  0.00000000E+00  0.00000000E+00  0.00000000E+00
  0.00000000E+00  0.00000000E+00  0.00000000E+00
  0.00000000E+00  0.00000000E+00  0.00000000E+00
  0.00000000E+00  0.00000000E+00  0.00000000E+00
  0.00000000E+00  0.00000000E+00  0.00000000E+00
  0.00000000E+00  0.00000000E+00  0.00000000E+00
  0.00000000E+00  0.00000000E+00  0.00000000E+00
  0.00000000E+00  0.00000000E+00  0.00000000E+00
  0.00000000E+00  0.00000000E+00  0.00000000E+00
  0.00000000E+00  0.00000000E+00  0.00000000E+00
  0.00000000E+00  0.00000000E+00  0.00000000E+00
  0.00000000E+00  0.00000000E+00  0.00000000E+00
  0.00000000E+00  0.00000000E+00  0.00000000E+00
  0.00000000E+00  0.00000000E+00  0.00000000E+00
  0.00000000E+00  0.00000000E+00  0.00000000E+00
  0.00000000E+00  0.00000000E+00  0.00000000E+00
  0.00000000E+00  0.00000000E+00  0.00000000E+00
  0.00000000E+00  0.00000000E+00  0.00000000E+00
  0.00000000E+00  0.00000000E+00  0.00000000E+00
  0.00000000E+00  0.00000000E+00  0.00000000E+00
  0.00000000E+00  0.00000000E+00  0.00000000E+00
  0.00000000E+00  0.00000000E+00  0.00000000E+00
  0.00000000E+00  0.00000000E+00  0.00000000E+00
  0.00000000E+00  0.00000000E+00  0.00000000E+00
  0.00000000E+00  0.00000000E+00  0.00000000E+00
  0.00000000E+00  0.00000000E+00  0.00000000E+00
  0.00000000E+00  0.00000000E+00  0.00000000E+00
  0.00000000E+00  0.00000000E+00  0.00000000E+00
  0.00000000E+00  0.00000000E+00  0.00000000E+00
  0.00000000E+00  0.00000000E+00  0.00000000E+00
  0.00000000E+00  0.00000000E+00  0.00000000E+00
  0.00000000E+00  0.00000000E+00  0.00000000E+00
  0.00000000E+00  0.00000000E+00  0.00000000E+00
  0.00000000E+00  0.00000000E+00  0.00000000E+00
  0.00000000E+00  0.00000000E+00  0.00000000E+00
  0.00000000E+00  0.00000000E+00  0.00000000E+00
  0.00000000E+00  0.00000000E+00  0.00000000E+00
  0.00000000E+00  0.00000000E+00  0.00000000E+00
  0.00000000E+00  0.00000000E+00  0.00000000E+00
  0.00000000E+00  0.00000000E+00  0.00000000E+00
  0.00000000E+00  0.00000000E+00  0.00000000E+00
  0.00000000E+00  0.00000000E+00  0.00000000E+00
  0.00000000E+00  0.00000000E+00  0.00000000E+00
  0.00000000E+00  0.00000000E+00  0.00000000E+00
  0.00000000E+00  0.00000000E+00  0.00000000E+00
  0.00000000E+00  0.00000000E+00  0.00000000E+00
  0.00000000E+00  0.00000000E+00  0.00000000E+00
  0.00000000E+00  0.00000000E+00  0.00000000E+00
  0.00000000E+00  0.00000000E+00  0.00000000E+00
  0.00000000E+00  0.00000000E+00  0.00000000E+00
  0.00000000E+00  0.00000000E+00  0.00000000E+00
  0.00000000E+00  0.00000000E+00  0.00000000E+00
  0.00000000E+00  0.00000000E+00  0.00000000E+00
  0.00000000E+00  0.00000000E+00  0.00000000E+00
  0.00000000E+00  0.00000000E+00  0.00000000E+00
  0.00000000E+00  0.00000000E+00  0.00000000E+00
  0.00000000E+00  0.00000000E+00  0.00000000E+00
  0.00000000E+00  0.00000000E+00  0.00000000E+00
  0.00000000E+00  0.00000000E+00  0.00000000E+00
  0.00000000E+00  0.00000000E+00  0.00000000E+00
  0.00000000E+00  0.00000000E+00  0.00000000E+00
  0.00000000E+00  0.00000000E+00  0.00000000E+00
  0.00000000E+00  0.00000000E+00  0.00000000E+00
  0.00000000E+00  0.00000000E+00  0.00000000E+00
  0.00000000E+00  0.00000000E+00  0.00000000E+00
  0.00000000E+00  0.00000000E+00  0.00000000E+00
  0.00000000E+00  0.00000000E+00  0.00000000E+00
  0.00000000E+00  0.00000000E+00  0.00000000E+00
  0.00000000E+00  0.00000000E+00  0.00000000E+00
  0.00000000E+00  0.00000000E+00  0.00000000E+00
  0.00000000E+00  0.00000000E+00  0.00000000E+00
  0.00000000E+00  0.00000000E+00  0.00000000E+00
  0.00000000E+00  0.00000000E+00  0.00000000E+00
  0.00000000E+00  0.00000000E+00  0.00000000E+00
  0.00000000E+00  0.00000000E+00  0.00000000E+00
  0.00000000E+00  0.00000000E+00  0.00000000E+00
  0.00000000E+00  0.00000000E+00  0.00000000E+00
  0.00000000E+00  0.00000000E+00  0.00000000E+00
  0.00000000E+00  0.00000000E+00  0.00000000E+00
  0.00000000E+00  0.00000000E+00  0.00000000E+00
  0.00000000E+00  0.00000000E+00  0.00000000E+00
  0.00000000E+00  0.00000000E+00  0.00000000E+00
  0.00000000E+00  0.00000000E+00  0.00000000E+00
  0.00000000E+00  0.00000000E+00  0.00000000E+00
  0.00000000E+00  0.00000000E+00  0.00000000E+00
  0.00000000E+00  0.00000000E+00  0.00000000E+00
  0.00000000E+00  0.00000000E+00  0.00000000E+00
  0.00000000E+00  0.00000000E+00  0.00000000E+00
  0.00000000E+00  0.00000000E+00  0.00000000E+00
  0.00000000E+00  0.00000000E+00  0.00000000E+00
  0.00000000E+00  0.00000000E+00  0.00000000E+00
  0.00000000E+00  0.00000000E+00  0.00000000E+00
  0.00000000E+00  0.00000000E+00  0.00000000E+00
  0.00000000E+00  0.00000000E+00  0.00000000E+00
  0.00000000E+00  0.00000000E+00  0.00000000E+00
  0.00000000E+00  0.00000000E+00  0.00000000E+00
  0.00000000E+00  0.00000000E+00  0.00000000E+00
  0.00000000E+00  0.00000000E+00  0.00000000E+00
  0.00000000E+00  0.00000000E+00  0.00000000E+00
  0.00000000E+00  0.00000000E+00  0.00000000E+00
  0.00000000E+00  0.00000000E+00  0.00000000E+00
  0.00000000E+00  0.00000000E+00  0.00000000E+00
  0.00000000E+00  0.00000000E+00  0.00000000E+00
  0.00000000E+00  0.00000000E+00  0.00000000E+00
  0.00000000E+00  0.00000000E+00  0.00000000E+00
  0.00000000E+00  0.00000000E+00  0.00000000E+00
  0.00000000E+00  0.00000000E+00  0.00000000E+00
  0.00000000E+00  0.00000000E+00  0.00000000E+00
  0.00000000E+00  0.00000000E+00  0.00000000E+00
  0.00000000E+00  0.00000000E+00  0.00000000E+00
  0.00000000E+00  0.00000000E+00  0.00000000E+00
  0.00000000E+00  0.00000000E+00  0.00000000E+00
  0.00000000E+00  0.00000000E+00  0.00000000E+00
  0.00000000E+00  0.00000000E+00  0.00000000E+00
  0.00000000E+00  0.00000000E+00  0.00000000E+00
  0.00000000E+00  0.00000000E+00  0.00000000E+00
  0.00000000E+00  0.00000000E+00  0.00000000E+00
