Li Sn F                                 
   1.00000000000000     
     7.7550070000000000   -7.7550070000000000    0.0000000000000000
     7.7550070000000000    7.7550070000000000    0.0000000000000000
     0.0000000000000000    0.0000000000000000   15.5100140000000000
   F    Li   Sn
    96    32    32
Direct
  0.1316796499581454  0.1251642152794326  0.0143085365680677
  0.1071428073707015  0.1485864074165447  0.2497239968170815
  0.1309087675823353  0.1232560051237113  0.5197979950122733
  0.1276258864030190  0.1250661515499888  0.7398997835073430
  0.6321914874240886  0.1233584708905360  0.0121846538581885
  0.6123326663061562  0.1425690069697574  0.2535877182392244
  0.6318927022622813  0.1243537615168236  0.5090345611818611
  0.6305563932714452  0.1214200389751398  0.7606087941521754
  0.3742293198375331  0.3838933259846808  0.0051191019635261
  0.3785739879888108  0.3749524302591888  0.2675076487615075
  0.3759731891564519  0.3786216492696997  0.5081514894713448
  0.3851660381552469  0.3679057672139812  0.7577877980912396
  0.1321328459854899  0.6244063685783592  0.0106650137873142
  0.1072570590664296  0.6456021227446038  0.2533568363487907
  0.1326412496618629  0.6223341433077052  0.5083980463187014
  0.1322823448255191  0.6243296633947816  0.7621187781702791
  0.8737338409227091  0.3837509102636626  0.0071181659394292
  0.8788565899327699  0.3764064968842902  0.2622141949104094
  0.8765296583920573  0.3799626935279160  0.5097901723658120
  0.8861270326436798  0.3662329082929902  0.7561455449860289
  0.6336094873334384  0.6239572628540272  0.0141002757059054
  0.6100630883261178  0.6435439906395167  0.2510470579906757
  0.6310231234624660  0.6245654763489439  0.5114339194334072
  0.6320887598070221  0.6221339963938504  0.7571927330825929
  0.3715063571396686  0.8845603069583862  0.0171260654524522
  0.3794562161359672  0.8747071256584015  0.2419344364466667
  0.3784863903802029  0.8776063619457382  0.5092822779480395
  0.3934521394057559  0.8614082992249749  0.7526797891867619
  0.8699976912456339  0.8859659948623935  0.0038263459783151
  0.8806729783012599  0.8750809885790742  0.2685067944292140
  0.8774263327856728  0.8783065651534218  0.5067438411507743
  0.8879807077736726  0.8650943494053515  0.7591703880753446
  0.8912069836549854  0.1375416837213859  0.0026669748172038
  0.8714451134104950  0.1247477722244651  0.2658823527411114
  0.8843682041165878  0.1373847400258944  0.5070663496932096
  0.8791545313420812  0.1242838418940218  0.7592599347137202
  0.3938720349875920  0.1400692386293120  0.9984567568245318
  0.3718091904573571  0.1256199306163789  0.2671741175367910
  0.3868113375148862  0.1396201933001241  0.4992119541673486
  0.3793372490266417  0.1254056555732132  0.7634015343361633
  0.1316922004805989  0.3764824408256950  0.0149978176518302
  0.1408481228375356  0.3965508506298933  0.2501024747566779
  0.1268875377416836  0.3798999580746224  0.5157949910795411
  0.1392983049371785  0.3856842185475459  0.7518508730469975
  0.8915017846915896  0.6374565348685169  0.9993670661739619
  0.8681162365706697  0.6245070571898410  0.2682818249469877
  0.8842410390404859  0.6378883317180838  0.5004775035852710
  0.8794476462120895  0.6231743334635547  0.7640300514421233
  0.6323563934538808  0.3767995891561306  0.0094918652376203
  0.6383954556851810  0.3926752158546040  0.2546570562519385
  0.6283817310387561  0.3827219513370828  0.5086623601348401
  0.6364962862731534  0.3822704137735212  0.7564087844577357
  0.3906813070246231  0.6370331768450035  0.0048039976112718
  0.3692235640978374  0.6242821344800779  0.2620789975813899
  0.3845072291699217  0.6377078936113898  0.5038472105129892
  0.3799826378988507  0.6249406699646065  0.7630139843560697
  0.1290044363244481  0.8771075894963207  0.9922806800514284
  0.1386853146771399  0.8951872610480560  0.2622566155512603
  0.1295115046218067  0.8811800192477319  0.4950446575605653
  0.1399218171285791  0.8844417859437173  0.7645060412909767
  0.6280632324427250  0.8749599483048068  0.0167808213545845
  0.6419160885400836  0.8954196240166765  0.2498929160814814
  0.6286003147255209  0.8821347433822680  0.5136568688762430
  0.6400252691031578  0.8834664667110088  0.7526789157397238
  0.9908255178670856  0.0120792767892584  0.1278031854372104
  0.0196454524886479  0.0233814917623449  0.3797608444965548
  0.0134546465191124  0.9851983778276029  0.6285969826838923
  0.0187390836591202  0.0136410629881017  0.8768922051518058
  0.4875365258585255  0.0224533469421223  0.1285780813999050
  0.5162837058827041  0.0106296719975352  0.3760479463990161
  0.5119150649771205  0.0097017466121863  0.6278122385560981
  0.5190158072630963  0.9898340700732166  0.8783220179070292
  0.2683593422139323  0.2640220960298406  0.1284986113679162
  0.2323131948435115  0.2675283310799745  0.3782650940429808
  0.2716125957232245  0.2415653361584669  0.6279091028121567
  0.2604252745425508  0.2589507548251335  0.8766313097350065
  0.9903324055774343  0.5206510986942680  0.1275122627694884
  0.0132659596012726  0.5122172818494692  0.3767924077859817
  0.0117357575490174  0.5090775566134987  0.6285524194564638
  0.0205384722664635  0.4933325791233214  0.8777554696371872
  0.7582258347764909  0.2638537280390761  0.1278738328745053
  0.7466146904400183  0.2671332674111531  0.3775718470867015
  0.7615131811831071  0.2504105157602082  0.6274178996542277
  0.7674532509146283  0.2520320412961424  0.8770306556738182
  0.4942068495556499  0.5110528972681312  0.1275124969479854
  0.5113218811946573  0.5205337695555584  0.3769099317846318
  0.5122081092160671  0.5010009531603341  0.6277486701497972
  0.5203267516178989  0.5027322146979208  0.8776642542550930
  0.2396670963748772  0.7649895556863087  0.1281286884505810
  0.2553188734293783  0.7665477113682592  0.3763835194087871
  0.2625936210516940  0.7462099170769615  0.6273460355902940
  0.2732918713903899  0.7647820847464756  0.8794276109602644
  0.7660900802533546  0.7641575579243474  0.1286745298856004
  0.7344621732847207  0.7679745606521894  0.3777074792314579
  0.7701553713189051  0.7473782283026249  0.6272105016122363
  0.7614302957821919  0.7534810044111534  0.8773141792170532
  0.0007962859028543  0.9949615016505404  0.9991151328665001
  0.0010473867489729  0.9954065530797251  0.2481541317176511
  0.9957119891403089  0.0041333994382456  0.5015470066003844
  0.9959725414562430  0.9974094186379131  0.7508546841014998
  0.5011471305209115  0.9936848437972208  0.9985819003286702
  0.5015968265235845  0.9951714792547847  0.2495036993553123
  0.4940241693086593  0.0014353777193937  0.4968056168059549
  0.4924514304306367 -0.0000016838717310  0.7481272030674904
  0.2522223463298285  0.2433270515699208  0.9976710548170490
  0.2502691831712263  0.2433297674714647  0.2482955025305668
  0.2420292828259459  0.2501913597552061  0.4987610523654252
  0.2441304202421993  0.2494494274553218  0.7489804849782981
  0.0032292086381209  0.4935874890159112  0.9975951241189630
  0.0004979240773302  0.4963687141145166  0.2467285031155554
  0.9953581686326626  0.5025549684089582  0.4974096134671965
  0.9944429641154048  0.4986334609252592  0.7484342230187991
  0.7538528037920353  0.2437750786821689  0.9973539859930445
  0.7488631296732025  0.2439794239227193  0.2473034115008045
  0.7442275579298392  0.2511133523585726  0.4974911822543774
  0.7434804539650426  0.2493335970947756  0.7474157100518748
  0.5029603583982299  0.4949504261711310  0.9969421582129613
  0.5001478409638112  0.4937451364796347  0.2476120081998773
  0.4938327239303957  0.5035370760982321  0.4971119007942997
  0.4938467164569863  0.4979483846716805  0.7474397362922841
  0.2549091465411581  0.7460765734655176  0.0013349406230009
  0.2465278777896046  0.7457522998624642  0.2503269502704727
  0.2441813467109523  0.7497043847136594  0.4989591397137853
  0.2456288342882469  0.7516177415832842  0.7477118039125472
  0.7531436110918518  0.7452992174186152  0.9981334952273874
  0.7487067432871842  0.7449736421604187  0.2479623872315889
  0.7425955328893664  0.7512979859890057  0.4979825728892344
  0.7468442384954171  0.7493659470495734  0.7463640342956669
  0.0091657505919821  0.2144398331632475  0.1072307447252366
  0.9918026698591766  0.2259569505637271  0.3557456488287388
  0.9632641301576345  0.2608671833376744  0.6079225633229643
  0.9679882909019684  0.2411517540409443  0.8578162990865751
  0.5084087136732816  0.2229534055199048  0.1034879923220601
  0.4948537198669226  0.2148380843391882  0.3583012822882331
  0.4706576538795688  0.2570917171277059  0.6025750479140203
  0.4629264284646544  0.2448686492450715  0.8587592898063585
  0.2590910793322961  0.4657681876589700  0.1075278978007223
  0.2477569409152989  0.4677525331710734  0.3589027367725013
  0.2134471169431889  0.5075716973571247  0.6102450786413225
  0.2202577251034721  0.4947274021648737  0.8563528270996342
  0.0105158185858163  0.7191673876714221  0.1051137655059743
  0.9914464185552064  0.7165909336929347  0.3597989530686311
  0.9680988174863669  0.7589348079492554  0.6043303320485887
  0.9647207231677229  0.7419460233639366  0.8607508480578082
  0.7583271652966999  0.4647107214749312  0.1075500684114537
  0.7467245740104355  0.4685030801362880  0.3595458015188536
  0.7129083332660205  0.5057019012166978  0.6090055529392105
  0.7204137462488341  0.4955497474548761  0.8561648402676427
  0.5106025215434051  0.7143315091209657  0.1078523806383272
  0.4899045781885890  0.7197611888948731  0.3562610187752087
  0.4634316294122285  0.7589223017424734  0.6065373847605861
  0.4756856842399362  0.7436636379490857  0.8552357722050640
  0.2739129393296459  0.9644541125062518  0.1314080215577600
  0.2289920628336079  0.9678982738990505  0.3815004305789377
  0.2130218085170821  0.0209256843797301  0.6300928112710524
  0.2184293780707589  0.9770126864100457  0.8807690230379606
  0.7581861258451441  0.9659594812544876  0.1082975084482222
  0.7456987405072213  0.9681940296017021  0.3597811927205370
  0.7134956770442498  0.0064625851611649  0.6095400728762583
  0.7192112368047385  0.9970555056195587  0.8558500440690558
 
  0.00000000E+00  0.00000000E+00  0.00000000E+00
  0.00000000E+00  0.00000000E+00  0.00000000E+00
  0.00000000E+00  0.00000000E+00  0.00000000E+00
  0.00000000E+00  0.00000000E+00  0.00000000E+00
  0.00000000E+00  0.00000000E+00  0.00000000E+00
  0.00000000E+00  0.00000000E+00  0.00000000E+00
  0.00000000E+00  0.00000000E+00  0.00000000E+00
  0.00000000E+00  0.00000000E+00  0.00000000E+00
  0.00000000E+00  0.00000000E+00  0.00000000E+00
  0.00000000E+00  0.00000000E+00  0.00000000E+00
  0.00000000E+00  0.00000000E+00  0.00000000E+00
  0.00000000E+00  0.00000000E+00  0.00000000E+00
  0.00000000E+00  0.00000000E+00  0.00000000E+00
  0.00000000E+00  0.00000000E+00  0.00000000E+00
  0.00000000E+00  0.00000000E+00  0.00000000E+00
  0.00000000E+00  0.00000000E+00  0.00000000E+00
  0.00000000E+00  0.00000000E+00  0.00000000E+00
  0.00000000E+00  0.00000000E+00  0.00000000E+00
  0.00000000E+00  0.00000000E+00  0.00000000E+00
  0.00000000E+00  0.00000000E+00  0.00000000E+00
  0.00000000E+00  0.00000000E+00  0.00000000E+00
  0.00000000E+00  0.00000000E+00  0.00000000E+00
  0.00000000E+00  0.00000000E+00  0.00000000E+00
  0.00000000E+00  0.00000000E+00  0.00000000E+00
  0.00000000E+00  0.00000000E+00  0.00000000E+00
  0.00000000E+00  0.00000000E+00  0.00000000E+00
  0.00000000E+00  0.00000000E+00  0.00000000E+00
  0.00000000E+00  0.00000000E+00  0.00000000E+00
  0.00000000E+00  0.00000000E+00  0.00000000E+00
  0.00000000E+00  0.00000000E+00  0.00000000E+00
  0.00000000E+00  0.00000000E+00  0.00000000E+00
  0.00000000E+00  0.00000000E+00  0.00000000E+00
  0.00000000E+00  0.00000000E+00  0.00000000E+00
  0.00000000E+00  0.00000000E+00  0.00000000E+00
  0.00000000E+00  0.00000000E+00  0.00000000E+00
  0.00000000E+00  0.00000000E+00  0.00000000E+00
  0.00000000E+00  0.00000000E+00  0.00000000E+00
  0.00000000E+00  0.00000000E+00  0.00000000E+00
  0.00000000E+00  0.00000000E+00  0.00000000E+00
  0.00000000E+00  0.00000000E+00  0.00000000E+00
  0.00000000E+00  0.00000000E+00  0.00000000E+00
  0.00000000E+00  0.00000000E+00  0.00000000E+00
  0.00000000E+00  0.00000000E+00  0.00000000E+00
  0.00000000E+00  0.00000000E+00  0.00000000E+00
  0.00000000E+00  0.00000000E+00  0.00000000E+00
  0.00000000E+00  0.00000000E+00  0.00000000E+00
  0.00000000E+00  0.00000000E+00  0.00000000E+00
  0.00000000E+00  0.00000000E+00  0.00000000E+00
  0.00000000E+00  0.00000000E+00  0.00000000E+00
  0.00000000E+00  0.00000000E+00  0.00000000E+00
  0.00000000E+00  0.00000000E+00  0.00000000E+00
  0.00000000E+00  0.00000000E+00  0.00000000E+00
  0.00000000E+00  0.00000000E+00  0.00000000E+00
  0.00000000E+00  0.00000000E+00  0.00000000E+00
  0.00000000E+00  0.00000000E+00  0.00000000E+00
  0.00000000E+00  0.00000000E+00  0.00000000E+00
  0.00000000E+00  0.00000000E+00  0.00000000E+00
  0.00000000E+00  0.00000000E+00  0.00000000E+00
  0.00000000E+00  0.00000000E+00  0.00000000E+00
  0.00000000E+00  0.00000000E+00  0.00000000E+00
  0.00000000E+00  0.00000000E+00  0.00000000E+00
  0.00000000E+00  0.00000000E+00  0.00000000E+00
  0.00000000E+00  0.00000000E+00  0.00000000E+00
  0.00000000E+00  0.00000000E+00  0.00000000E+00
  0.00000000E+00  0.00000000E+00  0.00000000E+00
  0.00000000E+00  0.00000000E+00  0.00000000E+00
  0.00000000E+00  0.00000000E+00  0.00000000E+00
  0.00000000E+00  0.00000000E+00  0.00000000E+00
  0.00000000E+00  0.00000000E+00  0.00000000E+00
  0.00000000E+00  0.00000000E+00  0.00000000E+00
  0.00000000E+00  0.00000000E+00  0.00000000E+00
  0.00000000E+00  0.00000000E+00  0.00000000E+00
  0.00000000E+00  0.00000000E+00  0.00000000E+00
  0.00000000E+00  0.00000000E+00  0.00000000E+00
  0.00000000E+00  0.00000000E+00  0.00000000E+00
  0.00000000E+00  0.00000000E+00  0.00000000E+00
  0.00000000E+00  0.00000000E+00  0.00000000E+00
  0.00000000E+00  0.00000000E+00  0.00000000E+00
  0.00000000E+00  0.00000000E+00  0.00000000E+00
  0.00000000E+00  0.00000000E+00  0.00000000E+00
  0.00000000E+00  0.00000000E+00  0.00000000E+00
  0.00000000E+00  0.00000000E+00  0.00000000E+00
  0.00000000E+00  0.00000000E+00  0.00000000E+00
  0.00000000E+00  0.00000000E+00  0.00000000E+00
  0.00000000E+00  0.00000000E+00  0.00000000E+00
  0.00000000E+00  0.00000000E+00  0.00000000E+00
  0.00000000E+00  0.00000000E+00  0.00000000E+00
  0.00000000E+00  0.00000000E+00  0.00000000E+00
  0.00000000E+00  0.00000000E+00  0.00000000E+00
  0.00000000E+00  0.00000000E+00  0.00000000E+00
  0.00000000E+00  0.00000000E+00  0.00000000E+00
  0.00000000E+00  0.00000000E+00  0.00000000E+00
  0.00000000E+00  0.00000000E+00  0.00000000E+00
  0.00000000E+00  0.00000000E+00  0.00000000E+00
  0.00000000E+00  0.00000000E+00  0.00000000E+00
  0.00000000E+00  0.00000000E+00  0.00000000E+00
  0.00000000E+00  0.00000000E+00  0.00000000E+00
  0.00000000E+00  0.00000000E+00  0.00000000E+00
  0.00000000E+00  0.00000000E+00  0.00000000E+00
  0.00000000E+00  0.00000000E+00  0.00000000E+00
  0.00000000E+00  0.00000000E+00  0.00000000E+00
  0.00000000E+00  0.00000000E+00  0.00000000E+00
  0.00000000E+00  0.00000000E+00  0.00000000E+00
  0.00000000E+00  0.00000000E+00  0.00000000E+00
  0.00000000E+00  0.00000000E+00  0.00000000E+00
  0.00000000E+00  0.00000000E+00  0.00000000E+00
  0.00000000E+00  0.00000000E+00  0.00000000E+00
  0.00000000E+00  0.00000000E+00  0.00000000E+00
  0.00000000E+00  0.00000000E+00  0.00000000E+00
  0.00000000E+00  0.00000000E+00  0.00000000E+00
  0.00000000E+00  0.00000000E+00  0.00000000E+00
  0.00000000E+00  0.00000000E+00  0.00000000E+00
  0.00000000E+00  0.00000000E+00  0.00000000E+00
  0.00000000E+00  0.00000000E+00  0.00000000E+00
  0.00000000E+00  0.00000000E+00  0.00000000E+00
  0.00000000E+00  0.00000000E+00  0.00000000E+00
  0.00000000E+00  0.00000000E+00  0.00000000E+00
  0.00000000E+00  0.00000000E+00  0.00000000E+00
  0.00000000E+00  0.00000000E+00  0.00000000E+00
  0.00000000E+00  0.00000000E+00  0.00000000E+00
  0.00000000E+00  0.00000000E+00  0.00000000E+00
  0.00000000E+00  0.00000000E+00  0.00000000E+00
  0.00000000E+00  0.00000000E+00  0.00000000E+00
  0.00000000E+00  0.00000000E+00  0.00000000E+00
  0.00000000E+00  0.00000000E+00  0.00000000E+00
  0.00000000E+00  0.00000000E+00  0.00000000E+00
  0.00000000E+00  0.00000000E+00  0.00000000E+00
  0.00000000E+00  0.00000000E+00  0.00000000E+00
  0.00000000E+00  0.00000000E+00  0.00000000E+00
  0.00000000E+00  0.00000000E+00  0.00000000E+00
  0.00000000E+00  0.00000000E+00  0.00000000E+00
  0.00000000E+00  0.00000000E+00  0.00000000E+00
  0.00000000E+00  0.00000000E+00  0.00000000E+00
  0.00000000E+00  0.00000000E+00  0.00000000E+00
  0.00000000E+00  0.00000000E+00  0.00000000E+00
  0.00000000E+00  0.00000000E+00  0.00000000E+00
  0.00000000E+00  0.00000000E+00  0.00000000E+00
  0.00000000E+00  0.00000000E+00  0.00000000E+00
  0.00000000E+00  0.00000000E+00  0.00000000E+00
  0.00000000E+00  0.00000000E+00  0.00000000E+00
  0.00000000E+00  0.00000000E+00  0.00000000E+00
  0.00000000E+00  0.00000000E+00  0.00000000E+00
  0.00000000E+00  0.00000000E+00  0.00000000E+00
  0.00000000E+00  0.00000000E+00  0.00000000E+00
  0.00000000E+00  0.00000000E+00  0.00000000E+00
  0.00000000E+00  0.00000000E+00  0.00000000E+00
  0.00000000E+00  0.00000000E+00  0.00000000E+00
  0.00000000E+00  0.00000000E+00  0.00000000E+00
  0.00000000E+00  0.00000000E+00  0.00000000E+00
  0.00000000E+00  0.00000000E+00  0.00000000E+00
  0.00000000E+00  0.00000000E+00  0.00000000E+00
  0.00000000E+00  0.00000000E+00  0.00000000E+00
  0.00000000E+00  0.00000000E+00  0.00000000E+00
  0.00000000E+00  0.00000000E+00  0.00000000E+00
  0.00000000E+00  0.00000000E+00  0.00000000E+00
  0.00000000E+00  0.00000000E+00  0.00000000E+00
  0.00000000E+00  0.00000000E+00  0.00000000E+00
  0.00000000E+00  0.00000000E+00  0.00000000E+00
  0.00000000E+00  0.00000000E+00  0.00000000E+00
  0.00000000E+00  0.00000000E+00  0.00000000E+00
