Sr Li F                                 
   1.00000000000000     
     7.7593459999999999   -7.7593459999999999    0.0000000000000000
     7.7593459999999999    7.7593459999999999    0.0000000000000000
     0.0000000000000000    0.0000000000000000   15.5186919999999997
   F    Li   Sr
    96    32    32
Direct
  0.0358846779182727  0.2477600758201872  0.0000428012679720
 -0.0388540551056756  0.2520641897004646  0.2500623935025670
  0.0357382584435751  0.2478062895010581  0.4999264940429475
  0.9618039335927637  0.2516747771421117  0.7500480862222408
  0.4956494733592139  0.2865320819685120 -0.0000039347085742
  0.5009438753218227  0.2136556242012935  0.2499992987665479
  0.4962076850355093  0.2861602585981066  0.4999591970670356
  0.5016813018365140  0.2128937199808179  0.7499489093758230
  0.2508206566599815  0.4624962358388682  0.0000430089794925
  0.2466140256964848  0.5374527149417920  0.2500331769864795
  0.2508482519114967  0.4626574207898566  0.4999259225422273
  0.2469037636671265  0.5367805051052250  0.7500149698998443
 -0.0043324848905181  0.7865419632601554  0.0000089557062012
  0.0009465406822981  0.7136502245943381  0.2499939202832138
 -0.0038978320656949  0.7861493555388726  0.4999701403906401
  0.0016586770250028  0.7128809198363442  0.7499421722958803
  0.7120126408784505  0.5027193343638839 -0.0000015802535255
  0.7851056640675681  0.4972285161970466  0.2500279993503463
  0.7123095757049753  0.5022956538394635  0.4999709304852026
  0.7857211877170098  0.4967413761928010  0.7499846250576893
  0.5358785752353790  0.7477397207089636  0.0000608973164580
  0.4611398418965502  0.7520571855662046  0.2500502803116387
  0.5357433649992256  0.7477775989163614  0.4998916541787815
  0.4617510886755206  0.7517068321944871  0.7500461383662844
  0.2119945252124115  0.0027400714253356  0.0000049146896460
  0.2850951234550126 -0.0027412051781739  0.2500208989684902
  0.2123379258087165  0.0022765444959024  0.4999782690467291
  0.2857270404466593 -0.0032731940182160  0.7499729433392988
  0.7507688137817601 -0.0375613449361795  0.0000293690666633
  0.7466141525053898  0.0374114357562418  0.2500247277469419
  0.7508456349100558  0.9626576906488418  0.4999269907496393
  0.7469139459129244  0.0367884019287975  0.7500315831975707
  0.1063300579047171  0.1080719458874293  0.1447889503989270
  0.1406173974976199  0.1422011184522264  0.3554349951219978
  0.1070848040755469  0.1075148945746292  0.6445682930957595
  0.1412318923593974  0.1419458186449325  0.8552954251511812
  0.6064153388117681  0.1080247974553069  0.1054020583007747
  0.6407718877757069  0.1422457224356591  0.3944745177433139
  0.6071454177083444  0.1075230603638921  0.6053178146676396
  0.6411285746722851  0.1419569446254309  0.8947254342296327
  0.3902270213696763  0.3920841385786893  0.1446952428289296
  0.3561765753666481  0.3577704985143244  0.3554643569341921
  0.3909560722712507  0.3914005122364884  0.6445860230207596
  0.3565192254464907  0.3572907364728519  0.8551982898533492
  0.1063619994986075  0.6080148831743737  0.1053943458769439
  0.1407861539274576  0.6422658653168526  0.3944966626404757
  0.1071567997426609  0.6075246110921357  0.6052971442422324
  0.1411335054434977  0.6419607629844003  0.8947455688358966
  0.8903662173130666  0.3919770843658505  0.1053639238492551
  0.8562921409359026  0.3577641387720880  0.3946036431214973
  0.8910436620861599  0.3914465853143434  0.6053516478021636
  0.8565153513098850  0.3573079787236301  0.8947506809371334
  0.6062969228662114  0.6080329626361308  0.1447761697556054
  0.6406596205041684  0.6421613285280410  0.3554062075333480
  0.6070714372991558  0.6075552640897964  0.6445774434903069
  0.6412423532836802  0.6419212907321712  0.8552724453292415
  0.3903413211764747  0.8919751419597290  0.1053443514485485
  0.3563132229534876  0.8577546292005362  0.3945823143167834
  0.3910223884145910  0.8914427504975816  0.6053155389636155
  0.3565252911267876  0.8573386917512273  0.8948033083140347
  0.8902470300799682  0.8920982444454506  0.1446861749445847
  0.8561710739446444  0.8577633134002347  0.3554369231490844
  0.8909794819679197  0.8914248187419126  0.6445829984915550
  0.8565306167959623  0.8572964625455803  0.8552042516817604
  0.8592916710810916  0.1391825154591577  0.1068448518212027
  0.8915556425518290  0.1068718231020149  0.3899550731692011
  0.8601365162105962  0.1384620306956170  0.6069643475713360
  0.8921890949996187  0.1062293153686847  0.8897439488431147
  0.3558693828612973  0.1425678181338733  0.1108331136786261
  0.3880265170383263  0.1103708933542921  0.3925651109223218
  0.3567057626253186  0.1418557815052291  0.6104896467471547
  0.3885135646003084  0.1099642520910657  0.8926972578072548
  0.1374544148699994  0.3610538505236731  0.1432470927688006
  0.1052086515056017  0.3933660775655133  0.3601345177389830
  0.1382845436891364  0.3603199895823007  0.6430333469909008
  0.1055519246029707  0.3929035685789289  0.8603307827187040
  0.8558345253145013  0.6425876294326797  0.1108526643435400
  0.8880443849682926  0.6103587044140726  0.3925851131864884
  0.8567022838980540  0.6418607850325158  0.6105162559836155
  0.8885034811736244  0.6099602026193777  0.8926865024504426
  0.6407521101487695  0.3576888391052313  0.1392267939691778
  0.6086377964500130  0.3898012872759123  0.3572969623619051
  0.6416846729292763  0.3569034687378535  0.6392213387143688
  0.6091965376110124  0.3892175559648138  0.8573569626221623
  0.3592559918533819  0.6392189185682321  0.1068772673431114
  0.3915759024887754  0.6068600732148061  0.3899570867379476
  0.3601245566666099  0.6384781604008812  0.6069817094684310
  0.3922188222519719  0.6062191355330447  0.8897513538745323
  0.1407255884324720  0.8577456009155165  0.1392395607033253
  0.1086409880539350  0.8897974999695558  0.3573424702571885
  0.1416651252041038  0.8568628172782938  0.6391976928242720
  0.1092005892035184  0.8891984603980957  0.8573341948745344
  0.6374406105763775  0.8610366932268200  0.1432266538064848
  0.6052197047795550  0.8933482094885072  0.3601343496088248
  0.6382755530567042  0.8602954779109342  0.6430080358421560
  0.6055456253428906  0.8928817726124443  0.8603173165585744
 -0.0016227016128544  0.2501028815321469  0.1250868377414613
 -0.0014940847703505  0.2500579051589925  0.3749643832633738
 -0.0009353343735461  0.2495006762584353  0.6249809844976787
 -0.0011182917726326  0.2495265909016697  0.8750437721636076
  0.4982256081872758  0.2501235163797029  0.1250394327261815
  0.4984842353663673  0.2500259222093325  0.3749808783991534
  0.4992372918297226  0.2495672533019715  0.6248884706500151
  0.4988426898958216  0.2495747495986583  0.8749831591973041
  0.2484189167251450  0.5000115255301275  0.1249939652838601
  0.2484608422853306  0.4999857517824031  0.3749646400169855
  0.2490359279339475  0.4995383892290259  0.6249594787739743
  0.2489549417471460  0.4996009975894550  0.8750737105675305
 -0.0017950836119628  0.7501284393723162  0.1250109029179503
 -0.0014959152196465  0.7500190327075481  0.3749977792658315
 -0.0007586880725550  0.7495407610314034  0.6248725812688833
 -0.0011391801048353  0.7495331310393045  0.8750119476352183
  0.7484204302678634  0.5001272763514409  0.1250569918981349
  0.7484687817003353  0.4999498793105673  0.3750062766292598
  0.7489991975823003  0.4993191454633077  0.6249230128518297
  0.7488929052772506  0.4996876774094018  0.8749945387253601
  0.4983880399661532  0.7501282762618201  0.1250837068976996
  0.4985538043110304  0.7500531915213222  0.3749414803512299
  0.4990488382310220  0.7494855348160819  0.6249758113081199
  0.4988822273469593  0.7495009809150146  0.8750738343491079
  0.2484077958492189  0.0001689339594611  0.1250479648979099
  0.2484906012902397 -0.0000453498895474  0.3750037278172405
  0.2490038239893973 -0.0006830868951716  0.6249334485676488
  0.2488953211021372 -0.0003233226121477  0.8750065763250171
  0.7484331266382895 -0.0000019640197103  0.1249892430009601
  0.7484701839031507  0.0000041717371306  0.3749781263881810
  0.7490800561001434 -0.0004562660742868  0.6249579126854198
  0.7489373649331429 -0.0004161035230020  0.8750450273818037
 -0.0107033466823223  0.0092632971340171  0.0135799096113784
 -0.0151882615618041  0.0135374159602900  0.2595442798337396
  0.9896864292243096  0.0087776914152580  0.5131481333952271
 -0.0145419855470113  0.0129987163992057  0.7594750737302263
  0.5122225846124354 -0.0138402438996183 -0.0094707809551085
  0.5077030840157877 -0.0089994019182419  0.2366596079047125
  0.5118439672514242 -0.0133529470900713  0.4904471515916087
  0.5084191768213837 -0.0098350416037549  0.7365851507814528
  0.2585491783913383  0.2399033132182177 -0.0134668726240353
  0.2614326791464327  0.2369144510046112  0.2405035896393321
  0.2583914930972349  0.2400231621113112  0.4868909049204163
  0.2623427164073998  0.2361583291506971  0.7403093271721137
  0.0121968902026179  0.4861422777135514 -0.0094642031266412
  0.0077053180159737  0.4909680527429849  0.2366685438740743
  0.0118264774703791  0.4866205163107117  0.4904558531210730
  0.0084195401673162  0.4901451244366091  0.7365832423117049
  0.7351455542871640  0.2632343146691397  0.0096473868167305
  0.7385957049224422  0.2600777559056272  0.2632071523207075
  0.7361002373977544  0.2623706504524254  0.5095568225717271
  0.7391997456352974  0.2594365995509440  0.7633982808719934
  0.4892966391327910  0.5092213489595658  0.0135950142935721
  0.4847954005142718  0.5135169745922983  0.2595263162967152
  0.4896771680771082  0.5087724474244383  0.5131222143703362
  0.4854248211359389  0.5130012923677552  0.7594612872441870
  0.2351618856413305  0.7632585492382397  0.0096336481779033
  0.2385887982548026  0.7600857668245213  0.2632390070483025
  0.2361428777723061  0.7624045981165987  0.5095221108310726
  0.2391833326779875  0.7594070688581654  0.7634014303135759
  0.7585252808181994  0.7398991299062952 -0.0134591266535609
  0.7614089438696686  0.7369335155108472  0.2405130433193662
  0.7583986577389986  0.7400528190687817  0.4869010884016050
  0.7623310949046194  0.7361787776207995  0.7403041315329308
 
  0.00000000E+00  0.00000000E+00  0.00000000E+00
  0.00000000E+00  0.00000000E+00  0.00000000E+00
  0.00000000E+00  0.00000000E+00  0.00000000E+00
  0.00000000E+00  0.00000000E+00  0.00000000E+00
  0.00000000E+00  0.00000000E+00  0.00000000E+00
  0.00000000E+00  0.00000000E+00  0.00000000E+00
  0.00000000E+00  0.00000000E+00  0.00000000E+00
  0.00000000E+00  0.00000000E+00  0.00000000E+00
  0.00000000E+00  0.00000000E+00  0.00000000E+00
  0.00000000E+00  0.00000000E+00  0.00000000E+00
  0.00000000E+00  0.00000000E+00  0.00000000E+00
  0.00000000E+00  0.00000000E+00  0.00000000E+00
  0.00000000E+00  0.00000000E+00  0.00000000E+00
  0.00000000E+00  0.00000000E+00  0.00000000E+00
  0.00000000E+00  0.00000000E+00  0.00000000E+00
  0.00000000E+00  0.00000000E+00  0.00000000E+00
  0.00000000E+00  0.00000000E+00  0.00000000E+00
  0.00000000E+00  0.00000000E+00  0.00000000E+00
  0.00000000E+00  0.00000000E+00  0.00000000E+00
  0.00000000E+00  0.00000000E+00  0.00000000E+00
  0.00000000E+00  0.00000000E+00  0.00000000E+00
  0.00000000E+00  0.00000000E+00  0.00000000E+00
  0.00000000E+00  0.00000000E+00  0.00000000E+00
  0.00000000E+00  0.00000000E+00  0.00000000E+00
  0.00000000E+00  0.00000000E+00  0.00000000E+00
  0.00000000E+00  0.00000000E+00  0.00000000E+00
  0.00000000E+00  0.00000000E+00  0.00000000E+00
  0.00000000E+00  0.00000000E+00  0.00000000E+00
  0.00000000E+00  0.00000000E+00  0.00000000E+00
  0.00000000E+00  0.00000000E+00  0.00000000E+00
  0.00000000E+00  0.00000000E+00  0.00000000E+00
  0.00000000E+00  0.00000000E+00  0.00000000E+00
  0.00000000E+00  0.00000000E+00  0.00000000E+00
  0.00000000E+00  0.00000000E+00  0.00000000E+00
  0.00000000E+00  0.00000000E+00  0.00000000E+00
  0.00000000E+00  0.00000000E+00  0.00000000E+00
  0.00000000E+00  0.00000000E+00  0.00000000E+00
  0.00000000E+00  0.00000000E+00  0.00000000E+00
  0.00000000E+00  0.00000000E+00  0.00000000E+00
  0.00000000E+00  0.00000000E+00  0.00000000E+00
  0.00000000E+00  0.00000000E+00  0.00000000E+00
  0.00000000E+00  0.00000000E+00  0.00000000E+00
  0.00000000E+00  0.00000000E+00  0.00000000E+00
  0.00000000E+00  0.00000000E+00  0.00000000E+00
  0.00000000E+00  0.00000000E+00  0.00000000E+00
  0.00000000E+00  0.00000000E+00  0.00000000E+00
  0.00000000E+00  0.00000000E+00  0.00000000E+00
  0.00000000E+00  0.00000000E+00  0.00000000E+00
  0.00000000E+00  0.00000000E+00  0.00000000E+00
  0.00000000E+00  0.00000000E+00  0.00000000E+00
  0.00000000E+00  0.00000000E+00  0.00000000E+00
  0.00000000E+00  0.00000000E+00  0.00000000E+00
  0.00000000E+00  0.00000000E+00  0.00000000E+00
  0.00000000E+00  0.00000000E+00  0.00000000E+00
  0.00000000E+00  0.00000000E+00  0.00000000E+00
  0.00000000E+00  0.00000000E+00  0.00000000E+00
  0.00000000E+00  0.00000000E+00  0.00000000E+00
  0.00000000E+00  0.00000000E+00  0.00000000E+00
  0.00000000E+00  0.00000000E+00  0.00000000E+00
  0.00000000E+00  0.00000000E+00  0.00000000E+00
  0.00000000E+00  0.00000000E+00  0.00000000E+00
  0.00000000E+00  0.00000000E+00  0.00000000E+00
  0.00000000E+00  0.00000000E+00  0.00000000E+00
  0.00000000E+00  0.00000000E+00  0.00000000E+00
  0.00000000E+00  0.00000000E+00  0.00000000E+00
  0.00000000E+00  0.00000000E+00  0.00000000E+00
  0.00000000E+00  0.00000000E+00  0.00000000E+00
  0.00000000E+00  0.00000000E+00  0.00000000E+00
  0.00000000E+00  0.00000000E+00  0.00000000E+00
  0.00000000E+00  0.00000000E+00  0.00000000E+00
  0.00000000E+00  0.00000000E+00  0.00000000E+00
  0.00000000E+00  0.00000000E+00  0.00000000E+00
  0.00000000E+00  0.00000000E+00  0.00000000E+00
  0.00000000E+00  0.00000000E+00  0.00000000E+00
  0.00000000E+00  0.00000000E+00  0.00000000E+00
  0.00000000E+00  0.00000000E+00  0.00000000E+00
  0.00000000E+00  0.00000000E+00  0.00000000E+00
  0.00000000E+00  0.00000000E+00  0.00000000E+00
  0.00000000E+00  0.00000000E+00  0.00000000E+00
  0.00000000E+00  0.00000000E+00  0.00000000E+00
  0.00000000E+00  0.00000000E+00  0.00000000E+00
  0.00000000E+00  0.00000000E+00  0.00000000E+00
  0.00000000E+00  0.00000000E+00  0.00000000E+00
  0.00000000E+00  0.00000000E+00  0.00000000E+00
  0.00000000E+00  0.00000000E+00  0.00000000E+00
  0.00000000E+00  0.00000000E+00  0.00000000E+00
  0.00000000E+00  0.00000000E+00  0.00000000E+00
  0.00000000E+00  0.00000000E+00  0.00000000E+00
  0.00000000E+00  0.00000000E+00  0.00000000E+00
  0.00000000E+00  0.00000000E+00  0.00000000E+00
  0.00000000E+00  0.00000000E+00  0.00000000E+00
  0.00000000E+00  0.00000000E+00  0.00000000E+00
  0.00000000E+00  0.00000000E+00  0.00000000E+00
  0.00000000E+00  0.00000000E+00  0.00000000E+00
  0.00000000E+00  0.00000000E+00  0.00000000E+00
  0.00000000E+00  0.00000000E+00  0.00000000E+00
  0.00000000E+00  0.00000000E+00  0.00000000E+00
  0.00000000E+00  0.00000000E+00  0.00000000E+00
  0.00000000E+00  0.00000000E+00  0.00000000E+00
  0.00000000E+00  0.00000000E+00  0.00000000E+00
  0.00000000E+00  0.00000000E+00  0.00000000E+00
  0.00000000E+00  0.00000000E+00  0.00000000E+00
  0.00000000E+00  0.00000000E+00  0.00000000E+00
  0.00000000E+00  0.00000000E+00  0.00000000E+00
  0.00000000E+00  0.00000000E+00  0.00000000E+00
  0.00000000E+00  0.00000000E+00  0.00000000E+00
  0.00000000E+00  0.00000000E+00  0.00000000E+00
  0.00000000E+00  0.00000000E+00  0.00000000E+00
  0.00000000E+00  0.00000000E+00  0.00000000E+00
  0.00000000E+00  0.00000000E+00  0.00000000E+00
  0.00000000E+00  0.00000000E+00  0.00000000E+00
  0.00000000E+00  0.00000000E+00  0.00000000E+00
  0.00000000E+00  0.00000000E+00  0.00000000E+00
  0.00000000E+00  0.00000000E+00  0.00000000E+00
  0.00000000E+00  0.00000000E+00  0.00000000E+00
  0.00000000E+00  0.00000000E+00  0.00000000E+00
  0.00000000E+00  0.00000000E+00  0.00000000E+00
  0.00000000E+00  0.00000000E+00  0.00000000E+00
  0.00000000E+00  0.00000000E+00  0.00000000E+00
  0.00000000E+00  0.00000000E+00  0.00000000E+00
  0.00000000E+00  0.00000000E+00  0.00000000E+00
  0.00000000E+00  0.00000000E+00  0.00000000E+00
  0.00000000E+00  0.00000000E+00  0.00000000E+00
  0.00000000E+00  0.00000000E+00  0.00000000E+00
  0.00000000E+00  0.00000000E+00  0.00000000E+00
  0.00000000E+00  0.00000000E+00  0.00000000E+00
  0.00000000E+00  0.00000000E+00  0.00000000E+00
  0.00000000E+00  0.00000000E+00  0.00000000E+00
  0.00000000E+00  0.00000000E+00  0.00000000E+00
  0.00000000E+00  0.00000000E+00  0.00000000E+00
  0.00000000E+00  0.00000000E+00  0.00000000E+00
  0.00000000E+00  0.00000000E+00  0.00000000E+00
  0.00000000E+00  0.00000000E+00  0.00000000E+00
  0.00000000E+00  0.00000000E+00  0.00000000E+00
  0.00000000E+00  0.00000000E+00  0.00000000E+00
  0.00000000E+00  0.00000000E+00  0.00000000E+00
  0.00000000E+00  0.00000000E+00  0.00000000E+00
  0.00000000E+00  0.00000000E+00  0.00000000E+00
  0.00000000E+00  0.00000000E+00  0.00000000E+00
  0.00000000E+00  0.00000000E+00  0.00000000E+00
  0.00000000E+00  0.00000000E+00  0.00000000E+00
  0.00000000E+00  0.00000000E+00  0.00000000E+00
  0.00000000E+00  0.00000000E+00  0.00000000E+00
  0.00000000E+00  0.00000000E+00  0.00000000E+00
  0.00000000E+00  0.00000000E+00  0.00000000E+00
  0.00000000E+00  0.00000000E+00  0.00000000E+00
  0.00000000E+00  0.00000000E+00  0.00000000E+00
  0.00000000E+00  0.00000000E+00  0.00000000E+00
  0.00000000E+00  0.00000000E+00  0.00000000E+00
  0.00000000E+00  0.00000000E+00  0.00000000E+00
  0.00000000E+00  0.00000000E+00  0.00000000E+00
  0.00000000E+00  0.00000000E+00  0.00000000E+00
  0.00000000E+00  0.00000000E+00  0.00000000E+00
  0.00000000E+00  0.00000000E+00  0.00000000E+00
  0.00000000E+00  0.00000000E+00  0.00000000E+00
  0.00000000E+00  0.00000000E+00  0.00000000E+00
  0.00000000E+00  0.00000000E+00  0.00000000E+00
  0.00000000E+00  0.00000000E+00  0.00000000E+00
  0.00000000E+00  0.00000000E+00  0.00000000E+00
  0.00000000E+00  0.00000000E+00  0.00000000E+00
