Rb Sr  I                                
   1.00000000000000     
    12.8917570000000001  -12.8917570000000001    0.0000000000000000
    12.8917570000000001   12.8917570000000001    0.0000000000000000
     0.0000000000000000    0.0000000000000000   25.7835140000000003
   Rb   Sr   I 
    32    32    96
Direct
  0.0275797199611528  0.0366087023373905  0.9934957935213131
  0.9960019877831723  0.9990813952272730  0.2214222200486622
  0.9664572025948602  0.0322289052451113  0.4957853325185606
  0.9856092486819865  0.0090025671973729  0.7349813294622787
  0.5122651255225084  0.9849703020090619  0.0026771119266969
  0.4993300941568861  0.0093677429583231  0.2531182810067477
  0.5037910513764320  0.9974045068803152  0.5332577797064832
  0.5165909242546332  0.9967121645267963  0.7626870950351057
  0.2897325687268743  0.2154893030626510  0.0009049162745024
  0.2340774618785509  0.2241963838902299  0.2354612313695547
  0.2184140933824867  0.2176387635183254  0.5133264564751485
  0.2508693647825818  0.2549958958172732  0.7654928619059731
  0.0150309997426000  0.4822040976254109  0.9979164628378114
  0.0060877266986709  0.4967038369371818  0.2554188911686145
  0.0007130875151127  0.5009569864036050  0.5337355370057134
  0.0041734705360944  0.4993204599192600  0.7604259684138254
  0.7333921494448862  0.2585869618105724  0.0250119848684019
  0.7220245354613616  0.2791226165312657  0.2635758632252888
  0.7214421827885175  0.2197858269564923  0.4992955725877059
  0.7180363535462462  0.2805722549324592  0.7389373344995159
  0.5308691581102150  0.5339024887483508  0.9938030522166197
  0.4946202528207693  0.5033760135028550  0.2218971461160469
  0.5312837310261831  0.4678414266904757  0.4958319158527613
  0.4837464613808457  0.5189364138713648  0.7295164102575710
  0.2383813035282414  0.7592988836404196  0.0240129442701371
  0.2600243142985774  0.7336493254019743  0.2704607083453415
  0.2237331110551525  0.7239636294772436  0.4987136608651400
  0.2237965177655096  0.7718520882348791  0.7399338566123820
  0.7898600397611567  0.7122936288945108  0.9977788145615931
  0.7832884232157730  0.7673402949997927  0.2433978886879354
  0.7019609468074905  0.7308969293938651  0.4970464628016338
  0.7562348435664580  0.7504678844018328  0.7706274022986155
  0.9947853546942813  0.2502726306967815  0.1226271621860627
  0.0015224114052494  0.2516397808835157  0.3712066992597269
  0.0004271927869931  0.2534851386657089  0.6238514692843826
  0.9984578038629819  0.2476089468838933  0.8710038223036951
  0.4986391210253707  0.2510322356946912  0.1263395653839667
  0.4958485767321050  0.2498523784160376  0.3743876069280384
  0.4954274975056213  0.2543175756341571  0.6260637595640441
  0.5034446567223555  0.2493989929742262  0.8739339119065181
  0.2491551763762330  0.5020617082075287  0.1235789467135601
  0.2503768021685045  0.4977837330887492  0.3746752742099381
  0.2503732335246384  0.4995756148384578  0.6252537995429451
  0.2540320170717092  0.4997606757476166  0.8746697616139797
  0.0002965676849584  0.7493497896679153  0.1250152493280118
  0.0002924673576709  0.7512364989413191  0.3765135061587086
  0.9987578536116862  0.7537439865667871  0.6268499718663434
  0.0054689524405839  0.7505671307979791  0.8761223113318054
  0.7502390931893672  0.5005238739665635  0.1261666275863337
  0.7506424555318669  0.5032671129692429  0.3739824609166075
  0.7485576841611800  0.5077028932844075  0.6260891543770495
  0.7514413915580294  0.4942131155168561  0.8736371471245078
  0.4957821196784666  0.7500447814285806  0.1231919428245606
  0.4974865841604687  0.7503302962251581  0.3728527497438880
  0.4980303230161927  0.7549121087354224  0.6255097768562771
  0.4977056310993128  0.7487871501067676  0.8733289348239062
  0.2489853875036913  0.9975756703219659  0.1250440869712341
  0.2507945415653399  0.0000299439603767  0.3741571437804838
  0.2493309958924756  0.0021547425849096  0.6254924274641046
  0.2515794283243428  0.9967386867764267  0.8726663645206705
  0.7477088127395690  0.0006996655890538  0.1219232024210538
  0.7513432668138124  0.9975883171594397  0.3727388156929767
  0.7503239644479602  0.9973781630209406  0.6251788965708165
  0.7524417082626405  0.0012228907099352  0.8759256667716694
  0.9622527989304035  0.2742334991347588  0.9963429493991348
  0.0157304003841783  0.2046192792867304  0.2460224241479257
  0.0051433233152675  0.2937542833548238  0.4973538241431005
  0.0341329256734636  0.2152980825542538  0.7472693487235545
  0.4999522679288646  0.1997055283566679  0.0004070064856975
  0.5109287991450112  0.3001493717498468  0.2503185258627618
  0.5064288515677668  0.2058213953612493  0.5009144980161701
  0.5070766612590977  0.3047392334815149  0.7500232566142856
  0.2183345927403069  0.5331759764561337  0.9986567206516530
  0.2907066809644953  0.5121661362599091  0.2486499859772205
  0.2055370392728042  0.5156304086955270  0.5007575438867925
  0.2801983329942487  0.4654184309717376  0.7496304810078093
  0.0009472805761577  0.6952877367584622  0.0006260415950023
  0.9942039821682928  0.7961989805768016  0.2493571804550887
  0.0070685304590465  0.7056236591975377  0.5028407139407765
  0.0086603753602070  0.8008431821020129  0.7520027015716726
  0.8004054901949468  0.4996043173894837  0.0001566825777491
  0.6982366475995443  0.4940198392933118  0.2494329875453049
  0.7898418310475649  0.5220673206879863  0.5004696022626369
  0.6952920734362207  0.4947050216653164  0.7499231938203836
  0.4608923798565443  0.7773086187870819  0.9979578737204773
  0.4998458592889508  0.7081745127662669  0.2472732602847642
  0.4916246669437562  0.7922412177879845  0.4992766974876657
  0.5401641189341324  0.7265874903740592  0.7494587603742625
  0.3003093830027471  0.0002609048454268  0.9997197176394786
  0.1991665997663127  0.0118804716991538  0.2480475808924720
  0.2972876429411305  0.0162253179769285  0.5003114229784305
  0.1961218041322945  0.9944971755331805  0.7495261609249492
  0.7153988946231156  0.0420010613619736  0.9987561678337699
  0.7888890531893498  0.9788548266595830  0.2465173519827889
  0.7108691911061571  0.0118163183510978  0.4995259278314177
  0.7722960234718095  0.9650610438089358  0.7501355012117661
  0.1481955575150221  0.1498662899174308  0.0996597713496444
  0.1117003317243918  0.1123204448757986  0.4047586653381612
  0.0973002174500798  0.1000532776771136  0.5991975314107999
  0.1505035485604061  0.1478096875587837  0.8998838847436250
  0.6514255842827231  0.1543746872844627  0.1472466433979900
  0.6178989742843203  0.1175670349310299  0.3450193056610107
  0.6020941282573513  0.1053890551879541  0.6481498290971618
  0.6443121814533661  0.1417530634307394  0.8403150954877751
  0.3402835316514198  0.3426111301267000  0.1169653631367399
  0.3888652340930399  0.3886029139386535  0.4048867203527606
  0.4077477394934349  0.4107748144038247  0.6043375657977758
  0.3485972918657502  0.3430964469830628  0.8932730276108924
  0.1553073055637623  0.6581254128680412  0.1439441480183579
  0.1110909768631269  0.6114708852368324  0.3487285270328730
  0.0994970610440778  0.6004800859222453  0.6506433183029309
  0.1448428118695533  0.6412505356162574  0.8434756157199114
  0.8401595712213549  0.3432313680221000  0.1441315613305962
  0.8817885395278515  0.3840400300394489  0.3407804814777692
  0.8986455570856134  0.4033576508304544  0.6478757414674903
  0.8592683793598226  0.3562996909121782  0.8372946956171765
  0.6478204921219534  0.6486991467696198  0.0991510835423162
  0.6051393555186274  0.6070780526771803  0.4011796343512308
  0.5960928905720805  0.6033143764848943  0.5992766696932414
  0.6498811682373901  0.6451141929134463  0.8987226602189353
  0.3400090975491429  0.8430516852176507  0.1443118982432168
  0.3887192155845803  0.8891822710900469  0.3408914267152145
  0.4055952346278150  0.9104156506125520  0.6504938152105119
  0.3566662493500023  0.8550860454176937  0.8410418160835381
  0.8442680117669686  0.8444090583190057  0.1065094043386207
  0.8938533925149069  0.8934437969423806  0.4015634938472040
  0.9094526544201350  0.9111561698148737  0.6084350008838039
  0.8497807258153258  0.8460411800764129  0.8934528531693618
  0.9041316367984663  0.0932902639402651  0.1070926397084498
  0.8561113150232944  0.1448371700114407  0.3963863632551329
  0.8486836484235958  0.1519286460937211  0.6151354621091858
  0.9112278584531950  0.0886329533607747  0.8733363908286165
  0.3903867069443235  0.1079543257049088  0.1509530590362817
  0.3589538190452725  0.1410575536895399  0.3416940895806314
  0.3398803635618550  0.1614069729410467  0.6415413721449568
  0.3883472214825086  0.1120048465256948  0.8420861697725356
  0.0906850853942528  0.4064586582987554  0.1328270610147650
  0.1420722057803710  0.3589269547626731  0.3414056242400138
  0.1557873612248055  0.3449861481658020  0.6269737996252411
  0.1005636644602590  0.3986877925483778  0.8685602870244002
  0.8925870095929969  0.6066929050467605  0.1548461977815647
  0.8563491382109063  0.6450299816736934  0.3491952638959145
  0.8477996685244100  0.6559190182899920  0.6515616665684304
  0.8881141305542440  0.6118773536442430  0.8492207623262811
  0.6013374180632922  0.3981522629164558  0.0972160685328162
  0.6458894518292719  0.3548482453408530  0.3987888105198341
  0.6513984070734544  0.3521501730735001  0.6038207246888276
  0.6221500164953156  0.3781385299896771  0.9124591129432339
  0.4056404066930926  0.5929290777633246  0.1040783483412668
  0.3488139980257771  0.6496684673116780  0.3919493022388857
  0.3447653770534964  0.6562362686693878  0.6351158624090926
  0.4124785884273457  0.5887345436981388  0.8748815610258419
  0.0997800210033444  0.8995655265452454  0.0957945586988421
  0.1556320162848552  0.8455956140769192  0.3888185659021783
  0.1582710563021031  0.8444557403325725  0.6100548224316270
  0.1188666892027348  0.8840891111811211  0.9121286278898741
  0.5893049651475049  0.9078710519338971  0.1333075052509706
  0.6503855488837362  0.8479859880719516  0.3606550149557386
  0.6553736795410136  0.8449206165643469  0.6193115020425989
  0.6000164878917171  0.8999525513433227  0.8775445599488899
 
  0.00000000E+00  0.00000000E+00  0.00000000E+00
  0.00000000E+00  0.00000000E+00  0.00000000E+00
  0.00000000E+00  0.00000000E+00  0.00000000E+00
  0.00000000E+00  0.00000000E+00  0.00000000E+00
  0.00000000E+00  0.00000000E+00  0.00000000E+00
  0.00000000E+00  0.00000000E+00  0.00000000E+00
  0.00000000E+00  0.00000000E+00  0.00000000E+00
  0.00000000E+00  0.00000000E+00  0.00000000E+00
  0.00000000E+00  0.00000000E+00  0.00000000E+00
  0.00000000E+00  0.00000000E+00  0.00000000E+00
  0.00000000E+00  0.00000000E+00  0.00000000E+00
  0.00000000E+00  0.00000000E+00  0.00000000E+00
  0.00000000E+00  0.00000000E+00  0.00000000E+00
  0.00000000E+00  0.00000000E+00  0.00000000E+00
  0.00000000E+00  0.00000000E+00  0.00000000E+00
  0.00000000E+00  0.00000000E+00  0.00000000E+00
  0.00000000E+00  0.00000000E+00  0.00000000E+00
  0.00000000E+00  0.00000000E+00  0.00000000E+00
  0.00000000E+00  0.00000000E+00  0.00000000E+00
  0.00000000E+00  0.00000000E+00  0.00000000E+00
  0.00000000E+00  0.00000000E+00  0.00000000E+00
  0.00000000E+00  0.00000000E+00  0.00000000E+00
  0.00000000E+00  0.00000000E+00  0.00000000E+00
  0.00000000E+00  0.00000000E+00  0.00000000E+00
  0.00000000E+00  0.00000000E+00  0.00000000E+00
  0.00000000E+00  0.00000000E+00  0.00000000E+00
  0.00000000E+00  0.00000000E+00  0.00000000E+00
  0.00000000E+00  0.00000000E+00  0.00000000E+00
  0.00000000E+00  0.00000000E+00  0.00000000E+00
  0.00000000E+00  0.00000000E+00  0.00000000E+00
  0.00000000E+00  0.00000000E+00  0.00000000E+00
  0.00000000E+00  0.00000000E+00  0.00000000E+00
  0.00000000E+00  0.00000000E+00  0.00000000E+00
  0.00000000E+00  0.00000000E+00  0.00000000E+00
  0.00000000E+00  0.00000000E+00  0.00000000E+00
  0.00000000E+00  0.00000000E+00  0.00000000E+00
  0.00000000E+00  0.00000000E+00  0.00000000E+00
  0.00000000E+00  0.00000000E+00  0.00000000E+00
  0.00000000E+00  0.00000000E+00  0.00000000E+00
  0.00000000E+00  0.00000000E+00  0.00000000E+00
  0.00000000E+00  0.00000000E+00  0.00000000E+00
  0.00000000E+00  0.00000000E+00  0.00000000E+00
  0.00000000E+00  0.00000000E+00  0.00000000E+00
  0.00000000E+00  0.00000000E+00  0.00000000E+00
  0.00000000E+00  0.00000000E+00  0.00000000E+00
  0.00000000E+00  0.00000000E+00  0.00000000E+00
  0.00000000E+00  0.00000000E+00  0.00000000E+00
  0.00000000E+00  0.00000000E+00  0.00000000E+00
  0.00000000E+00  0.00000000E+00  0.00000000E+00
  0.00000000E+00  0.00000000E+00  0.00000000E+00
  0.00000000E+00  0.00000000E+00  0.00000000E+00
  0.00000000E+00  0.00000000E+00  0.00000000E+00
  0.00000000E+00  0.00000000E+00  0.00000000E+00
  0.00000000E+00  0.00000000E+00  0.00000000E+00
  0.00000000E+00  0.00000000E+00  0.00000000E+00
  0.00000000E+00  0.00000000E+00  0.00000000E+00
  0.00000000E+00  0.00000000E+00  0.00000000E+00
  0.00000000E+00  0.00000000E+00  0.00000000E+00
  0.00000000E+00  0.00000000E+00  0.00000000E+00
  0.00000000E+00  0.00000000E+00  0.00000000E+00
  0.00000000E+00  0.00000000E+00  0.00000000E+00
  0.00000000E+00  0.00000000E+00  0.00000000E+00
  0.00000000E+00  0.00000000E+00  0.00000000E+00
  0.00000000E+00  0.00000000E+00  0.00000000E+00
  0.00000000E+00  0.00000000E+00  0.00000000E+00
  0.00000000E+00  0.00000000E+00  0.00000000E+00
  0.00000000E+00  0.00000000E+00  0.00000000E+00
  0.00000000E+00  0.00000000E+00  0.00000000E+00
  0.00000000E+00  0.00000000E+00  0.00000000E+00
  0.00000000E+00  0.00000000E+00  0.00000000E+00
  0.00000000E+00  0.00000000E+00  0.00000000E+00
  0.00000000E+00  0.00000000E+00  0.00000000E+00
  0.00000000E+00  0.00000000E+00  0.00000000E+00
  0.00000000E+00  0.00000000E+00  0.00000000E+00
  0.00000000E+00  0.00000000E+00  0.00000000E+00
  0.00000000E+00  0.00000000E+00  0.00000000E+00
  0.00000000E+00  0.00000000E+00  0.00000000E+00
  0.00000000E+00  0.00000000E+00  0.00000000E+00
  0.00000000E+00  0.00000000E+00  0.00000000E+00
  0.00000000E+00  0.00000000E+00  0.00000000E+00
  0.00000000E+00  0.00000000E+00  0.00000000E+00
  0.00000000E+00  0.00000000E+00  0.00000000E+00
  0.00000000E+00  0.00000000E+00  0.00000000E+00
  0.00000000E+00  0.00000000E+00  0.00000000E+00
  0.00000000E+00  0.00000000E+00  0.00000000E+00
  0.00000000E+00  0.00000000E+00  0.00000000E+00
  0.00000000E+00  0.00000000E+00  0.00000000E+00
  0.00000000E+00  0.00000000E+00  0.00000000E+00
  0.00000000E+00  0.00000000E+00  0.00000000E+00
  0.00000000E+00  0.00000000E+00  0.00000000E+00
  0.00000000E+00  0.00000000E+00  0.00000000E+00
  0.00000000E+00  0.00000000E+00  0.00000000E+00
  0.00000000E+00  0.00000000E+00  0.00000000E+00
  0.00000000E+00  0.00000000E+00  0.00000000E+00
  0.00000000E+00  0.00000000E+00  0.00000000E+00
  0.00000000E+00  0.00000000E+00  0.00000000E+00
  0.00000000E+00  0.00000000E+00  0.00000000E+00
  0.00000000E+00  0.00000000E+00  0.00000000E+00
  0.00000000E+00  0.00000000E+00  0.00000000E+00
  0.00000000E+00  0.00000000E+00  0.00000000E+00
  0.00000000E+00  0.00000000E+00  0.00000000E+00
  0.00000000E+00  0.00000000E+00  0.00000000E+00
  0.00000000E+00  0.00000000E+00  0.00000000E+00
  0.00000000E+00  0.00000000E+00  0.00000000E+00
  0.00000000E+00  0.00000000E+00  0.00000000E+00
  0.00000000E+00  0.00000000E+00  0.00000000E+00
  0.00000000E+00  0.00000000E+00  0.00000000E+00
  0.00000000E+00  0.00000000E+00  0.00000000E+00
  0.00000000E+00  0.00000000E+00  0.00000000E+00
  0.00000000E+00  0.00000000E+00  0.00000000E+00
  0.00000000E+00  0.00000000E+00  0.00000000E+00
  0.00000000E+00  0.00000000E+00  0.00000000E+00
  0.00000000E+00  0.00000000E+00  0.00000000E+00
  0.00000000E+00  0.00000000E+00  0.00000000E+00
  0.00000000E+00  0.00000000E+00  0.00000000E+00
  0.00000000E+00  0.00000000E+00  0.00000000E+00
  0.00000000E+00  0.00000000E+00  0.00000000E+00
  0.00000000E+00  0.00000000E+00  0.00000000E+00
  0.00000000E+00  0.00000000E+00  0.00000000E+00
  0.00000000E+00  0.00000000E+00  0.00000000E+00
  0.00000000E+00  0.00000000E+00  0.00000000E+00
  0.00000000E+00  0.00000000E+00  0.00000000E+00
  0.00000000E+00  0.00000000E+00  0.00000000E+00
  0.00000000E+00  0.00000000E+00  0.00000000E+00
  0.00000000E+00  0.00000000E+00  0.00000000E+00
  0.00000000E+00  0.00000000E+00  0.00000000E+00
  0.00000000E+00  0.00000000E+00  0.00000000E+00
  0.00000000E+00  0.00000000E+00  0.00000000E+00
  0.00000000E+00  0.00000000E+00  0.00000000E+00
  0.00000000E+00  0.00000000E+00  0.00000000E+00
  0.00000000E+00  0.00000000E+00  0.00000000E+00
  0.00000000E+00  0.00000000E+00  0.00000000E+00
  0.00000000E+00  0.00000000E+00  0.00000000E+00
  0.00000000E+00  0.00000000E+00  0.00000000E+00
  0.00000000E+00  0.00000000E+00  0.00000000E+00
  0.00000000E+00  0.00000000E+00  0.00000000E+00
  0.00000000E+00  0.00000000E+00  0.00000000E+00
  0.00000000E+00  0.00000000E+00  0.00000000E+00
  0.00000000E+00  0.00000000E+00  0.00000000E+00
  0.00000000E+00  0.00000000E+00  0.00000000E+00
  0.00000000E+00  0.00000000E+00  0.00000000E+00
  0.00000000E+00  0.00000000E+00  0.00000000E+00
  0.00000000E+00  0.00000000E+00  0.00000000E+00
  0.00000000E+00  0.00000000E+00  0.00000000E+00
  0.00000000E+00  0.00000000E+00  0.00000000E+00
  0.00000000E+00  0.00000000E+00  0.00000000E+00
  0.00000000E+00  0.00000000E+00  0.00000000E+00
  0.00000000E+00  0.00000000E+00  0.00000000E+00
  0.00000000E+00  0.00000000E+00  0.00000000E+00
  0.00000000E+00  0.00000000E+00  0.00000000E+00
  0.00000000E+00  0.00000000E+00  0.00000000E+00
  0.00000000E+00  0.00000000E+00  0.00000000E+00
  0.00000000E+00  0.00000000E+00  0.00000000E+00
  0.00000000E+00  0.00000000E+00  0.00000000E+00
  0.00000000E+00  0.00000000E+00  0.00000000E+00
  0.00000000E+00  0.00000000E+00  0.00000000E+00
  0.00000000E+00  0.00000000E+00  0.00000000E+00
  0.00000000E+00  0.00000000E+00  0.00000000E+00
  0.00000000E+00  0.00000000E+00  0.00000000E+00
  0.00000000E+00  0.00000000E+00  0.00000000E+00
