Na Sn F                                 
   1.00000000000000     
     9.3336880000000004   -9.3336880000000004    0.0000000000000000
     9.3336880000000004    9.3336880000000004    0.0000000000000000
     0.0000000000000000    0.0000000000000000   18.6673749999999998
   F    Na   Sn
    96    32    32
Direct
  0.0691356438240042  0.2450508585929377  0.0470944083466798
  0.0681054989724000  0.2727635350766424  0.3296252663849054
  0.9515344967227081  0.3231619528347817  0.5746961892641667
  0.9456127918890113  0.2431550804240303  0.8140745603158421
  0.5989019448520687  0.1829116687376190  0.0326703311965683
  0.5076748513758232  0.2930049510022960  0.2912236930362127
  0.4713274277221397  0.2070691056147554  0.5430020430995846
  0.4195489279674611  0.2105898533817341  0.7859779124587519
  0.2468766834566412  0.4184640716553400  0.0599336503828888
  0.2043086353723693  0.4517820880143569  0.2997026082508698
  0.2694715455089991  0.4442325391946675  0.5440193488829514
  0.2384993344123710  0.4079382868707075  0.7911348441805413
  0.0067385617149684  0.8712871620768257  0.9777592896761954
  0.0235020572173714  0.7834863397555437  0.3384625282220897
  0.9451233576620046  0.8202503981215998  0.5207489921155644
  0.9440210698685711  0.6798280869989458  0.7438340061448042
  0.7717157093891106  0.4278325640272904  0.0372290470761274
  0.7415610293481527  0.5977472443119630  0.3151682508217536
  0.7181191555560341  0.3961618710803890  0.5465120621578762
  0.7082514441126753  0.5733809442907176  0.7670387933340714
  0.3498876846477768  0.8021775443285535  0.9395620378747902
  0.4963715903598606  0.5937015195043359  0.1598913533793930
  0.4461226351685655  0.6918537833824224  0.4522742618500064
  0.6116753856671912  0.7599777252655544  0.7342451760906018
  0.0352215114880342  0.0665332927538551  0.8974709472044108
  0.3099108107754050  0.1326945752864702  0.2433849131906046
  0.1678504960028224  0.9032888931283563  0.4400110369738828
  0.2828066677804236  0.9366233023543576  0.6832760956439878
  0.7083369461200522  0.0353407286306720  0.9407533637913793
  0.8311149016105197  0.8824879369972961  0.2819626091584591
  0.7013941562765512  0.9623241315296932  0.4897379333806797
  0.8731993076223358  0.1231881532333199  0.6859725345442360
  0.3454962761769893  0.1678981450749275  0.0812891819932018
  0.0698558920815309  0.0751792321260146  0.3936823277428859
  0.1367800865878462  0.2455457852353018  0.5282522884294929
  0.2244543284126634  0.0707916323053328  0.8143985170536203
  0.6791235812737340  0.2271920473164518  0.1648112221846445
  0.6888992173258162  0.2309902904060649  0.4342604207448911
  0.7122012882974896  0.1378395527291292  0.5850420984639200
  0.6645041261633233  0.1499901919862214  0.8053316415908229
  0.3483454513272812  0.4341166841564094  0.1847141138828747
  0.2909327811114202  0.3246553901574745  0.4038787430686183
  0.3287548768586703  0.2709521704876557  0.6427359491606147
  0.3523719291600696  0.2588846773955900  0.9237607496821286
  0.0858168401365325  0.6960897067704459  0.0464267421836503
  0.1992007983754341  0.6775249114611746  0.3813960890803956
  0.2064020632352014  0.6038812478872453  0.6682624692516153
  0.0773957594363159  0.5474556792990741  0.8198745079247722
  0.8993711034618005  0.3025688153688378  0.1452610347704031
  0.8739497773626712  0.4054043921882292  0.3105318123035280
  0.7308022436452765  0.3666135470593366  0.7021082166232584
  0.0017284720799138  0.4114066620731303  0.9342390430114318
  0.5527487168211473  0.4498954813110727  0.0364292372802308
  0.6315148379327308  0.5982405086073889  0.4497216507684899
  0.6087569766686992  0.7712760939178223  0.5788562662212088
  0.6674769174875672  0.6016070813167945  0.9323603561427687
  0.3065739037022414  0.7071643351769356  0.2131174458195401
  0.3282696724514838  0.8768444707924395  0.3503715493135318
  0.2780488671972532  0.8275721970572363  0.5611575694062026
  0.2452882875091237  0.7813875351798762  0.7952038216858183
  0.8094916589188678  0.8809452733081964  0.0227253144564543
  0.8832215971164935  0.9909269787598336  0.4048030327335905
  0.8269508382079725  0.7683785066295282  0.6350128374775498
  0.8243885620699105  0.7797112314429212  0.8520028547957442
  0.8306748784065419  0.0898323026280746  0.0476820908358036
  0.9318717070190760  0.1151575006648627  0.2813950850161760
  0.9422155737622434  0.1215726748916889  0.5399450124352954
  0.8348670442698215  0.0184660189935124  0.8285163643113546
  0.4990596443963790  0.0986929810447813  0.1713696487361385
  0.5118509203208108  0.1453971984033470  0.3958659820464547
  0.4424554475219490  0.0804441303491663  0.6653699496951060
  0.4692244912492937  0.0726494842909382  0.8903245204819804
  0.1472107757307779  0.3139629231056476  0.1841689756325274
  0.1172647793869022  0.4856441399054298  0.4330468083151066
  0.1328638029760299  0.4109544272215914  0.6554976071777027
  0.1336664537500936  0.2607682663200639  0.9020825216338778
  0.8787538685147247  0.6816290422432539  0.0117104266612888
  0.9588358748716146  0.5934098173110030  0.3583020717117150
  0.9914689993881161  0.6203892801594917  0.5978305929185986
  0.8704200576370289  0.5757086335080537  0.8738239346070322
  0.6563839896377476  0.4441814731737682  0.1711216696839949
  0.6716767371883036  0.3956892681961111  0.3370072393442067
  0.5930092227478786  0.5274768701240313  0.6318461380589897
  0.5376521763305905  0.4970996550314429  0.8280024650204777
  0.3426403042628602  0.6487479970392740  0.0688628966615757
  0.4852208645964743  0.5443993510345629  0.3375513766607914
  0.4368490921466512  0.7083373454260696  0.6620834313392255
  0.2567700713845358  0.6190417239870080  0.8977507919824705
  0.1654190556344451  0.0801578628131554  0.1255236957736627
  0.1545587235548993  0.9479570617243102  0.2845053562655394
  0.1213393441844801  0.0061295668814500  0.5842931660246250
  0.0548242745098145  0.9319000395184212  0.7854786134565725
  0.6060020967603719  0.8671449470051039  0.9902491529826425
  0.7626504702639623  0.7957110185614049  0.4055556004551742
  0.6978789948219792  0.9805818349835789  0.6963328290805976
  0.4362719450036470  0.8751534336950731  0.8145963988141445
  0.8921972317105372  0.9978325269970039  0.9478284952405871
  0.9835451278682291  0.9510072238881985  0.3029316686800331
  0.0163684972065534  0.9720672457647044  0.4878822110470943
  0.9726595677134153  0.0787371160033376  0.7804039022244171
  0.4743410293192709  0.9172957818738656  0.9298252904884791
  0.4723750935418134  0.1298332641736589  0.2851933070960767
  0.6003156201455272  0.1035840705994360  0.4952494210040498
  0.3770703707224149  0.0248224727959990  0.7704195003433743
  0.2350817758248430  0.2580268069092411  0.0124124299119717
  0.2305082749082955  0.2741381042801924  0.2932104951267939
  0.3066022532005978  0.2720275193724062  0.5202896549618488
  0.2564153114812701  0.2383320731933371  0.8209704624391053
  0.8948841416963398  0.5160955567428069  0.9832646081192239
  0.0362049107053941  0.4406527016556470  0.3292497033735088
  0.0903351861519952  0.4183007208423852  0.5395477162349887
  0.0497121663704764  0.5480623978669990  0.7027327441325290
  0.7769267140646500  0.2501242171672058  0.0657595879315920
  0.7695058992471485  0.3422557580472668  0.2260024654422184
  0.8007742636939342  0.2574306668517861  0.5267523527193062
  0.7933910057204323  0.2362754278153047  0.7569002805584691
  0.4014420920551935  0.4872073429441501  0.0699480281109744
  0.5104425716204879  0.4536124854202913  0.2402401924878767
  0.5298934657774192  0.6286991581516088  0.5482498832824487
  0.5425291822807004  0.5994249778838512  0.7334844308030392
  0.2293221448489441  0.7109230944833149  0.9941556378814180
  0.2059363248206854  0.7850987962994280  0.2887203173209273
  0.3042401015745782  0.7797265948162745  0.4483767463875993
  0.2652689849703713  0.7612284011600788  0.6750435232307055
  0.7316098674181543  0.7558823144726297  0.9546778367256992
  0.8544832676302574  0.7243591878824998  0.3138310220569515
  0.7584772780892507  0.8022363721271631  0.5244097262272666
  0.7726892938547294  0.7243026600676248  0.7445365472533026
  0.0231789677566121  0.1960494082172467  0.1503785644768771
  0.9540912513355716  0.1853610618370372  0.3786130063942870
  0.0413428040815032  0.2001951174688114  0.6125358834201399
  0.9794435787719761  0.2495457716044087  0.9275437101979573
  0.5310531158726801  0.2438016293204942  0.1242126087947795
  0.5505834815528322  0.3056067647597594  0.4041618503114185
  0.4852424582367018  0.2314180313971499  0.6571167804094747
  0.5003756051345584  0.2283475720010012  0.8860387214282512
  0.1974918210693108  0.4679538549636670  0.1632091089582496
  0.2771076281050975  0.4862691851584183  0.4039554848792043
  0.2842076809745236  0.4601597284580296  0.6637429553269948
  0.1753517493205781  0.4690699745291013  0.8887734792366287
  0.9618657221929909  0.7920431395334303  0.0688902580641148
  0.0494861945666676  0.6867671883845543  0.4279219400217960
  0.9853705721544533  0.7722871400075224  0.6286053561478461
  0.9664415874730439  0.6999765166452792  0.8573280574644488
  0.6682455486459804  0.5363047295195921  0.0795040414138183
  0.7846006138928497  0.4858044650325183  0.3888118452006818
  0.7490876404711930  0.4887375578886246  0.6333968602763610
  0.6882187928073219  0.4821651671309066  0.8591202884195885
  0.4247855318122194  0.7328006030853886  0.1436409519234999
  0.5564655211026721  0.6770122279555219  0.3687482233314598
  0.5281436657615015  0.8439951256832625  0.6618533290773555
  0.3750769126491992  0.7240874950829762  0.8416365040403639
  0.3159311804754115  0.0445828007902390  0.1471155434731122
  0.2375400791028140  0.0088759463293154  0.3701414594899139
  0.2789934915868711  0.9862562272191856  0.5791033639408277
  0.1494564318092418  0.9538577755199188  0.8714067221870384
  0.6933119448758345  0.9911872777670022  0.0509681897322428
  0.7386581220883423  0.9456391072666717  0.3687050277663231
  0.8051114774787655  0.0173177050472513  0.6131044827016322
  0.6797921393188302  0.9943107521682506  0.8240316051498272
 
  0.00000000E+00  0.00000000E+00  0.00000000E+00
  0.00000000E+00  0.00000000E+00  0.00000000E+00
  0.00000000E+00  0.00000000E+00  0.00000000E+00
  0.00000000E+00  0.00000000E+00  0.00000000E+00
  0.00000000E+00  0.00000000E+00  0.00000000E+00
  0.00000000E+00  0.00000000E+00  0.00000000E+00
  0.00000000E+00  0.00000000E+00  0.00000000E+00
  0.00000000E+00  0.00000000E+00  0.00000000E+00
  0.00000000E+00  0.00000000E+00  0.00000000E+00
  0.00000000E+00  0.00000000E+00  0.00000000E+00
  0.00000000E+00  0.00000000E+00  0.00000000E+00
  0.00000000E+00  0.00000000E+00  0.00000000E+00
  0.00000000E+00  0.00000000E+00  0.00000000E+00
  0.00000000E+00  0.00000000E+00  0.00000000E+00
  0.00000000E+00  0.00000000E+00  0.00000000E+00
  0.00000000E+00  0.00000000E+00  0.00000000E+00
  0.00000000E+00  0.00000000E+00  0.00000000E+00
  0.00000000E+00  0.00000000E+00  0.00000000E+00
  0.00000000E+00  0.00000000E+00  0.00000000E+00
  0.00000000E+00  0.00000000E+00  0.00000000E+00
  0.00000000E+00  0.00000000E+00  0.00000000E+00
  0.00000000E+00  0.00000000E+00  0.00000000E+00
  0.00000000E+00  0.00000000E+00  0.00000000E+00
  0.00000000E+00  0.00000000E+00  0.00000000E+00
  0.00000000E+00  0.00000000E+00  0.00000000E+00
  0.00000000E+00  0.00000000E+00  0.00000000E+00
  0.00000000E+00  0.00000000E+00  0.00000000E+00
  0.00000000E+00  0.00000000E+00  0.00000000E+00
  0.00000000E+00  0.00000000E+00  0.00000000E+00
  0.00000000E+00  0.00000000E+00  0.00000000E+00
  0.00000000E+00  0.00000000E+00  0.00000000E+00
  0.00000000E+00  0.00000000E+00  0.00000000E+00
  0.00000000E+00  0.00000000E+00  0.00000000E+00
  0.00000000E+00  0.00000000E+00  0.00000000E+00
  0.00000000E+00  0.00000000E+00  0.00000000E+00
  0.00000000E+00  0.00000000E+00  0.00000000E+00
  0.00000000E+00  0.00000000E+00  0.00000000E+00
  0.00000000E+00  0.00000000E+00  0.00000000E+00
  0.00000000E+00  0.00000000E+00  0.00000000E+00
  0.00000000E+00  0.00000000E+00  0.00000000E+00
  0.00000000E+00  0.00000000E+00  0.00000000E+00
  0.00000000E+00  0.00000000E+00  0.00000000E+00
  0.00000000E+00  0.00000000E+00  0.00000000E+00
  0.00000000E+00  0.00000000E+00  0.00000000E+00
  0.00000000E+00  0.00000000E+00  0.00000000E+00
  0.00000000E+00  0.00000000E+00  0.00000000E+00
  0.00000000E+00  0.00000000E+00  0.00000000E+00
  0.00000000E+00  0.00000000E+00  0.00000000E+00
  0.00000000E+00  0.00000000E+00  0.00000000E+00
  0.00000000E+00  0.00000000E+00  0.00000000E+00
  0.00000000E+00  0.00000000E+00  0.00000000E+00
  0.00000000E+00  0.00000000E+00  0.00000000E+00
  0.00000000E+00  0.00000000E+00  0.00000000E+00
  0.00000000E+00  0.00000000E+00  0.00000000E+00
  0.00000000E+00  0.00000000E+00  0.00000000E+00
  0.00000000E+00  0.00000000E+00  0.00000000E+00
  0.00000000E+00  0.00000000E+00  0.00000000E+00
  0.00000000E+00  0.00000000E+00  0.00000000E+00
  0.00000000E+00  0.00000000E+00  0.00000000E+00
  0.00000000E+00  0.00000000E+00  0.00000000E+00
  0.00000000E+00  0.00000000E+00  0.00000000E+00
  0.00000000E+00  0.00000000E+00  0.00000000E+00
  0.00000000E+00  0.00000000E+00  0.00000000E+00
  0.00000000E+00  0.00000000E+00  0.00000000E+00
  0.00000000E+00  0.00000000E+00  0.00000000E+00
  0.00000000E+00  0.00000000E+00  0.00000000E+00
  0.00000000E+00  0.00000000E+00  0.00000000E+00
  0.00000000E+00  0.00000000E+00  0.00000000E+00
  0.00000000E+00  0.00000000E+00  0.00000000E+00
  0.00000000E+00  0.00000000E+00  0.00000000E+00
  0.00000000E+00  0.00000000E+00  0.00000000E+00
  0.00000000E+00  0.00000000E+00  0.00000000E+00
  0.00000000E+00  0.00000000E+00  0.00000000E+00
  0.00000000E+00  0.00000000E+00  0.00000000E+00
  0.00000000E+00  0.00000000E+00  0.00000000E+00
  0.00000000E+00  0.00000000E+00  0.00000000E+00
  0.00000000E+00  0.00000000E+00  0.00000000E+00
  0.00000000E+00  0.00000000E+00  0.00000000E+00
  0.00000000E+00  0.00000000E+00  0.00000000E+00
  0.00000000E+00  0.00000000E+00  0.00000000E+00
  0.00000000E+00  0.00000000E+00  0.00000000E+00
  0.00000000E+00  0.00000000E+00  0.00000000E+00
  0.00000000E+00  0.00000000E+00  0.00000000E+00
  0.00000000E+00  0.00000000E+00  0.00000000E+00
  0.00000000E+00  0.00000000E+00  0.00000000E+00
  0.00000000E+00  0.00000000E+00  0.00000000E+00
  0.00000000E+00  0.00000000E+00  0.00000000E+00
  0.00000000E+00  0.00000000E+00  0.00000000E+00
  0.00000000E+00  0.00000000E+00  0.00000000E+00
  0.00000000E+00  0.00000000E+00  0.00000000E+00
  0.00000000E+00  0.00000000E+00  0.00000000E+00
  0.00000000E+00  0.00000000E+00  0.00000000E+00
  0.00000000E+00  0.00000000E+00  0.00000000E+00
  0.00000000E+00  0.00000000E+00  0.00000000E+00
  0.00000000E+00  0.00000000E+00  0.00000000E+00
  0.00000000E+00  0.00000000E+00  0.00000000E+00
  0.00000000E+00  0.00000000E+00  0.00000000E+00
  0.00000000E+00  0.00000000E+00  0.00000000E+00
  0.00000000E+00  0.00000000E+00  0.00000000E+00
  0.00000000E+00  0.00000000E+00  0.00000000E+00
  0.00000000E+00  0.00000000E+00  0.00000000E+00
  0.00000000E+00  0.00000000E+00  0.00000000E+00
  0.00000000E+00  0.00000000E+00  0.00000000E+00
  0.00000000E+00  0.00000000E+00  0.00000000E+00
  0.00000000E+00  0.00000000E+00  0.00000000E+00
  0.00000000E+00  0.00000000E+00  0.00000000E+00
  0.00000000E+00  0.00000000E+00  0.00000000E+00
  0.00000000E+00  0.00000000E+00  0.00000000E+00
  0.00000000E+00  0.00000000E+00  0.00000000E+00
  0.00000000E+00  0.00000000E+00  0.00000000E+00
  0.00000000E+00  0.00000000E+00  0.00000000E+00
  0.00000000E+00  0.00000000E+00  0.00000000E+00
  0.00000000E+00  0.00000000E+00  0.00000000E+00
  0.00000000E+00  0.00000000E+00  0.00000000E+00
  0.00000000E+00  0.00000000E+00  0.00000000E+00
  0.00000000E+00  0.00000000E+00  0.00000000E+00
  0.00000000E+00  0.00000000E+00  0.00000000E+00
  0.00000000E+00  0.00000000E+00  0.00000000E+00
  0.00000000E+00  0.00000000E+00  0.00000000E+00
  0.00000000E+00  0.00000000E+00  0.00000000E+00
  0.00000000E+00  0.00000000E+00  0.00000000E+00
  0.00000000E+00  0.00000000E+00  0.00000000E+00
  0.00000000E+00  0.00000000E+00  0.00000000E+00
  0.00000000E+00  0.00000000E+00  0.00000000E+00
  0.00000000E+00  0.00000000E+00  0.00000000E+00
  0.00000000E+00  0.00000000E+00  0.00000000E+00
  0.00000000E+00  0.00000000E+00  0.00000000E+00
  0.00000000E+00  0.00000000E+00  0.00000000E+00
  0.00000000E+00  0.00000000E+00  0.00000000E+00
  0.00000000E+00  0.00000000E+00  0.00000000E+00
  0.00000000E+00  0.00000000E+00  0.00000000E+00
  0.00000000E+00  0.00000000E+00  0.00000000E+00
  0.00000000E+00  0.00000000E+00  0.00000000E+00
  0.00000000E+00  0.00000000E+00  0.00000000E+00
  0.00000000E+00  0.00000000E+00  0.00000000E+00
  0.00000000E+00  0.00000000E+00  0.00000000E+00
  0.00000000E+00  0.00000000E+00  0.00000000E+00
  0.00000000E+00  0.00000000E+00  0.00000000E+00
  0.00000000E+00  0.00000000E+00  0.00000000E+00
  0.00000000E+00  0.00000000E+00  0.00000000E+00
  0.00000000E+00  0.00000000E+00  0.00000000E+00
  0.00000000E+00  0.00000000E+00  0.00000000E+00
  0.00000000E+00  0.00000000E+00  0.00000000E+00
  0.00000000E+00  0.00000000E+00  0.00000000E+00
  0.00000000E+00  0.00000000E+00  0.00000000E+00
  0.00000000E+00  0.00000000E+00  0.00000000E+00
  0.00000000E+00  0.00000000E+00  0.00000000E+00
  0.00000000E+00  0.00000000E+00  0.00000000E+00
  0.00000000E+00  0.00000000E+00  0.00000000E+00
  0.00000000E+00  0.00000000E+00  0.00000000E+00
  0.00000000E+00  0.00000000E+00  0.00000000E+00
  0.00000000E+00  0.00000000E+00  0.00000000E+00
  0.00000000E+00  0.00000000E+00  0.00000000E+00
  0.00000000E+00  0.00000000E+00  0.00000000E+00
  0.00000000E+00  0.00000000E+00  0.00000000E+00
  0.00000000E+00  0.00000000E+00  0.00000000E+00
  0.00000000E+00  0.00000000E+00  0.00000000E+00
  0.00000000E+00  0.00000000E+00  0.00000000E+00
  0.00000000E+00  0.00000000E+00  0.00000000E+00
  0.00000000E+00  0.00000000E+00  0.00000000E+00
