Na Hg F                                 
   1.00000000000000     
     9.1363170000000000   -9.1363170000000000    0.0000000000000000
     9.1363170000000000    9.1363170000000000    0.0000000000000000
     0.0000000000000000    0.0000000000000000   18.2726340000000000
   F    Hg   Na
    96    32    32
Direct
  0.0391268193164481  0.1935783444104339  0.0113312171011938
  0.1237633299237321  0.1359173425401565  0.3064875548849882
  0.1373184480963739  0.1422421232407092  0.4688789941643501
  0.0949084185449402  0.1966419611337817  0.7587735804784008
  0.5431161586030863  0.1912746051184002  0.0093878328980561
  0.6201524119783977  0.1597048777185114  0.3079778837062164
  0.6638418922514401  0.0906576597710818  0.5727439720564169
  0.4141066127469706  0.1485014012989320  0.8124258827273338
  0.3634703693328488  0.3505034743089992  0.9856244846227893
  0.3682866652643424  0.3570917750177812  0.1750227996243954
  0.4154490256550264  0.3965831978428543  0.5467347965372065
  0.3899092938302181  0.3210514705086175  0.7121535721831140
  0.0500002130058178  0.6681643217600843  0.0255239468732281
  0.0608763268030925  0.6893878532204651  0.2150349560582292
  0.1282146631534213  0.6156933991730481  0.4543737489277618
  0.0612969072562464  0.6810188835603053  0.7404583988090608
  0.8719608813818401  0.3699786024427499  0.0328677170836375
  0.8348240383665149  0.3390367385059622  0.1965592635638861
  0.0028134728815198  0.3391688839182077  0.4762068204477504
  0.8969022071151236  0.4811974968855815  0.7158793732364374
  0.5909054524836660  0.6860091380907003  0.9564715519421036
  0.5541389735985841  0.6551155383639263  0.2081464028826686
  0.7053304608306755  0.5121479851163058  0.4973793487348609
  0.7134301777102009  0.6199871813162563  0.7235563555915073
  0.4510663098650285  0.9226211784944212  0.0493557198235594
  0.3907381485560857  0.8180872372538940  0.2321873609843078
  0.3973985646879377  0.8940870462851327  0.5703892371418503
  0.3708562400212002  0.8004504935371463  0.7282395107585760
  0.8845631574828122  0.8777735593756563  0.9390373720329795
  0.8130901106525512  0.8516237001510194  0.2498876632628206
  0.0269018897786917  0.8068421061228623  0.5149690338997472
  0.9458841293539233  0.8629132942318964  0.7410323260842557
  0.7727406213886494  0.1539045587501986  0.9070224914602419
  0.8696988002547635  0.0812436318484678  0.2354314248412670
  0.8910236466967006  0.1385619474397091  0.5269888521179658
  0.8744270644181922  0.1111622144590491  0.7299336475453508
  0.2987093607259658  0.1046176530095852  0.9944800439613989
  0.3269103384189690  0.0894523394351487  0.1841317686957470
  0.4234903344150059  0.1294745114686125  0.5067221816807163
  0.3279831898294538  0.0854556944083378  0.6761245270618186
  0.1175663961580498  0.4152244655663726  0.9585508490759357
  0.1839684488140959  0.3548727516940069  0.2794557521486691
  0.2210144954651569  0.4008363949008544  0.4516947694282114
  0.2049626910076271  0.4373388953699951  0.7743711526693646
  0.8419312876363505  0.5962249688236415  0.0220327745757928
  0.8206549947617346  0.6041265516583267  0.1862446952825171
  0.9238712549487917  0.5411331052558428  0.5309981225418586
  0.8342389402581303  0.7310956872670483  0.6213444572486286
  0.6508910104181715  0.3844975634961410  0.0399621795849486
  0.5917041572781558  0.3804701443532059  0.2012689467514317
  0.6047995513607737  0.2678656086515061  0.4636577119030815
  0.6696439956296804  0.4363467486213556  0.8161592980461448
  0.3641852698329446  0.7036515011508334  0.9968145407835372
  0.3180924668175145  0.5852162383353786  0.2030066813869217
  0.3349529730325344  0.6581728970643832  0.5203436850027640
  0.4429877471323279  0.5606899675870758  0.6771768484748543
  0.1708496357838666  0.9260099966048294  0.0019524548714367
  0.1301784617945857  0.9144809642413290  0.2967730096902111
  0.2021936467118196  0.9352752717852446  0.4768187189083507
  0.1771602515077984  0.9669627577557738  0.7747561867309969
  0.6397921172261322  0.9104177889390878  0.9504277698719180
  0.6030342072570918  0.8202614995175379  0.3171598102391034
  0.6535056395353891  0.9203111230109846  0.4708215349555281
  0.7249369257600299  0.9323633374336220  0.7707120957093269
  0.9616353468813028  0.9616096894425928  0.1070426159419889
  0.9182598572574454  0.9696343829938200  0.3970971057606043
  0.0691886480033783  0.0363554294582591  0.6041135688340776
  0.0418771473627163  0.0528339225659202  0.8902591987057799
  0.6138731095529447  0.9495757054386267  0.1750920123637789
  0.4164877091381306  0.0194547989697775  0.3469664334787695
  0.5411932767503709  0.0216123686704590  0.6894213155815586
  0.3744843830992544  0.9186411143161216  0.8716729887664170
  0.1554467642693566  0.2964870735865958  0.1265170511572712
  0.3195250356906701  0.2134164180654425  0.3803560576522759
  0.1982293568664833  0.2966024403401955  0.5984098941105815
  0.2264290130723290  0.2459583194668908  0.8829804928594370
  0.0297437891124174  0.4712287709399729  0.1565478833663435
  0.9213656121245664  0.5527438376690161  0.3597680795402254
  0.1540708177314710  0.5244010555900653  0.6329126149420468
  0.9695836092270144  0.5649976730902594  0.8604464167367766
  0.7325992425115504  0.0922856790617433  0.0687232320236827
  0.7973591446731526  0.3001505728715234  0.3820776391050816
  0.6661708336345508  0.2109921291331582  0.7341980893696208
  0.9141340442137416  0.3310429813095728  0.8445541476768296
  0.4840871842363333  0.5358636405189258  0.0819122601244672
  0.4433086718947601  0.5477100542518133  0.3482253035279205
  0.6587466803252895  0.4315609664342001  0.6392007323346272
  0.4261559918574818  0.5084333061201790  0.8626474193017198
  0.2489207774556361  0.7969366707255833  0.1208477133586124
  0.2826887448377375  0.7206164286393855  0.3569718926819991
  0.1828234199605678  0.8144752980776339  0.6330884921430285
  0.1511030904917701  0.7647335291447216  0.8749861209400145
  0.7762986303799875  0.7989998542556770  0.0945339757383773
  0.8035894315399305  0.7431558134463330  0.4342731499723768
  0.5915975725594361  0.7570468607618099  0.6020713606589266
  0.8008084953760652  0.7138321417733662  0.8544200080873738
  0.9987700465785170  0.0051708363420917  0.9994546632760659
  0.0010634979485924  0.0045284863340424  0.2712045615163742
  0.0190578389280373  0.9899281754735497  0.4907665970245370
  0.0205145971834692  0.0257424663277804  0.7437510920744771
  0.5827483443555582  0.0217886031618147  0.0482000758900868
  0.5038218697594136  0.9620641321587943  0.2603040581673022
  0.5310021233517302  0.9872246544170457  0.5525514299293048
  0.4095992091282350  0.9750369902575395  0.7620236406086947
  0.2122632702800644  0.2540865003962742  0.0165958174858122
  0.2592845387247084  0.2194260696442197  0.2357680436788327
  0.2972439313038207  0.2488535230413214  0.5037030387160908
  0.2594743365813500  0.2256099501162389  0.7490656812649028
  0.9759445344499856  0.5048938434691337  0.9803283120327484
  0.9666860204438235  0.5319922407568096  0.2523978824853075
  0.0906836304780998  0.4675932999159408  0.5295292981336716
  0.0546531728303256  0.4943213590940388  0.7491426394377048
  0.7254431689150437  0.2569123785826338  0.9911630951268784
  0.7289178028063863  0.2583485000247207  0.2610769731074427
  0.7524776103726925  0.1971746751647810  0.4824639094257672
  0.7923757545796702  0.2711784412287640  0.7873191605552996
  0.4717083945369427  0.5422498119324142  0.9689014756366908
  0.4632142169840227  0.4806154854654885  0.2383962940468211
  0.5676939938385679  0.4391671519355638  0.5281469633351926
  0.5611464147334740  0.4976757353819058  0.7413842036612932
  0.1966257522677232  0.7490674505586759  0.0018202764363623
  0.2184863164972407  0.7526134127919545  0.2442643540263232
  0.2101971835883791  0.7668289681566068  0.4944546015805579
  0.2055745767265094  0.7784024162463078  0.7571669925796569
  0.7515995271067780  0.7566532643267375  0.9737840676395032
  0.6974506702300387  0.7403873254743709  0.2150823314066710
  0.7020643572019509  0.7527467471084774  0.5210203861928786
  0.7624464610280293  0.7820708877990230  0.7315319597589781
  0.9818768912561964  0.2995361414138026  0.1118999937296933
  0.1238256295418071  0.2769827951406136  0.3841605251844395
  0.0476250485913963  0.2103359894744718  0.5612926021181535
  0.0481421990816877  0.2315385320186638  0.8846229982588014
  0.4921510656138985  0.3417915789837645  0.0867499393943834
  0.4881937603815003  0.1689888729467409  0.3937381161137724
  0.4977416759838325  0.1900918785656720  0.7049248665445984
  0.4120476077438847  0.1965151764835698  0.9283398593022457
  0.2118199891028665  0.4494847300275625  0.1768255588299677
  0.2933406603786313  0.5575291324213182  0.4166224397795397
  0.3080214735177678  0.4462100953007858  0.6506794685719139
  0.2695009532431729  0.4176105979158368  0.8866341014452477
  0.9323861352094179  0.7084829870042361  0.1158839038827889
  0.9608243562388029  0.6716868828409248  0.4520100773598534
  0.0074206011823439  0.7725382231957348  0.6377381462917922
  0.9763396848418719  0.7491321425031746  0.8498671358313192
  0.7675681854046407  0.4733787396074935  0.1085270424628052
  0.8569206297678112  0.4390269761477682  0.4415192673671708
  0.8004333509512247  0.5438197669050373  0.6219118658739929
  0.8079976392038966  0.5474617066340250  0.8154423737673374
  0.4077116725785797  0.7006027406256363  0.1296387186511136
  0.4581203027945897  0.7160094197549566  0.3185167285507801
  0.4184885914058799  0.7278141517330980  0.6188929580586299
  0.4797787722035191  0.8245231798640934  0.9470042527563329
  0.2938203087067483  0.9769612530184874  0.0865569354696368
  0.2403179215879639  0.0448631402856682  0.3799869269861670
  0.2429752864638473  0.9760874201047048  0.6001462516138271
  0.2228290013601766  0.0030092297617477  0.8990454687866536
  0.7987925568113469  0.9659142412198026  0.1512583356652188
  0.7570028269541632  0.8867041997934328  0.3685495280516724
  0.7174411248733502  0.0575513286196861  0.6872003423113927
  0.7660488083910287  0.9802123888534575  0.8842344655382489
 
  0.00000000E+00  0.00000000E+00  0.00000000E+00
  0.00000000E+00  0.00000000E+00  0.00000000E+00
  0.00000000E+00  0.00000000E+00  0.00000000E+00
  0.00000000E+00  0.00000000E+00  0.00000000E+00
  0.00000000E+00  0.00000000E+00  0.00000000E+00
  0.00000000E+00  0.00000000E+00  0.00000000E+00
  0.00000000E+00  0.00000000E+00  0.00000000E+00
  0.00000000E+00  0.00000000E+00  0.00000000E+00
  0.00000000E+00  0.00000000E+00  0.00000000E+00
  0.00000000E+00  0.00000000E+00  0.00000000E+00
  0.00000000E+00  0.00000000E+00  0.00000000E+00
  0.00000000E+00  0.00000000E+00  0.00000000E+00
  0.00000000E+00  0.00000000E+00  0.00000000E+00
  0.00000000E+00  0.00000000E+00  0.00000000E+00
  0.00000000E+00  0.00000000E+00  0.00000000E+00
  0.00000000E+00  0.00000000E+00  0.00000000E+00
  0.00000000E+00  0.00000000E+00  0.00000000E+00
  0.00000000E+00  0.00000000E+00  0.00000000E+00
  0.00000000E+00  0.00000000E+00  0.00000000E+00
  0.00000000E+00  0.00000000E+00  0.00000000E+00
  0.00000000E+00  0.00000000E+00  0.00000000E+00
  0.00000000E+00  0.00000000E+00  0.00000000E+00
  0.00000000E+00  0.00000000E+00  0.00000000E+00
  0.00000000E+00  0.00000000E+00  0.00000000E+00
  0.00000000E+00  0.00000000E+00  0.00000000E+00
  0.00000000E+00  0.00000000E+00  0.00000000E+00
  0.00000000E+00  0.00000000E+00  0.00000000E+00
  0.00000000E+00  0.00000000E+00  0.00000000E+00
  0.00000000E+00  0.00000000E+00  0.00000000E+00
  0.00000000E+00  0.00000000E+00  0.00000000E+00
  0.00000000E+00  0.00000000E+00  0.00000000E+00
  0.00000000E+00  0.00000000E+00  0.00000000E+00
  0.00000000E+00  0.00000000E+00  0.00000000E+00
  0.00000000E+00  0.00000000E+00  0.00000000E+00
  0.00000000E+00  0.00000000E+00  0.00000000E+00
  0.00000000E+00  0.00000000E+00  0.00000000E+00
  0.00000000E+00  0.00000000E+00  0.00000000E+00
  0.00000000E+00  0.00000000E+00  0.00000000E+00
  0.00000000E+00  0.00000000E+00  0.00000000E+00
  0.00000000E+00  0.00000000E+00  0.00000000E+00
  0.00000000E+00  0.00000000E+00  0.00000000E+00
  0.00000000E+00  0.00000000E+00  0.00000000E+00
  0.00000000E+00  0.00000000E+00  0.00000000E+00
  0.00000000E+00  0.00000000E+00  0.00000000E+00
  0.00000000E+00  0.00000000E+00  0.00000000E+00
  0.00000000E+00  0.00000000E+00  0.00000000E+00
  0.00000000E+00  0.00000000E+00  0.00000000E+00
  0.00000000E+00  0.00000000E+00  0.00000000E+00
  0.00000000E+00  0.00000000E+00  0.00000000E+00
  0.00000000E+00  0.00000000E+00  0.00000000E+00
  0.00000000E+00  0.00000000E+00  0.00000000E+00
  0.00000000E+00  0.00000000E+00  0.00000000E+00
  0.00000000E+00  0.00000000E+00  0.00000000E+00
  0.00000000E+00  0.00000000E+00  0.00000000E+00
  0.00000000E+00  0.00000000E+00  0.00000000E+00
  0.00000000E+00  0.00000000E+00  0.00000000E+00
  0.00000000E+00  0.00000000E+00  0.00000000E+00
  0.00000000E+00  0.00000000E+00  0.00000000E+00
  0.00000000E+00  0.00000000E+00  0.00000000E+00
  0.00000000E+00  0.00000000E+00  0.00000000E+00
  0.00000000E+00  0.00000000E+00  0.00000000E+00
  0.00000000E+00  0.00000000E+00  0.00000000E+00
  0.00000000E+00  0.00000000E+00  0.00000000E+00
  0.00000000E+00  0.00000000E+00  0.00000000E+00
  0.00000000E+00  0.00000000E+00  0.00000000E+00
  0.00000000E+00  0.00000000E+00  0.00000000E+00
  0.00000000E+00  0.00000000E+00  0.00000000E+00
  0.00000000E+00  0.00000000E+00  0.00000000E+00
  0.00000000E+00  0.00000000E+00  0.00000000E+00
  0.00000000E+00  0.00000000E+00  0.00000000E+00
  0.00000000E+00  0.00000000E+00  0.00000000E+00
  0.00000000E+00  0.00000000E+00  0.00000000E+00
  0.00000000E+00  0.00000000E+00  0.00000000E+00
  0.00000000E+00  0.00000000E+00  0.00000000E+00
  0.00000000E+00  0.00000000E+00  0.00000000E+00
  0.00000000E+00  0.00000000E+00  0.00000000E+00
  0.00000000E+00  0.00000000E+00  0.00000000E+00
  0.00000000E+00  0.00000000E+00  0.00000000E+00
  0.00000000E+00  0.00000000E+00  0.00000000E+00
  0.00000000E+00  0.00000000E+00  0.00000000E+00
  0.00000000E+00  0.00000000E+00  0.00000000E+00
  0.00000000E+00  0.00000000E+00  0.00000000E+00
  0.00000000E+00  0.00000000E+00  0.00000000E+00
  0.00000000E+00  0.00000000E+00  0.00000000E+00
  0.00000000E+00  0.00000000E+00  0.00000000E+00
  0.00000000E+00  0.00000000E+00  0.00000000E+00
  0.00000000E+00  0.00000000E+00  0.00000000E+00
  0.00000000E+00  0.00000000E+00  0.00000000E+00
  0.00000000E+00  0.00000000E+00  0.00000000E+00
  0.00000000E+00  0.00000000E+00  0.00000000E+00
  0.00000000E+00  0.00000000E+00  0.00000000E+00
  0.00000000E+00  0.00000000E+00  0.00000000E+00
  0.00000000E+00  0.00000000E+00  0.00000000E+00
  0.00000000E+00  0.00000000E+00  0.00000000E+00
  0.00000000E+00  0.00000000E+00  0.00000000E+00
  0.00000000E+00  0.00000000E+00  0.00000000E+00
  0.00000000E+00  0.00000000E+00  0.00000000E+00
  0.00000000E+00  0.00000000E+00  0.00000000E+00
  0.00000000E+00  0.00000000E+00  0.00000000E+00
  0.00000000E+00  0.00000000E+00  0.00000000E+00
  0.00000000E+00  0.00000000E+00  0.00000000E+00
  0.00000000E+00  0.00000000E+00  0.00000000E+00
  0.00000000E+00  0.00000000E+00  0.00000000E+00
  0.00000000E+00  0.00000000E+00  0.00000000E+00
  0.00000000E+00  0.00000000E+00  0.00000000E+00
  0.00000000E+00  0.00000000E+00  0.00000000E+00
  0.00000000E+00  0.00000000E+00  0.00000000E+00
  0.00000000E+00  0.00000000E+00  0.00000000E+00
  0.00000000E+00  0.00000000E+00  0.00000000E+00
  0.00000000E+00  0.00000000E+00  0.00000000E+00
  0.00000000E+00  0.00000000E+00  0.00000000E+00
  0.00000000E+00  0.00000000E+00  0.00000000E+00
  0.00000000E+00  0.00000000E+00  0.00000000E+00
  0.00000000E+00  0.00000000E+00  0.00000000E+00
  0.00000000E+00  0.00000000E+00  0.00000000E+00
  0.00000000E+00  0.00000000E+00  0.00000000E+00
  0.00000000E+00  0.00000000E+00  0.00000000E+00
  0.00000000E+00  0.00000000E+00  0.00000000E+00
  0.00000000E+00  0.00000000E+00  0.00000000E+00
  0.00000000E+00  0.00000000E+00  0.00000000E+00
  0.00000000E+00  0.00000000E+00  0.00000000E+00
  0.00000000E+00  0.00000000E+00  0.00000000E+00
  0.00000000E+00  0.00000000E+00  0.00000000E+00
  0.00000000E+00  0.00000000E+00  0.00000000E+00
  0.00000000E+00  0.00000000E+00  0.00000000E+00
  0.00000000E+00  0.00000000E+00  0.00000000E+00
  0.00000000E+00  0.00000000E+00  0.00000000E+00
  0.00000000E+00  0.00000000E+00  0.00000000E+00
  0.00000000E+00  0.00000000E+00  0.00000000E+00
  0.00000000E+00  0.00000000E+00  0.00000000E+00
  0.00000000E+00  0.00000000E+00  0.00000000E+00
  0.00000000E+00  0.00000000E+00  0.00000000E+00
  0.00000000E+00  0.00000000E+00  0.00000000E+00
  0.00000000E+00  0.00000000E+00  0.00000000E+00
  0.00000000E+00  0.00000000E+00  0.00000000E+00
  0.00000000E+00  0.00000000E+00  0.00000000E+00
  0.00000000E+00  0.00000000E+00  0.00000000E+00
  0.00000000E+00  0.00000000E+00  0.00000000E+00
  0.00000000E+00  0.00000000E+00  0.00000000E+00
  0.00000000E+00  0.00000000E+00  0.00000000E+00
  0.00000000E+00  0.00000000E+00  0.00000000E+00
  0.00000000E+00  0.00000000E+00  0.00000000E+00
  0.00000000E+00  0.00000000E+00  0.00000000E+00
  0.00000000E+00  0.00000000E+00  0.00000000E+00
  0.00000000E+00  0.00000000E+00  0.00000000E+00
  0.00000000E+00  0.00000000E+00  0.00000000E+00
  0.00000000E+00  0.00000000E+00  0.00000000E+00
  0.00000000E+00  0.00000000E+00  0.00000000E+00
  0.00000000E+00  0.00000000E+00  0.00000000E+00
  0.00000000E+00  0.00000000E+00  0.00000000E+00
  0.00000000E+00  0.00000000E+00  0.00000000E+00
  0.00000000E+00  0.00000000E+00  0.00000000E+00
  0.00000000E+00  0.00000000E+00  0.00000000E+00
  0.00000000E+00  0.00000000E+00  0.00000000E+00
  0.00000000E+00  0.00000000E+00  0.00000000E+00
  0.00000000E+00  0.00000000E+00  0.00000000E+00
  0.00000000E+00  0.00000000E+00  0.00000000E+00
  0.00000000E+00  0.00000000E+00  0.00000000E+00
  0.00000000E+00  0.00000000E+00  0.00000000E+00
  0.00000000E+00  0.00000000E+00  0.00000000E+00
