Cs Zn Br                                
   1.00000000000000     
    10.7650220000000001  -10.7650220000000001    0.0000000000000000
    10.7650220000000001   10.7650220000000001    0.0000000000000000
     0.0000000000000000    0.0000000000000000   21.5300450000000012
   Br   Cs   Zn
    96    32    32
Direct
  0.0029628130186796  0.2507952662808988  0.9821085428368231
  0.0031519111382976  0.2625025647305148  0.2471866079756078
  0.0086592089661030  0.2319369159140497  0.5069712655368691
  0.9826935954681714  0.2448067256236473  0.7687397572486661
  0.5197722955725740  0.2743415967429219  0.9834211424519982
  0.4819934909290721  0.2237676725053717  0.2493088156531328
  0.5030475601435754  0.2301184775957089  0.4975341488829813
  0.5038973093456675  0.2624606911110913  0.7651381335544383
  0.2318490619174368  0.5190973543480337  0.0194998628285070
  0.2413866056359342  0.5018702180551105  0.2327822079676913
  0.2555533885124275  0.5010241084973270  0.5189729422694762
  0.2526540525556901  0.5101756831916288  0.7335631026468348
  0.0107560108041917  0.7381919662846362  0.0016021424250494
  0.0034346662692987  0.7708443021340230  0.2722618730016218
  0.0015428132198896  0.7729471706921096  0.4834887171286260
  0.9966986411046788  0.7368449381597857  0.7501315374685449
  0.7222905524749713  0.5004098450156887  0.0061896153702501
  0.7613061861565504  0.4728855450547092  0.2665906593707783
  0.7481721688903689  0.4888609103880359  0.4807827314214274
  0.7509747957372723  0.5154296426083006  0.7478817574015406
  0.5122483648412046  0.7494049421246289  0.0095016027101462
  0.4818635595771168  0.7387681143890862  0.2637099144791479
  0.4985474783501807  0.7379005472133909  0.4828248938602844
  0.5180615219220425  0.7635279590305731  0.7450524391641468
  0.2596586569065448  0.9884809838200840  0.9829891160021454
  0.2615715375990683  0.0248493572713878  0.2458421317443074
  0.2419200219379872  0.0169190895094704  0.5095322007493415
  0.2671354043811556  0.9918708212108180  0.7662482400538386
  0.7639838838899717  0.9802665204129766  0.0237748954954946
  0.7681886554937147  0.9934919228133914  0.2321889448210198
  0.7533071356232717  0.0197214845237045  0.4987126362980497
  0.7521217407562479  0.9938809352090261  0.7502691190317844
  0.1511689449618053  0.1151872049088744  0.1124547194079532
  0.1156424102371856  0.1547762428384212  0.3727988838030670
  0.1037380912405646  0.1327627642818940  0.6569685153353634
  0.1176143204673958  0.1193552598812278  0.8720868025777776
  0.6194109590116428  0.1177432952133073  0.1236527965830698
  0.6252546260405456  0.1049551087913672  0.3651646141861485
  0.6137732728753048  0.1556872433292330  0.6402026052932700
  0.6278548910225191  0.1325801702993714  0.8819201694016946
  0.3671999028559391  0.3800447385448776  0.1189949375413819
  0.3713614032763969  0.3580374353842938  0.3810016944338114
  0.3992035733382779  0.3618127630424181  0.6300176096461062
  0.3755560754487925  0.3897809238467461  0.8793857514808469
  0.1072343917301670  0.6378660962094738  0.1438635705127056
  0.1356786831363311  0.6360427302459047  0.3819263631528858
  0.1072826326023777  0.6455251013242448  0.6121772907078877
  0.0913540916725869  0.6162291856567141  0.8731934560654695
  0.8453837679226530  0.3751464762246541  0.1275073964686133
  0.9051484547899490  0.3675115055711744  0.3868807036439442
  0.8846165659272185  0.3521412379341273  0.6333996649887280
  0.8708481314578425  0.3753615466368591  0.8811708160395018
  0.6264669117672912  0.5986822540883172  0.1537484417087577
  0.6170056094867126  0.6133276356822389  0.3637479659577452
  0.6284802697050474  0.6610338891440209  0.6131145789654547
  0.5992872881432484  0.6393804172687150  0.8772044566721546
  0.3750005271612780  0.9029876696910826  0.1191486261610599
  0.3734274300801481  0.8688605944262379  0.3795065798805235
  0.4007521200109865  0.8687386549944268  0.6159803097671740
  0.4036704781903575  0.8586234255966206  0.8810703596895991
  0.8981886372877882  0.8551881689253377  0.1346416144923406
  0.8614721404260065  0.8980884322538916  0.3723142905435308
  0.8939386439866152  0.8579832136393514  0.6175253855852089
  0.8930637518108802  0.8518038464106085  0.8805309244276078
  0.9000414728204902  0.1376366100498467  0.1159026772032243
  0.8634094488558779  0.1311954129950500  0.3667696548005738
  0.8646615882516183  0.1006058662424583  0.6368991575098017
  0.8686972657507055  0.0900553671747774  0.8941513778083805
  0.3879364064613081  0.1462951875876438  0.1051666838264842
  0.3612328594395377  0.1148744229266482  0.3858892256495175
  0.3587416300051909  0.1125318091841280  0.6453924681181769
  0.3764556189990007  0.1264301446473909  0.8835922809581270
  0.1002715676752878  0.3600497720132458  0.1119148494105271
  0.1435178145155466  0.3943070046903983  0.3772325382382232
  0.1265423085893790  0.3633000012402032  0.6318120781835445
  0.1354693706506308  0.3937080822845885  0.8732456686486790
  0.8728472014289020  0.6198900258293552  0.1365103071090845
  0.8797580419335926  0.6214481734737776  0.3795085428369678
  0.8612697288425685  0.6028553549981405  0.6097749372531533
  0.8452142802638343  0.6194623499184919  0.8830240060182604
  0.6065894158884085  0.3564359439245991  0.1305793662815293
  0.6232204817614720  0.3487427308859456  0.3759448092706554
  0.6397601061637901  0.4016725856060010  0.6181374427338678
  0.6287779886646014  0.4062894497717374  0.8719039593880346
  0.3821896950263165  0.6485896979738622  0.1337646197019506
  0.3656695477382369  0.5973886701822499  0.3760914595297586
  0.3849328253020782  0.6183191113974487  0.6226639780653522
  0.3384556888088066  0.6211091833281532  0.8748166687386772
  0.1370944473756148  0.8734193167951384  0.1320386020214303
  0.1381619832333525  0.9119839448112140  0.3751183872174062
  0.1448018434783526  0.8827891696639590  0.6389424106360034
  0.1458347838056857  0.8527715861553390  0.8700490504440487
  0.6201659348202860  0.8494358855711911  0.1467603766999936
  0.6313419366961912  0.8691773024269952  0.3695657192231738
  0.6435374167937540  0.8994949782276304  0.6222498730794931
  0.6571579622332547  0.8805552501523334  0.8897096683262116
  0.0123871095725696  0.9873506658065623  0.0062465842506374
  0.0093670630999251  0.0114347109840819  0.2467974099722987
  0.9956669087255534  0.0026508719524305  0.4915930211117264
  0.9952689230196418  0.9816869836875340  0.7605446886773112
  0.5070610529991619  0.0004502830255920  0.9992826067987972
  0.4981845624362616  0.9888075158590336  0.2505738581103010
  0.5030850493517898  0.9869698732656599  0.4915443731132662
  0.5042173658511457  0.0045845499714432  0.7569047778047712
  0.2439393732452968  0.2557979720271089  0.9943151307072762
  0.2443126819031596  0.2596523382299163  0.2430863041318457
  0.2445149115865096  0.2523641375366252  0.4979288702572974
  0.2494010281041006  0.2501610681229483  0.7637685054109619
  0.9891690688935044  0.4997903472047731  0.0021939841022040
  0.0004784091581024  0.5021281598161265  0.2565060816497903
  0.0044671211339454  0.4928860793109806  0.5046383246530887
  0.9949077483331639  0.4954319639546432  0.7462366517181891
  0.7517019395206184  0.2449225719317312  0.0042715276086491
  0.7390156021782036  0.2368454386439607  0.2454506633926556
  0.7545838292154474  0.2570049355250976  0.4976741819714446
  0.7431006732553530  0.2665912807991903  0.7570709551989906
  0.4861641119693585  0.5117472141076918  0.9993747319638314
  0.4867680903426706  0.4817281796850336  0.2549173511478967
  0.5056746663565076  0.4950402021602271  0.4947837965179877
  0.5024762660405737  0.5101959096605670  0.7513379697180340
  0.2578102272717687  0.7538937068251774  0.0054968342676049
  0.2464292012176502  0.7554262251051449  0.2571881108145929
  0.2526804739012801  0.7599462245306726  0.5029350919483476
  0.2650422712085440  0.7501107571154418  0.7448242964848728
  0.7612755152297475  0.7455835652501939  0.0100122714719870
  0.7627926523617540  0.7448836034940619  0.2577410377778210
  0.7568433737110418  0.7570292575491047  0.4930519499203865
  0.7599255036344654  0.7545117767997250  0.7488780198780108
  0.9784158991135192  0.2690350160654529  0.1325833938102726
  0.9846172564487455  0.2380650141943854  0.3634097224521692
  0.9692905312757716  0.2242534542694938  0.6129408871253595
  0.9659617355504515  0.2262222022884916  0.8768944641473226
  0.4888946312282351  0.2636492263001916  0.1014895028116763
  0.4934025860714785  0.2684814003094956  0.3534995323206282
  0.4645568977878463  0.2137038226548245  0.6027132881726985
  0.4685274386038738  0.2530745595571233  0.8735612520321008
  0.2745984016422466  0.5168453617798704  0.1252416372997077
  0.2420937057552678  0.5095261598002365  0.3931453104075924
  0.2572048938973056  0.4483506095133329  0.6270623242968179
  0.2476033241899568  0.4980708257147072  0.8574572462588544
  0.0163553996023805  0.7580732482007346  0.1152160400611500
  0.0015875126492155  0.7333084529937363  0.3778653110006177
  0.0105966369301781  0.7610617165617424  0.6382097938448773
  0.0156729178803694  0.7544519875567417  0.8776060987927741
  0.7622142685870195  0.5165503789157732  0.1119937849900104
  0.7464838772223583  0.5163115278492190  0.3719433234159916
  0.7297636231368987  0.5259460398111252  0.6336209645289350
  0.7581121272678633  0.4923367937046734  0.8709305761695356
  0.5313170549405620  0.7200061332768861  0.1168214007489253
  0.5150737373693782  0.7555216969153066  0.3720486041093500
  0.4856143458334586  0.7382873441799793  0.6300659995289772
  0.5299001823525046  0.7749207926581776  0.8627496902180992
  0.2491024985611689  0.9948895913638528  0.1282296783820399
  0.2713628874780605  0.9908435028355583  0.3587118541902402
  0.2060690496610271  0.0260329379646558  0.6147701402313759
  0.2257671319775026  0.0017056408224957  0.8742978224548791
  0.7178454292125922  0.9941383601239336  0.1275808966871842
  0.7444892042106926  0.0029817599968467  0.3747633033645751
  0.7176659014093243  0.0344294484797515  0.6093909775006711
  0.7303413878390319  0.0203397265246754  0.8573357781894160
 
  0.00000000E+00  0.00000000E+00  0.00000000E+00
  0.00000000E+00  0.00000000E+00  0.00000000E+00
  0.00000000E+00  0.00000000E+00  0.00000000E+00
  0.00000000E+00  0.00000000E+00  0.00000000E+00
  0.00000000E+00  0.00000000E+00  0.00000000E+00
  0.00000000E+00  0.00000000E+00  0.00000000E+00
  0.00000000E+00  0.00000000E+00  0.00000000E+00
  0.00000000E+00  0.00000000E+00  0.00000000E+00
  0.00000000E+00  0.00000000E+00  0.00000000E+00
  0.00000000E+00  0.00000000E+00  0.00000000E+00
  0.00000000E+00  0.00000000E+00  0.00000000E+00
  0.00000000E+00  0.00000000E+00  0.00000000E+00
  0.00000000E+00  0.00000000E+00  0.00000000E+00
  0.00000000E+00  0.00000000E+00  0.00000000E+00
  0.00000000E+00  0.00000000E+00  0.00000000E+00
  0.00000000E+00  0.00000000E+00  0.00000000E+00
  0.00000000E+00  0.00000000E+00  0.00000000E+00
  0.00000000E+00  0.00000000E+00  0.00000000E+00
  0.00000000E+00  0.00000000E+00  0.00000000E+00
  0.00000000E+00  0.00000000E+00  0.00000000E+00
  0.00000000E+00  0.00000000E+00  0.00000000E+00
  0.00000000E+00  0.00000000E+00  0.00000000E+00
  0.00000000E+00  0.00000000E+00  0.00000000E+00
  0.00000000E+00  0.00000000E+00  0.00000000E+00
  0.00000000E+00  0.00000000E+00  0.00000000E+00
  0.00000000E+00  0.00000000E+00  0.00000000E+00
  0.00000000E+00  0.00000000E+00  0.00000000E+00
  0.00000000E+00  0.00000000E+00  0.00000000E+00
  0.00000000E+00  0.00000000E+00  0.00000000E+00
  0.00000000E+00  0.00000000E+00  0.00000000E+00
  0.00000000E+00  0.00000000E+00  0.00000000E+00
  0.00000000E+00  0.00000000E+00  0.00000000E+00
  0.00000000E+00  0.00000000E+00  0.00000000E+00
  0.00000000E+00  0.00000000E+00  0.00000000E+00
  0.00000000E+00  0.00000000E+00  0.00000000E+00
  0.00000000E+00  0.00000000E+00  0.00000000E+00
  0.00000000E+00  0.00000000E+00  0.00000000E+00
  0.00000000E+00  0.00000000E+00  0.00000000E+00
  0.00000000E+00  0.00000000E+00  0.00000000E+00
  0.00000000E+00  0.00000000E+00  0.00000000E+00
  0.00000000E+00  0.00000000E+00  0.00000000E+00
  0.00000000E+00  0.00000000E+00  0.00000000E+00
  0.00000000E+00  0.00000000E+00  0.00000000E+00
  0.00000000E+00  0.00000000E+00  0.00000000E+00
  0.00000000E+00  0.00000000E+00  0.00000000E+00
  0.00000000E+00  0.00000000E+00  0.00000000E+00
  0.00000000E+00  0.00000000E+00  0.00000000E+00
  0.00000000E+00  0.00000000E+00  0.00000000E+00
  0.00000000E+00  0.00000000E+00  0.00000000E+00
  0.00000000E+00  0.00000000E+00  0.00000000E+00
  0.00000000E+00  0.00000000E+00  0.00000000E+00
  0.00000000E+00  0.00000000E+00  0.00000000E+00
  0.00000000E+00  0.00000000E+00  0.00000000E+00
  0.00000000E+00  0.00000000E+00  0.00000000E+00
  0.00000000E+00  0.00000000E+00  0.00000000E+00
  0.00000000E+00  0.00000000E+00  0.00000000E+00
  0.00000000E+00  0.00000000E+00  0.00000000E+00
  0.00000000E+00  0.00000000E+00  0.00000000E+00
  0.00000000E+00  0.00000000E+00  0.00000000E+00
  0.00000000E+00  0.00000000E+00  0.00000000E+00
  0.00000000E+00  0.00000000E+00  0.00000000E+00
  0.00000000E+00  0.00000000E+00  0.00000000E+00
  0.00000000E+00  0.00000000E+00  0.00000000E+00
  0.00000000E+00  0.00000000E+00  0.00000000E+00
  0.00000000E+00  0.00000000E+00  0.00000000E+00
  0.00000000E+00  0.00000000E+00  0.00000000E+00
  0.00000000E+00  0.00000000E+00  0.00000000E+00
  0.00000000E+00  0.00000000E+00  0.00000000E+00
  0.00000000E+00  0.00000000E+00  0.00000000E+00
  0.00000000E+00  0.00000000E+00  0.00000000E+00
  0.00000000E+00  0.00000000E+00  0.00000000E+00
  0.00000000E+00  0.00000000E+00  0.00000000E+00
  0.00000000E+00  0.00000000E+00  0.00000000E+00
  0.00000000E+00  0.00000000E+00  0.00000000E+00
  0.00000000E+00  0.00000000E+00  0.00000000E+00
  0.00000000E+00  0.00000000E+00  0.00000000E+00
  0.00000000E+00  0.00000000E+00  0.00000000E+00
  0.00000000E+00  0.00000000E+00  0.00000000E+00
  0.00000000E+00  0.00000000E+00  0.00000000E+00
  0.00000000E+00  0.00000000E+00  0.00000000E+00
  0.00000000E+00  0.00000000E+00  0.00000000E+00
  0.00000000E+00  0.00000000E+00  0.00000000E+00
  0.00000000E+00  0.00000000E+00  0.00000000E+00
  0.00000000E+00  0.00000000E+00  0.00000000E+00
  0.00000000E+00  0.00000000E+00  0.00000000E+00
  0.00000000E+00  0.00000000E+00  0.00000000E+00
  0.00000000E+00  0.00000000E+00  0.00000000E+00
  0.00000000E+00  0.00000000E+00  0.00000000E+00
  0.00000000E+00  0.00000000E+00  0.00000000E+00
  0.00000000E+00  0.00000000E+00  0.00000000E+00
  0.00000000E+00  0.00000000E+00  0.00000000E+00
  0.00000000E+00  0.00000000E+00  0.00000000E+00
  0.00000000E+00  0.00000000E+00  0.00000000E+00
  0.00000000E+00  0.00000000E+00  0.00000000E+00
  0.00000000E+00  0.00000000E+00  0.00000000E+00
  0.00000000E+00  0.00000000E+00  0.00000000E+00
  0.00000000E+00  0.00000000E+00  0.00000000E+00
  0.00000000E+00  0.00000000E+00  0.00000000E+00
  0.00000000E+00  0.00000000E+00  0.00000000E+00
  0.00000000E+00  0.00000000E+00  0.00000000E+00
  0.00000000E+00  0.00000000E+00  0.00000000E+00
  0.00000000E+00  0.00000000E+00  0.00000000E+00
  0.00000000E+00  0.00000000E+00  0.00000000E+00
  0.00000000E+00  0.00000000E+00  0.00000000E+00
  0.00000000E+00  0.00000000E+00  0.00000000E+00
  0.00000000E+00  0.00000000E+00  0.00000000E+00
  0.00000000E+00  0.00000000E+00  0.00000000E+00
  0.00000000E+00  0.00000000E+00  0.00000000E+00
  0.00000000E+00  0.00000000E+00  0.00000000E+00
  0.00000000E+00  0.00000000E+00  0.00000000E+00
  0.00000000E+00  0.00000000E+00  0.00000000E+00
  0.00000000E+00  0.00000000E+00  0.00000000E+00
  0.00000000E+00  0.00000000E+00  0.00000000E+00
  0.00000000E+00  0.00000000E+00  0.00000000E+00
  0.00000000E+00  0.00000000E+00  0.00000000E+00
  0.00000000E+00  0.00000000E+00  0.00000000E+00
  0.00000000E+00  0.00000000E+00  0.00000000E+00
  0.00000000E+00  0.00000000E+00  0.00000000E+00
  0.00000000E+00  0.00000000E+00  0.00000000E+00
  0.00000000E+00  0.00000000E+00  0.00000000E+00
  0.00000000E+00  0.00000000E+00  0.00000000E+00
  0.00000000E+00  0.00000000E+00  0.00000000E+00
  0.00000000E+00  0.00000000E+00  0.00000000E+00
  0.00000000E+00  0.00000000E+00  0.00000000E+00
  0.00000000E+00  0.00000000E+00  0.00000000E+00
  0.00000000E+00  0.00000000E+00  0.00000000E+00
  0.00000000E+00  0.00000000E+00  0.00000000E+00
  0.00000000E+00  0.00000000E+00  0.00000000E+00
  0.00000000E+00  0.00000000E+00  0.00000000E+00
  0.00000000E+00  0.00000000E+00  0.00000000E+00
  0.00000000E+00  0.00000000E+00  0.00000000E+00
  0.00000000E+00  0.00000000E+00  0.00000000E+00
  0.00000000E+00  0.00000000E+00  0.00000000E+00
  0.00000000E+00  0.00000000E+00  0.00000000E+00
  0.00000000E+00  0.00000000E+00  0.00000000E+00
  0.00000000E+00  0.00000000E+00  0.00000000E+00
  0.00000000E+00  0.00000000E+00  0.00000000E+00
  0.00000000E+00  0.00000000E+00  0.00000000E+00
  0.00000000E+00  0.00000000E+00  0.00000000E+00
  0.00000000E+00  0.00000000E+00  0.00000000E+00
  0.00000000E+00  0.00000000E+00  0.00000000E+00
  0.00000000E+00  0.00000000E+00  0.00000000E+00
  0.00000000E+00  0.00000000E+00  0.00000000E+00
  0.00000000E+00  0.00000000E+00  0.00000000E+00
  0.00000000E+00  0.00000000E+00  0.00000000E+00
  0.00000000E+00  0.00000000E+00  0.00000000E+00
  0.00000000E+00  0.00000000E+00  0.00000000E+00
  0.00000000E+00  0.00000000E+00  0.00000000E+00
  0.00000000E+00  0.00000000E+00  0.00000000E+00
  0.00000000E+00  0.00000000E+00  0.00000000E+00
  0.00000000E+00  0.00000000E+00  0.00000000E+00
  0.00000000E+00  0.00000000E+00  0.00000000E+00
  0.00000000E+00  0.00000000E+00  0.00000000E+00
  0.00000000E+00  0.00000000E+00  0.00000000E+00
  0.00000000E+00  0.00000000E+00  0.00000000E+00
  0.00000000E+00  0.00000000E+00  0.00000000E+00
  0.00000000E+00  0.00000000E+00  0.00000000E+00
  0.00000000E+00  0.00000000E+00  0.00000000E+00
  0.00000000E+00  0.00000000E+00  0.00000000E+00
  0.00000000E+00  0.00000000E+00  0.00000000E+00
