Cs Pb Br                                
   1.00000000000000     
    11.9790440000000000  -11.9790440000000000    0.0000000000000000
    11.9790440000000000   11.9790440000000000    0.0000000000000000
     0.0000000000000000    0.0000000000000000   23.9580880000000001
   Br   Cs   Pb
    96    32    32
Direct
  0.0140263021700773  0.2126855631551299  0.9998120785601131
  0.9966059180036239  0.2869235268542528  0.2496799263111430
  0.9978505574052394  0.2130186907638578  0.4999247025499736
  0.9967779776956320  0.2870685291536287  0.7501682602812382
  0.4703960226428278  0.2464870003796276 -0.0000913959447021
  0.5378458719314065  0.2509053410592429  0.2506187845155116
  0.4610181481341651  0.2593515308417936  0.5000092317993504
  0.5374531265658935  0.2512198904308996  0.7492888643267643
  0.2843139967911871  0.4932507925534587  0.9998689296597740
  0.2127124816158366  0.5031679422900813  0.2499736815197322
  0.2876851738838977  0.5024836749744409  0.4998312713927549
  0.2130353272457462  0.5023676127442395  0.7498381892260190
  0.9631528480860678  0.7455551474022517  0.9997840328976522
  0.0352225622975941  0.7457922231638868  0.2499369497853029
  0.9641544000801074  0.7561598230002687  0.4996938466285726
  0.0368120682340958  0.7469459189318247  0.7496417312685983
  0.7490070473571784  0.5322285450000551 -0.0000431383424532
  0.7512798975841168  0.4612414484215225  0.2501933217156338
  0.7432308413286540  0.5377578582106783  0.4999654015552004
  0.7515945713934749  0.4620719867641288  0.7497241408134095
  0.5060457783574160  0.7123731148485426  0.9997821356249180
  0.4983240700873259  0.7880139820071811  0.2495649759544732
  0.4976461111060655  0.7172231259847807  0.4999145248740543
  0.4983257762751612  0.7878760046199941  0.7502416821754232
  0.2479562374551795  0.0367833395246680 -0.0000841074804684
  0.2521307632690636  0.9626789640220755  0.2502347648977920
  0.2393491900459969  0.0380655283460425  0.4999089333751686
  0.2514723752683957  0.9625001398451860  0.7494884033868841
  0.7883845648579176  0.9901271969130627 -0.0002383610186386
  0.7124780222332903  0.9985321221727316  0.2492411465602452
  0.7811677934664607  0.0009725953649441  0.4998219663867973
  0.7123593216320838  0.9984636287707361  0.7503222389967474
  0.1418391844745133  0.1383717919643020  0.1476413049868030
  0.1061066992031697  0.1104513040152485  0.3550472228238596
  0.1079288633944005  0.1126842834774697  0.6463389408952364
  0.1447415721166879  0.1418350497456642  0.8542708118435572
  0.6433864870179432  0.1390131451863731  0.1096141662327396
  0.6059312764720708  0.1103168147811245  0.3915554202043148
  0.6078902560677159  0.1111572125344949  0.6081944571634801
  0.6447646248229478  0.1404830346555581  0.8898790871368411
  0.3603472335511706  0.3568103824243536  0.1451187328177160
  0.3894502463778551  0.3941113950974069  0.3541411798678010
  0.3899168124870924  0.3938425001721861  0.6455263854376143
  0.3579574701379162  0.3541258699762339  0.8564647750698819
  0.1432938232450184  0.6391866811564239  0.1067733268017444
  0.1064044672299819  0.6107738489999015  0.3934409592252706
  0.1075210798228647  0.6108854249097254  0.6057726839034026
  0.1445735659433929  0.6405599400259886  0.8920534391854783
  0.8582199399622746  0.3545275062711238  0.1057921774445803
  0.8875015216494829  0.3927739372147111  0.3936107135787598
  0.8875091550606663  0.3923625508323748  0.6063822590794395
  0.8582887684516073  0.3548113014059311  0.8934511875044654
  0.6435209924067097  0.6396918252080461  0.1457505828157560
  0.6055490498226369  0.6101196907014541  0.3539498556989707
  0.6060372125722163  0.6104649857555108  0.6455473850605213
  0.6434715394971855  0.6400872065549363  0.8542070355854772
  0.3606251826946590  0.8569371854554392  0.1065980023440597
  0.3908291863353944  0.8950102758286281  0.3925541868376619
  0.3902870874583382  0.8945069300693469  0.6071091932979398
  0.3589408143721967  0.8559295095373003  0.8928766831344989
  0.8571407948509649  0.8521181772036789  0.1439769858360768
  0.8898744253817960  0.8937500719751851  0.3552645845310685
  0.8865663043617132  0.8885523543946192  0.6458824985187630
  0.8567874837476244  0.8519530869384920  0.8559818159318427
  0.8938286174021038  0.1049404658174088  0.1432972245045675
  0.8484228855862911  0.1511064483886571  0.3621102441935123
  0.8505803739602019  0.1490855956905453  0.6378764739848108
  0.8936791574752538  0.1049756354521239  0.8549297540923251
  0.3998442148675361  0.0981698698450678  0.1378110971977141
  0.3562147769358741  0.1438869063923292  0.3556125953867664
  0.3577874538192334  0.1426762129665943  0.6451572346102273
  0.4016506797979326  0.0963732332045140  0.8623781176570988
  0.1132510967160903  0.3857317334716872  0.1038768645549921
  0.1374937560727855  0.3627143438060982  0.3872461873146577
  0.1375383420782214  0.3629673201904984  0.6124100407374622
  0.1123194698551066  0.3866440503612347  0.8958938950878593
  0.9025982618791513  0.5952287786129083  0.1378103565676381
  0.8582189379615748  0.6407908434212827  0.3597475034638698
  0.8602159259043026  0.6392038960311930  0.6405173752302197
  0.9028584135282895  0.5956420669433762  0.8622135561405255
  0.6105298336760903  0.3880667806195203  0.1105752366395576
  0.6348476498954827  0.3638723364583438  0.3995862178779105
  0.6360528297704662  0.3632721571950433  0.6026713964873013
  0.6096195267245661  0.3890362125923409  0.8888319362950808
  0.3907367500503379  0.6092303039908595  0.1396143822141086
  0.3462073784881905  0.6536895351608567  0.3618063532664846
  0.3463754464056996  0.6535179224466828  0.6382165251100644
  0.3912876640109959  0.6083755434189799  0.8595708456652367
  0.1089654133279324  0.8884439034258075  0.1139312546234300
  0.1366967644119428  0.8636818755365059  0.3959403001233232
  0.1333522403936545  0.8672358957229568  0.6020632577532231
  0.1079404388181655  0.8902341895891611  0.8862482497386144
  0.6131675923748451  0.8867066560158590  0.1001841335713866
  0.6377178915915812  0.8616746525494798  0.3894935511259348
  0.6369857781474156  0.8620337258138089  0.6098964086395421
  0.6121466757920355  0.8877005153153176  0.8986240813030208
  0.0057739724319531  0.9953943062341700  0.0005699864993568
  0.0177650769879731  0.9825478963394604  0.2416759258368276
  0.0117560043018550  0.9881769691003666  0.4962563534412345
  0.0175240232280070  0.9821939248111100  0.7570957522343069
  0.4831193340159442  0.0073978109674004  0.0002612439734665
  0.4895767437369344  0.0105517190930756  0.2666913579558918
  0.5172972330414102  0.9852651668154975  0.5001816141397217
  0.4908053850238419  0.0095666932921252  0.7331547105637934
  0.2386606783477141  0.2627750410390549  0.9968687857447455
  0.2316388925234731  0.2680782525028361  0.2587915530854153
  0.2432652519275085  0.2557007121319820  0.4997704955903314
  0.2319831304161080  0.2680629463368880  0.7404923553486591
  0.9880545771771989  0.5076178236763625  0.0000739014278680
  0.9905993873457908  0.5083454490097123  0.2683938514801681
  0.9746577846819015  0.5241355050440415  0.5000960922279248
  0.9914519054018883  0.5080399338473524  0.7322928844621881
  0.7268161038746549  0.2672247859179592 -0.0000840260131672
  0.7604891993111375  0.2389210966148366  0.2325900364439963
  0.7623131612521115  0.2394358201261066  0.5004151300185555
  0.7605703126916366  0.2392247969987127  0.7663752372229544
  0.5018568507241766  0.4951532717139527  0.0000434643192983
  0.5151257941955512  0.4836416284112166  0.2391622102744589
  0.5124784321030763  0.4878787655188728  0.5008080578742228
  0.5165976426932095  0.4832817572889399  0.7597646856415085
  0.2748471956153831  0.7246060553138591  0.0002080188193376
  0.2576020936702622  0.7412891231801898  0.2318710432283058
  0.2574411088024083  0.7385562022758481  0.5000855757262185
  0.2586254154965205  0.7411491699140577  0.7683003243928030
  0.7380896617462790  0.7627184030259290  0.9991296420619421
  0.7329573296668197  0.7658677594902732  0.2602964459668385
  0.7467469177089950  0.7553704006086491  0.4999525491723349
  0.7335648874417401  0.7650765459644485  0.7389511635599338
  0.0015883175067244  0.2478087918778583  0.1243348038719842
  0.9962168166286638  0.2503035554257323  0.3749685380066822
  0.9970300453276097  0.2500263406085698  0.6250464675646598
  0.0016945547990779  0.2479598510622419  0.8752848964339563
  0.4983588640542293  0.2450745034765467  0.1264534985760071
  0.4979383087794775  0.2526665716228977  0.3756010358095427
  0.4981550509927167  0.2524322443303634  0.6243193552395097
  0.4984678027075857  0.2447226812805534  0.8732734389655760
  0.2488319898559499  0.4968462767016810  0.1257083413943650
  0.2500390820075050  0.5033395137009056  0.3752156051378787
  0.2501362300509072  0.5033669378060949  0.6243480523592484
  0.2489624173486799  0.4971354821109481  0.8741448796037179
  0.9985292109782469  0.7453304705012257  0.1245722734296913
  0.0000367412993070  0.7527651492482192  0.3742926634416887
  0.0006761512599195  0.7528772976009548  0.6256003080614367
  0.9987423053479003  0.7462139795428429  0.8752468085068766
  0.7534831482922686  0.4999949280113870  0.1256740664042625
  0.7450275005999936  0.4994087316364099  0.3746305873545159
  0.7460362197714906  0.4994113506163014  0.6253875985539282
  0.7535960190903036  0.5001433247008630  0.8742909460350946
  0.5035924257619026  0.7507146603731916  0.1250165960705106
  0.4946540551912427  0.7496205676293262  0.3741727982681071
  0.4947360797138650  0.7494610171836051  0.6254854798726304
  0.5033555732427336  0.7507928164782414  0.8744523496786140
  0.2505407491749488 -0.0001487640165335  0.1253334580605328
  0.2479902846726072  0.0020188501127141  0.3753486690558511
  0.2478548026150127  0.0021414086409143  0.6246514569139265
  0.2506610599039126 -0.0001104813528563  0.8746295914797588
  0.7512550277108039  0.9966836341446041  0.1239707684919054
  0.7500042776255600  0.0036541735162725  0.3735969419997633
  0.7506135332448679  0.0029830782008261  0.6260783312782673
  0.7513563636497723  0.9970846551903578  0.8756201651509707
 
  0.00000000E+00  0.00000000E+00  0.00000000E+00
  0.00000000E+00  0.00000000E+00  0.00000000E+00
  0.00000000E+00  0.00000000E+00  0.00000000E+00
  0.00000000E+00  0.00000000E+00  0.00000000E+00
  0.00000000E+00  0.00000000E+00  0.00000000E+00
  0.00000000E+00  0.00000000E+00  0.00000000E+00
  0.00000000E+00  0.00000000E+00  0.00000000E+00
  0.00000000E+00  0.00000000E+00  0.00000000E+00
  0.00000000E+00  0.00000000E+00  0.00000000E+00
  0.00000000E+00  0.00000000E+00  0.00000000E+00
  0.00000000E+00  0.00000000E+00  0.00000000E+00
  0.00000000E+00  0.00000000E+00  0.00000000E+00
  0.00000000E+00  0.00000000E+00  0.00000000E+00
  0.00000000E+00  0.00000000E+00  0.00000000E+00
  0.00000000E+00  0.00000000E+00  0.00000000E+00
  0.00000000E+00  0.00000000E+00  0.00000000E+00
  0.00000000E+00  0.00000000E+00  0.00000000E+00
  0.00000000E+00  0.00000000E+00  0.00000000E+00
  0.00000000E+00  0.00000000E+00  0.00000000E+00
  0.00000000E+00  0.00000000E+00  0.00000000E+00
  0.00000000E+00  0.00000000E+00  0.00000000E+00
  0.00000000E+00  0.00000000E+00  0.00000000E+00
  0.00000000E+00  0.00000000E+00  0.00000000E+00
  0.00000000E+00  0.00000000E+00  0.00000000E+00
  0.00000000E+00  0.00000000E+00  0.00000000E+00
  0.00000000E+00  0.00000000E+00  0.00000000E+00
  0.00000000E+00  0.00000000E+00  0.00000000E+00
  0.00000000E+00  0.00000000E+00  0.00000000E+00
  0.00000000E+00  0.00000000E+00  0.00000000E+00
  0.00000000E+00  0.00000000E+00  0.00000000E+00
  0.00000000E+00  0.00000000E+00  0.00000000E+00
  0.00000000E+00  0.00000000E+00  0.00000000E+00
  0.00000000E+00  0.00000000E+00  0.00000000E+00
  0.00000000E+00  0.00000000E+00  0.00000000E+00
  0.00000000E+00  0.00000000E+00  0.00000000E+00
  0.00000000E+00  0.00000000E+00  0.00000000E+00
  0.00000000E+00  0.00000000E+00  0.00000000E+00
  0.00000000E+00  0.00000000E+00  0.00000000E+00
  0.00000000E+00  0.00000000E+00  0.00000000E+00
  0.00000000E+00  0.00000000E+00  0.00000000E+00
  0.00000000E+00  0.00000000E+00  0.00000000E+00
  0.00000000E+00  0.00000000E+00  0.00000000E+00
  0.00000000E+00  0.00000000E+00  0.00000000E+00
  0.00000000E+00  0.00000000E+00  0.00000000E+00
  0.00000000E+00  0.00000000E+00  0.00000000E+00
  0.00000000E+00  0.00000000E+00  0.00000000E+00
  0.00000000E+00  0.00000000E+00  0.00000000E+00
  0.00000000E+00  0.00000000E+00  0.00000000E+00
  0.00000000E+00  0.00000000E+00  0.00000000E+00
  0.00000000E+00  0.00000000E+00  0.00000000E+00
  0.00000000E+00  0.00000000E+00  0.00000000E+00
  0.00000000E+00  0.00000000E+00  0.00000000E+00
  0.00000000E+00  0.00000000E+00  0.00000000E+00
  0.00000000E+00  0.00000000E+00  0.00000000E+00
  0.00000000E+00  0.00000000E+00  0.00000000E+00
  0.00000000E+00  0.00000000E+00  0.00000000E+00
  0.00000000E+00  0.00000000E+00  0.00000000E+00
  0.00000000E+00  0.00000000E+00  0.00000000E+00
  0.00000000E+00  0.00000000E+00  0.00000000E+00
  0.00000000E+00  0.00000000E+00  0.00000000E+00
  0.00000000E+00  0.00000000E+00  0.00000000E+00
  0.00000000E+00  0.00000000E+00  0.00000000E+00
  0.00000000E+00  0.00000000E+00  0.00000000E+00
  0.00000000E+00  0.00000000E+00  0.00000000E+00
  0.00000000E+00  0.00000000E+00  0.00000000E+00
  0.00000000E+00  0.00000000E+00  0.00000000E+00
  0.00000000E+00  0.00000000E+00  0.00000000E+00
  0.00000000E+00  0.00000000E+00  0.00000000E+00
  0.00000000E+00  0.00000000E+00  0.00000000E+00
  0.00000000E+00  0.00000000E+00  0.00000000E+00
  0.00000000E+00  0.00000000E+00  0.00000000E+00
  0.00000000E+00  0.00000000E+00  0.00000000E+00
  0.00000000E+00  0.00000000E+00  0.00000000E+00
  0.00000000E+00  0.00000000E+00  0.00000000E+00
  0.00000000E+00  0.00000000E+00  0.00000000E+00
  0.00000000E+00  0.00000000E+00  0.00000000E+00
  0.00000000E+00  0.00000000E+00  0.00000000E+00
  0.00000000E+00  0.00000000E+00  0.00000000E+00
  0.00000000E+00  0.00000000E+00  0.00000000E+00
  0.00000000E+00  0.00000000E+00  0.00000000E+00
  0.00000000E+00  0.00000000E+00  0.00000000E+00
  0.00000000E+00  0.00000000E+00  0.00000000E+00
  0.00000000E+00  0.00000000E+00  0.00000000E+00
  0.00000000E+00  0.00000000E+00  0.00000000E+00
  0.00000000E+00  0.00000000E+00  0.00000000E+00
  0.00000000E+00  0.00000000E+00  0.00000000E+00
  0.00000000E+00  0.00000000E+00  0.00000000E+00
  0.00000000E+00  0.00000000E+00  0.00000000E+00
  0.00000000E+00  0.00000000E+00  0.00000000E+00
  0.00000000E+00  0.00000000E+00  0.00000000E+00
  0.00000000E+00  0.00000000E+00  0.00000000E+00
  0.00000000E+00  0.00000000E+00  0.00000000E+00
  0.00000000E+00  0.00000000E+00  0.00000000E+00
  0.00000000E+00  0.00000000E+00  0.00000000E+00
  0.00000000E+00  0.00000000E+00  0.00000000E+00
  0.00000000E+00  0.00000000E+00  0.00000000E+00
  0.00000000E+00  0.00000000E+00  0.00000000E+00
  0.00000000E+00  0.00000000E+00  0.00000000E+00
  0.00000000E+00  0.00000000E+00  0.00000000E+00
  0.00000000E+00  0.00000000E+00  0.00000000E+00
  0.00000000E+00  0.00000000E+00  0.00000000E+00
  0.00000000E+00  0.00000000E+00  0.00000000E+00
  0.00000000E+00  0.00000000E+00  0.00000000E+00
  0.00000000E+00  0.00000000E+00  0.00000000E+00
  0.00000000E+00  0.00000000E+00  0.00000000E+00
  0.00000000E+00  0.00000000E+00  0.00000000E+00
  0.00000000E+00  0.00000000E+00  0.00000000E+00
  0.00000000E+00  0.00000000E+00  0.00000000E+00
  0.00000000E+00  0.00000000E+00  0.00000000E+00
  0.00000000E+00  0.00000000E+00  0.00000000E+00
  0.00000000E+00  0.00000000E+00  0.00000000E+00
  0.00000000E+00  0.00000000E+00  0.00000000E+00
  0.00000000E+00  0.00000000E+00  0.00000000E+00
  0.00000000E+00  0.00000000E+00  0.00000000E+00
  0.00000000E+00  0.00000000E+00  0.00000000E+00
  0.00000000E+00  0.00000000E+00  0.00000000E+00
  0.00000000E+00  0.00000000E+00  0.00000000E+00
  0.00000000E+00  0.00000000E+00  0.00000000E+00
  0.00000000E+00  0.00000000E+00  0.00000000E+00
  0.00000000E+00  0.00000000E+00  0.00000000E+00
  0.00000000E+00  0.00000000E+00  0.00000000E+00
  0.00000000E+00  0.00000000E+00  0.00000000E+00
  0.00000000E+00  0.00000000E+00  0.00000000E+00
  0.00000000E+00  0.00000000E+00  0.00000000E+00
  0.00000000E+00  0.00000000E+00  0.00000000E+00
  0.00000000E+00  0.00000000E+00  0.00000000E+00
  0.00000000E+00  0.00000000E+00  0.00000000E+00
  0.00000000E+00  0.00000000E+00  0.00000000E+00
  0.00000000E+00  0.00000000E+00  0.00000000E+00
  0.00000000E+00  0.00000000E+00  0.00000000E+00
  0.00000000E+00  0.00000000E+00  0.00000000E+00
  0.00000000E+00  0.00000000E+00  0.00000000E+00
  0.00000000E+00  0.00000000E+00  0.00000000E+00
  0.00000000E+00  0.00000000E+00  0.00000000E+00
  0.00000000E+00  0.00000000E+00  0.00000000E+00
  0.00000000E+00  0.00000000E+00  0.00000000E+00
  0.00000000E+00  0.00000000E+00  0.00000000E+00
  0.00000000E+00  0.00000000E+00  0.00000000E+00
  0.00000000E+00  0.00000000E+00  0.00000000E+00
  0.00000000E+00  0.00000000E+00  0.00000000E+00
  0.00000000E+00  0.00000000E+00  0.00000000E+00
  0.00000000E+00  0.00000000E+00  0.00000000E+00
  0.00000000E+00  0.00000000E+00  0.00000000E+00
  0.00000000E+00  0.00000000E+00  0.00000000E+00
  0.00000000E+00  0.00000000E+00  0.00000000E+00
  0.00000000E+00  0.00000000E+00  0.00000000E+00
  0.00000000E+00  0.00000000E+00  0.00000000E+00
  0.00000000E+00  0.00000000E+00  0.00000000E+00
  0.00000000E+00  0.00000000E+00  0.00000000E+00
  0.00000000E+00  0.00000000E+00  0.00000000E+00
  0.00000000E+00  0.00000000E+00  0.00000000E+00
  0.00000000E+00  0.00000000E+00  0.00000000E+00
  0.00000000E+00  0.00000000E+00  0.00000000E+00
  0.00000000E+00  0.00000000E+00  0.00000000E+00
  0.00000000E+00  0.00000000E+00  0.00000000E+00
  0.00000000E+00  0.00000000E+00  0.00000000E+00
  0.00000000E+00  0.00000000E+00  0.00000000E+00
  0.00000000E+00  0.00000000E+00  0.00000000E+00
  0.00000000E+00  0.00000000E+00  0.00000000E+00
  0.00000000E+00  0.00000000E+00  0.00000000E+00
