Cs I Ba                                 
   1.00000000000000     
    13.5650399999999998  -13.5650399999999998    0.0000000000000000
    13.5650399999999998   13.5650399999999998    0.0000000000000000
     0.0000000000000000    0.0000000000000000   27.1300810000000006
   Ba   Cs   I 
    32    32    96
Direct
  0.0090125680316230  0.0023057675740434  0.0025361348628768
  0.0015998581461496  0.0034977044087304  0.2486794312343670
  0.9903279247523499  0.9987179853527142  0.5019006746822420
  0.9911710288370666  0.0017764010337642  0.7471406624946265
  0.5051923501961857  0.0013174450889374  0.9988000656533197
  0.5059748865308479  0.0012683344129872  0.2495889179863258
  0.4901822665207438  0.9978260261738511  0.5014157353497809
  0.4951782949295033  0.9978299387121017  0.7496550888650009
  0.2605392484337560  0.2492696356870027  0.0018031477167393
  0.2579460731950681  0.2490389571229323  0.2488566122473409
  0.2451242252801144  0.2476605653157134  0.5027881193941748
  0.2425047268205535  0.2472833637814447  0.7473320447181316
  0.0073966569253713  0.5009925932370658  0.9998346617191679
  0.0031866997108240  0.5017278108072053  0.2498515270811797
  0.9957846008942507  0.4996201405727784  0.4994620813416527
  0.9969779262067421  0.4986813809627420  0.7497425982671798
  0.7531731788914752  0.2502710347105348  0.9997354913632360
  0.7576247564509748  0.2515426837740578  0.2486622271069085
  0.7443992398282909  0.2478191455056045  0.4998481718894902
  0.7436480946816064  0.2476162888419450  0.7496585203699395
  0.5062816878944114  0.5021125159122550  0.0027056469208804
  0.5053954512878807  0.5025251180014145  0.2477194987587355
  0.4872959971541784  0.4986908610878821  0.5032383155932469
  0.4900508006618639  0.5020580280700807  0.7479271716655413
  0.2537153960198993  0.7525546330598910  0.0012942092410250
  0.2581891242876269  0.7524861434825283  0.2484374742348497
  0.2435593454869687  0.7453791899230169  0.5006618061771276
  0.2435565679592756  0.7481572915726319  0.7506204522736858
  0.7608603819690054  0.7470987405271685  0.0012283088246459
  0.7585626717813210  0.7514977190978721  0.2485247446742831
  0.7457350724471293  0.7454115277848520  0.5023012693728564
  0.7436468012408421  0.7470104356407822  0.7471323437297691
  0.9732316413246730  0.2644451118932081  0.1287341495682350
  0.0420664569905158  0.2558194746292695  0.3561924413468448
  0.0207839113114350  0.2680088243745653  0.6237007047816056
  0.0411570395805022  0.2561859120890204  0.8968808493863136
  0.4811778981390444  0.2447186934520241  0.1240227473420202
  0.5372702206057723  0.2504185005573311  0.3554102765995440
  0.5222034334673650  0.2510665832378913  0.6315426668601262
  0.4658184667062939  0.2493770965056383  0.8546703197634696
  0.2247325811430751  0.5004378543796654  0.1234845925373464
  0.2806233524024617  0.4972731444911366  0.3544394629116992
  0.2696441018010302  0.4949520271784197  0.6224912305980385
  0.2818537793585589  0.5013765305558574  0.8955163227549723
  0.9771314084320550  0.7524779247727239  0.1279212733006461
  0.0384136233979270  0.7501872873358216  0.3574205834834902
  0.0249663141149744  0.7470194115685268  0.6235131464421613
  0.9662830958375526  0.7490955206750162  0.8539521979266739
  0.7289415996642820  0.4877352550348569  0.1218046637693719
  0.7071729169887079  0.4987811531507291  0.3972344969129151
  0.7773508308952827  0.4856845930791605  0.6188198991962656
  0.7088953662017464  0.4932507359624203  0.8526605054702937
  0.4767757309640984  0.7690733236685608  0.1216685857347990
  0.5383042222117941  0.7504146296040018  0.3558948314430216
  0.5206275655869268  0.7648737179039062  0.6250608480932470
  0.5412863558003873  0.7547068717157971  0.8959513801414760
  0.2258995321132168  0.9885532372344800  0.1289381446085475
  0.2076379072671451  0.9963240726747991  0.3964060266781259
  0.2750293899610851  0.9854286413055453  0.6210361431377134
  0.2109802717909514  0.9940031610676631  0.8524546057864296
  0.7288749197540488  0.9963094820784899  0.1173738922680344
  0.7092867881046767  0.9959842365935277  0.3964646328022075
  0.7722257962218813  0.9963375704162547  0.6240525547599820
  0.7884592123373801  0.0006398549386817  0.8943363455777231
  0.1524675108516873  0.1073742256468704  0.9707011059008093
  0.1535013399227154  0.1028808060715848  0.2750569453217012
  0.0982052529674747  0.1425471152485985  0.4724672383264745
  0.0988880106254782  0.1431791345829313  0.7805244222789428
  0.6637482698781817  0.0910413358947130  0.9890608427906108
  0.6524454486460832  0.1060465354097748  0.2761484926555040
  0.5966816205868125  0.1427234144404206  0.4744767236117959
  0.5868277935084626  0.1547994896376034  0.7603799425316894
  0.3543022967864106  0.4048460015500419  0.0239226225558424
  0.3536749800658731  0.4036299023957109  0.2269792698378446
  0.3862742018372469  0.3538833769646725  0.5382081615291548
  0.3934802098422245  0.3484256255048024  0.7287843932657886
  0.1653129199062049  0.5929874211918169  0.9944742825401036
  0.1523720761998207  0.6066166102982791  0.2685539634487347
  0.0827794272178639  0.6605258240288602  0.4862876293080877
  0.0858966438313869  0.6574346766358636  0.7577648202568230
  0.8656701924693576  0.3902477848538114  0.0274608452240243
  0.8593832276827683  0.3973208712710856  0.2190525639435846
  0.8861565342463871  0.3554529192304834  0.5261110472858391
  0.8837876617811289  0.3590249568985380  0.7223656283426033
  0.6520473936086992  0.6052381225720528  0.9721561202570712
  0.6505405882896758  0.6065132276353841  0.2767329070624172
  0.5961065319517342  0.6424248105663851  0.4748874953823783
  0.5997006944648425  0.6421255290854583  0.7796339077235995
  0.3634372284537692  0.8942482841422582  0.0306710345386453
  0.3645426368015391  0.8944485390207568  0.2190610311085529
  0.3864536678178996  0.8529024823750436  0.5301324062894657
  0.3833412264833452  0.8590471327931410  0.7211087143374136
  0.8588137385991754  0.9003468153492664  0.0214153017297426
  0.8601275808570883  0.8966933508526636  0.2151971227013724
  0.8851198971455683  0.8552444757549775  0.5333078640780263
  0.8935715096457914  0.8484262739514855  0.7268220458085140
  0.9012057401572474  0.1449272482700328  0.9729085174972981
  0.9129433034223348  0.1606307140819144  0.2653001027107931
  0.8369262192782126  0.0927443688551452  0.4850248746981947
  0.8339748604766600  0.0893459816822875  0.7652985483405250
  0.4187159945651034  0.1616982493228893  0.9854761657621183
  0.4143769723829680  0.1581554992576663  0.2606322398187907
  0.3380191870142680  0.0927030116363604  0.4847211909064280
  0.3493315275558591  0.1049393307213823  0.7769307914161033
  0.1093435742329239  0.3489003915765982  0.0225178269936138
  0.1093893589053517  0.3532648543161588  0.2276827829626596
  0.1349935348155554  0.3885466578160953  0.5302975562010607
  0.1368260382328860  0.3888703026729218  0.7175303503365680
  0.9162239131860379  0.6574631203845496  0.9827692173144553
  0.9131827555485035  0.6593378460027286  0.2636753590130783
  0.8374863542015525  0.5904422289750852  0.4862521239172550
  0.8490404708480305  0.6033306662881444  0.7776828094443647
  0.6132085272425563  0.3602587458858082  0.0342115450563193
  0.6058585382986175  0.3525763365521954  0.2261321625618378
  0.6376753875529574  0.3958566150485132  0.5206244784112803
  0.6394948798306971  0.3989853522617784  0.7259499964399204
  0.4030129491217789  0.6487030235635156  0.9748164044517368
  0.3985157498867353  0.6432625759235057  0.2803769970287984
  0.3306629329714910  0.5865497734315864  0.4821101095917451
  0.3349202318128723  0.5913817575206444  0.7681856692250014
  0.1155235898896807  0.8625186035045206  0.0376891560280715
  0.1094297433965169  0.8562898788240697  0.2268012870704278
  0.1406966022144802  0.8970938039337851  0.5220712064772330
  0.1416730653309257  0.9004725809682206  0.7273500502199827
  0.6106695341654915  0.8503252760174984  0.0209251348157526
  0.6076149368050993  0.8507076630127799  0.2273166490342935
  0.6383652714555461  0.8930246677160860  0.5243513172458482
  0.6348401660736315  0.8872972130287943  0.7173842490807517
  0.0245221033076412  0.0550772831571676  0.1251793025455469
  0.0034779680401011  0.9550618428024041  0.3747836271461007
  0.9762901708495688  0.0547565574397006  0.6248346765563957
  0.9969420778042927  0.9557075099293126  0.8749592132144667
  0.5256967826528620  0.0393218668416981  0.1248490790319397
  0.5076761889967244  0.9546287396338936  0.3750263130715210
  0.4765274309511161  0.0453541067772348  0.6250049311075919
  0.5034049994158958  0.9551496960507680  0.8749811624945067
  0.2739652621705405  0.2005267597493558  0.1249818011702944
  0.2474263664066724  0.2930845365531810  0.3750824615787340
  0.2216886614944812  0.1943393344121017  0.6254771627609966
  0.2562981641157240  0.2942851327510150  0.8751168041764398
  0.0221778014241909  0.5435433222431654  0.1252847856421139
  0.0102734522798897  0.4584367306460471  0.3743895163368366
  0.9788764962676624  0.5416926948554102  0.6247692289606711
  0.0229655727642025  0.4599002248800036  0.8749290610140829
  0.7711762103441210  0.2030891168417359  0.1246262825951923
  0.7374005725012143  0.2963762460152436  0.3740106829749840
  0.7252507842813899  0.2057216574511783  0.6242541895059766
  0.7324925391516062  0.2900308907264989  0.8749025141037152
  0.5252359653377088  0.5556112021069644  0.1254207366989386
  0.4968620098375960  0.4552438230606605  0.3749939599926056
  0.4752640489904328  0.5549153118988548  0.6253454294235650
  0.4966490333614144  0.4557187951377265  0.8755001676816677
  0.2785006765385371  0.7039814312685000  0.1257533466727543
  0.2395647825023344  0.7919060921403465  0.3747401185167902
  0.2307502726155264  0.7050469388026982  0.6251693484563006
  0.2304202015428522  0.7910572361878987  0.8760820765193189
  0.7708993059771848  0.6980066924495447  0.1247110848182513
  0.7405490281281417  0.7919207130118038  0.3755073931229813
  0.7216723240491559  0.6947920330003595  0.6252978677959924
  0.7536168881232769  0.7941912289074714  0.8747752344734105
 
  0.00000000E+00  0.00000000E+00  0.00000000E+00
  0.00000000E+00  0.00000000E+00  0.00000000E+00
  0.00000000E+00  0.00000000E+00  0.00000000E+00
  0.00000000E+00  0.00000000E+00  0.00000000E+00
  0.00000000E+00  0.00000000E+00  0.00000000E+00
  0.00000000E+00  0.00000000E+00  0.00000000E+00
  0.00000000E+00  0.00000000E+00  0.00000000E+00
  0.00000000E+00  0.00000000E+00  0.00000000E+00
  0.00000000E+00  0.00000000E+00  0.00000000E+00
  0.00000000E+00  0.00000000E+00  0.00000000E+00
  0.00000000E+00  0.00000000E+00  0.00000000E+00
  0.00000000E+00  0.00000000E+00  0.00000000E+00
  0.00000000E+00  0.00000000E+00  0.00000000E+00
  0.00000000E+00  0.00000000E+00  0.00000000E+00
  0.00000000E+00  0.00000000E+00  0.00000000E+00
  0.00000000E+00  0.00000000E+00  0.00000000E+00
  0.00000000E+00  0.00000000E+00  0.00000000E+00
  0.00000000E+00  0.00000000E+00  0.00000000E+00
  0.00000000E+00  0.00000000E+00  0.00000000E+00
  0.00000000E+00  0.00000000E+00  0.00000000E+00
  0.00000000E+00  0.00000000E+00  0.00000000E+00
  0.00000000E+00  0.00000000E+00  0.00000000E+00
  0.00000000E+00  0.00000000E+00  0.00000000E+00
  0.00000000E+00  0.00000000E+00  0.00000000E+00
  0.00000000E+00  0.00000000E+00  0.00000000E+00
  0.00000000E+00  0.00000000E+00  0.00000000E+00
  0.00000000E+00  0.00000000E+00  0.00000000E+00
  0.00000000E+00  0.00000000E+00  0.00000000E+00
  0.00000000E+00  0.00000000E+00  0.00000000E+00
  0.00000000E+00  0.00000000E+00  0.00000000E+00
  0.00000000E+00  0.00000000E+00  0.00000000E+00
  0.00000000E+00  0.00000000E+00  0.00000000E+00
  0.00000000E+00  0.00000000E+00  0.00000000E+00
  0.00000000E+00  0.00000000E+00  0.00000000E+00
  0.00000000E+00  0.00000000E+00  0.00000000E+00
  0.00000000E+00  0.00000000E+00  0.00000000E+00
  0.00000000E+00  0.00000000E+00  0.00000000E+00
  0.00000000E+00  0.00000000E+00  0.00000000E+00
  0.00000000E+00  0.00000000E+00  0.00000000E+00
  0.00000000E+00  0.00000000E+00  0.00000000E+00
  0.00000000E+00  0.00000000E+00  0.00000000E+00
  0.00000000E+00  0.00000000E+00  0.00000000E+00
  0.00000000E+00  0.00000000E+00  0.00000000E+00
  0.00000000E+00  0.00000000E+00  0.00000000E+00
  0.00000000E+00  0.00000000E+00  0.00000000E+00
  0.00000000E+00  0.00000000E+00  0.00000000E+00
  0.00000000E+00  0.00000000E+00  0.00000000E+00
  0.00000000E+00  0.00000000E+00  0.00000000E+00
  0.00000000E+00  0.00000000E+00  0.00000000E+00
  0.00000000E+00  0.00000000E+00  0.00000000E+00
  0.00000000E+00  0.00000000E+00  0.00000000E+00
  0.00000000E+00  0.00000000E+00  0.00000000E+00
  0.00000000E+00  0.00000000E+00  0.00000000E+00
  0.00000000E+00  0.00000000E+00  0.00000000E+00
  0.00000000E+00  0.00000000E+00  0.00000000E+00
  0.00000000E+00  0.00000000E+00  0.00000000E+00
  0.00000000E+00  0.00000000E+00  0.00000000E+00
  0.00000000E+00  0.00000000E+00  0.00000000E+00
  0.00000000E+00  0.00000000E+00  0.00000000E+00
  0.00000000E+00  0.00000000E+00  0.00000000E+00
  0.00000000E+00  0.00000000E+00  0.00000000E+00
  0.00000000E+00  0.00000000E+00  0.00000000E+00
  0.00000000E+00  0.00000000E+00  0.00000000E+00
  0.00000000E+00  0.00000000E+00  0.00000000E+00
  0.00000000E+00  0.00000000E+00  0.00000000E+00
  0.00000000E+00  0.00000000E+00  0.00000000E+00
  0.00000000E+00  0.00000000E+00  0.00000000E+00
  0.00000000E+00  0.00000000E+00  0.00000000E+00
  0.00000000E+00  0.00000000E+00  0.00000000E+00
  0.00000000E+00  0.00000000E+00  0.00000000E+00
  0.00000000E+00  0.00000000E+00  0.00000000E+00
  0.00000000E+00  0.00000000E+00  0.00000000E+00
  0.00000000E+00  0.00000000E+00  0.00000000E+00
  0.00000000E+00  0.00000000E+00  0.00000000E+00
  0.00000000E+00  0.00000000E+00  0.00000000E+00
  0.00000000E+00  0.00000000E+00  0.00000000E+00
  0.00000000E+00  0.00000000E+00  0.00000000E+00
  0.00000000E+00  0.00000000E+00  0.00000000E+00
  0.00000000E+00  0.00000000E+00  0.00000000E+00
  0.00000000E+00  0.00000000E+00  0.00000000E+00
  0.00000000E+00  0.00000000E+00  0.00000000E+00
  0.00000000E+00  0.00000000E+00  0.00000000E+00
  0.00000000E+00  0.00000000E+00  0.00000000E+00
  0.00000000E+00  0.00000000E+00  0.00000000E+00
  0.00000000E+00  0.00000000E+00  0.00000000E+00
  0.00000000E+00  0.00000000E+00  0.00000000E+00
  0.00000000E+00  0.00000000E+00  0.00000000E+00
  0.00000000E+00  0.00000000E+00  0.00000000E+00
  0.00000000E+00  0.00000000E+00  0.00000000E+00
  0.00000000E+00  0.00000000E+00  0.00000000E+00
  0.00000000E+00  0.00000000E+00  0.00000000E+00
  0.00000000E+00  0.00000000E+00  0.00000000E+00
  0.00000000E+00  0.00000000E+00  0.00000000E+00
  0.00000000E+00  0.00000000E+00  0.00000000E+00
  0.00000000E+00  0.00000000E+00  0.00000000E+00
  0.00000000E+00  0.00000000E+00  0.00000000E+00
  0.00000000E+00  0.00000000E+00  0.00000000E+00
  0.00000000E+00  0.00000000E+00  0.00000000E+00
  0.00000000E+00  0.00000000E+00  0.00000000E+00
  0.00000000E+00  0.00000000E+00  0.00000000E+00
  0.00000000E+00  0.00000000E+00  0.00000000E+00
  0.00000000E+00  0.00000000E+00  0.00000000E+00
  0.00000000E+00  0.00000000E+00  0.00000000E+00
  0.00000000E+00  0.00000000E+00  0.00000000E+00
  0.00000000E+00  0.00000000E+00  0.00000000E+00
  0.00000000E+00  0.00000000E+00  0.00000000E+00
  0.00000000E+00  0.00000000E+00  0.00000000E+00
  0.00000000E+00  0.00000000E+00  0.00000000E+00
  0.00000000E+00  0.00000000E+00  0.00000000E+00
  0.00000000E+00  0.00000000E+00  0.00000000E+00
  0.00000000E+00  0.00000000E+00  0.00000000E+00
  0.00000000E+00  0.00000000E+00  0.00000000E+00
  0.00000000E+00  0.00000000E+00  0.00000000E+00
  0.00000000E+00  0.00000000E+00  0.00000000E+00
  0.00000000E+00  0.00000000E+00  0.00000000E+00
  0.00000000E+00  0.00000000E+00  0.00000000E+00
  0.00000000E+00  0.00000000E+00  0.00000000E+00
  0.00000000E+00  0.00000000E+00  0.00000000E+00
  0.00000000E+00  0.00000000E+00  0.00000000E+00
  0.00000000E+00  0.00000000E+00  0.00000000E+00
  0.00000000E+00  0.00000000E+00  0.00000000E+00
  0.00000000E+00  0.00000000E+00  0.00000000E+00
  0.00000000E+00  0.00000000E+00  0.00000000E+00
  0.00000000E+00  0.00000000E+00  0.00000000E+00
  0.00000000E+00  0.00000000E+00  0.00000000E+00
  0.00000000E+00  0.00000000E+00  0.00000000E+00
  0.00000000E+00  0.00000000E+00  0.00000000E+00
  0.00000000E+00  0.00000000E+00  0.00000000E+00
  0.00000000E+00  0.00000000E+00  0.00000000E+00
  0.00000000E+00  0.00000000E+00  0.00000000E+00
  0.00000000E+00  0.00000000E+00  0.00000000E+00
  0.00000000E+00  0.00000000E+00  0.00000000E+00
  0.00000000E+00  0.00000000E+00  0.00000000E+00
  0.00000000E+00  0.00000000E+00  0.00000000E+00
  0.00000000E+00  0.00000000E+00  0.00000000E+00
  0.00000000E+00  0.00000000E+00  0.00000000E+00
  0.00000000E+00  0.00000000E+00  0.00000000E+00
  0.00000000E+00  0.00000000E+00  0.00000000E+00
  0.00000000E+00  0.00000000E+00  0.00000000E+00
  0.00000000E+00  0.00000000E+00  0.00000000E+00
  0.00000000E+00  0.00000000E+00  0.00000000E+00
  0.00000000E+00  0.00000000E+00  0.00000000E+00
  0.00000000E+00  0.00000000E+00  0.00000000E+00
  0.00000000E+00  0.00000000E+00  0.00000000E+00
  0.00000000E+00  0.00000000E+00  0.00000000E+00
  0.00000000E+00  0.00000000E+00  0.00000000E+00
  0.00000000E+00  0.00000000E+00  0.00000000E+00
  0.00000000E+00  0.00000000E+00  0.00000000E+00
  0.00000000E+00  0.00000000E+00  0.00000000E+00
  0.00000000E+00  0.00000000E+00  0.00000000E+00
  0.00000000E+00  0.00000000E+00  0.00000000E+00
  0.00000000E+00  0.00000000E+00  0.00000000E+00
  0.00000000E+00  0.00000000E+00  0.00000000E+00
  0.00000000E+00  0.00000000E+00  0.00000000E+00
  0.00000000E+00  0.00000000E+00  0.00000000E+00
  0.00000000E+00  0.00000000E+00  0.00000000E+00
  0.00000000E+00  0.00000000E+00  0.00000000E+00
  0.00000000E+00  0.00000000E+00  0.00000000E+00
  0.00000000E+00  0.00000000E+00  0.00000000E+00
  0.00000000E+00  0.00000000E+00  0.00000000E+00
