Cs Br Cd                                
   1.00000000000000     
    11.2424180000000007  -11.2424180000000007    0.0000000000000000
    11.2424180000000007   11.2424180000000007    0.0000000000000000
     0.0000000000000000    0.0000000000000000   22.4848369999999989
   Br   Cd   Cs
    96    32    32
Direct
  0.9986562851995947  0.2330266836749149 -0.0000298732911259
 -0.0007952232997483  0.2682258996000071  0.2495026195932587
  0.0015648205806437  0.2316090190849861  0.5000228884039649
  0.0004691754941932  0.2658177960691739  0.7492835559716132
  0.5042274782714746  0.2345658050148690  0.9992952884521158
  0.4950351953755442  0.2668656720222203  0.2498290070048391
  0.5052441118220868  0.2339895884654414  0.4995863211279571
  0.4965293508062329  0.2648650108724422  0.7501460949401672
  0.2509521389869550  0.5186705674614803  0.9998476044908582
  0.2469215717501186  0.4820480511058584  0.2493769266799640
  0.2533089240012690  0.5176897423486271  0.4998481355319675
  0.2497644467990403  0.4812948908989813  0.7496488833078311
  0.0046104847612992  0.7346463663611448  0.9993701297784905
  0.9954862067608637  0.7670159879215510  0.2497430934748348
  0.0053056583497822  0.7339269488928742  0.4995435466701290
  0.9976422893277380  0.7650099515330568  0.7500356947711631
  0.7504130800492049  0.5157590451348962  0.9994918345165487
  0.7464436502284497  0.4853146723887027  0.2495464230431614
  0.7537584985512706  0.5149065621005123  0.4995912730833685
  0.7513484970503119  0.4840623917252871  0.7496109099065240
  0.4996051287302904  0.7340219747718170  0.0000348082763216
  0.4990339411895322  0.7682350832999606  0.2495250639725431
  0.5019892314810760  0.7318944031357852  0.5000495221619589
  0.5014852509986395  0.7665505211203919  0.7493988953740250
  0.2506965714769783  0.0157095770412959  0.9994294634997435
  0.2466948243770629  0.9855928704359307  0.2496589618678932
  0.2535713585660105  0.0146924665708403  0.4996132864586129
  0.2504484547460610  0.9841459646020961  0.7496432078727920
  0.7510902140783643  0.0187837909963732  0.9999139429286070
  0.7468427616715171  0.9821177352630774  0.2495160203940877
  0.7532453333678970  0.0178932071851149  0.4998021534791389
  0.7495672567975847  0.9813755778813538  0.7497121696013863
  0.1116672654648410  0.1171025871726888  0.1325774613186700
  0.1092853936757136  0.1132811906898249  0.3668066499116300
  0.1145971232606829  0.1146526046470704  0.6334098057646308
  0.1138274232178551  0.1096055933960784  0.8665557684986633
  0.6112579441071360  0.1180320652131967  0.1339436124859540
  0.6094764325480250  0.1134025883048180  0.3658284331186767
  0.6145352295324041  0.1161930924036597  0.6342064541256045
  0.6143830706675375  0.1093366996942346  0.8657903488527974
  0.3870021793257689  0.3847704800137919  0.1150393585571615
  0.3919912000553532  0.3858472597130082  0.3839968727488872
  0.3887166723520232  0.3819455102871389  0.6159113618702879
  0.3873716076365769  0.3892928007093059  0.8838186646472087
  0.1113118729824962  0.6179422756838920  0.1339303066276337
  0.1094985090653951  0.6132267744703227  0.3656214760101262
  0.1147499515080602  0.6152844140793838  0.6339834014210938
  0.1144605349848096  0.6092457094577510  0.8657667036161029
  0.8865737888879434  0.3851826333680060  0.1164970366248983
  0.8926489921529768  0.3857440747601166  0.3828784419103505
  0.8883752025551480  0.3819633704242608  0.6160193918056008
  0.8879016898677121  0.3890245471805225  0.8824481420172922
  0.6116772118542568  0.6172392836627670  0.1327094245577097
  0.6092846779613906  0.6134410411818770  0.3666295765050317
  0.6154823448651848  0.6156215765682570  0.6332734962265367
  0.6141808793947455  0.6094894464684698  0.8661943187654217
  0.3869611558977673  0.8854428704132634  0.1169975526244190
  0.3926971998580627  0.8857140366174363  0.3830096629351941
  0.3888903650858236  0.8827251991628823  0.6165303231590664
  0.3879392825349093  0.8882845023359107  0.8822552090891880
  0.8871143812532949  0.8847417885632030  0.1151374698238671
  0.8920386634522045  0.8856815881190110  0.3838604927597802
  0.8887496368238420  0.8818385845422411  0.6159617107939940
  0.8880879087223229  0.8899441126575726  0.8838563406644648
  0.8618912974481509  0.1349675236006306  0.1348966335420658
  0.8595845296958179  0.1367787652129506  0.3649724792120155
  0.8646855521712918  0.1322362703347641  0.6345246727220399
  0.8638644230558731  0.1403218859422413  0.8658168425691602
  0.3620938935226468  0.1355687666609009  0.1321124073806537
  0.3595010112759982  0.1368061647006001  0.3668408935814682
  0.3642608743630312  0.1330120567412790  0.6325493029629931
  0.3642565566397172  0.1391250430481581  0.8679560946229409
  0.1373445626973228  0.3673799287186829  0.1145715616731840
  0.1422292495544589  0.3641018471194796  0.3842720613730482
  0.1387199938336069  0.3656166884534053  0.6149749435520413
  0.1375420794961951  0.3598361772076029  0.8835370809282581
  0.8621397664335473  0.6356050121311009  0.1323040271093971
  0.8594863307657344  0.6366187213896685  0.3665098365598134
  0.8648207598797879  0.6331142614378533  0.6324665844380294
  0.8639044051763404  0.6401414381145590  0.8683134890501949
  0.6373879853427145  0.3676553979747475  0.1171629476373363
  0.6426183292707341  0.3641959173602985  0.3826913508650709
  0.6381211786370334  0.3664805927716605  0.6175392324777319
  0.6375768487994099  0.3610778866082060  0.8813481090571627
  0.3620423692692012  0.6348152392302279  0.1344638041227364
  0.3593576034695626  0.6368260850459072  0.3651819777349817
  0.3650330199920739  0.6324261548010028  0.6345071156387581
  0.3648769098023849  0.6395527463560984  0.8658849421586252
  0.1378325486849118  0.8674196796220879  0.1173497103525575
  0.1425635581073172  0.8640557607799492  0.3825460679159622
  0.1387186034693549  0.8655414085926206  0.6171965589981356
  0.1379750784158573  0.8608386089562242  0.8813521700191104
  0.6375558981295494  0.8676313335577832  0.1147662364046011
  0.6423765760222627  0.8642066374376263  0.3844098671703698
  0.6386129435615031  0.8664581769311216  0.6148253197995842
  0.6381813368844818  0.8598347611753250  0.8837217550979511
 -0.0001429021055776  0.2524136244862140  0.1246048060362502
  0.0024863105765795  0.2499686623364426  0.3747507900496109
  0.0025855452053091  0.2485300228379309  0.6246243451024616
  0.0023563488601850  0.2489061340883214  0.8747091757537934
  0.4999771745432048  0.2529721880640697  0.1243565548178246
  0.5025522837905876  0.2503177993566738  0.3744998128793771
  0.5022868733356971  0.2488125480092218  0.6247163453237957
  0.5025009019269079  0.2491430265558159  0.8745988744505094
  0.2488995053912249  0.5024074826638742  0.1247358090325986
  0.2524173549989920  0.4999980996484475  0.3745556409919416
  0.2524951486534792  0.4988100093998992  0.6246713203309662
  0.2524036452562919  0.4999073891433750  0.8747215924421529
  0.0000120972897161  0.7528951543742783  0.1243416156352040
  0.0026367763455185  0.7501654258560692  0.3743005258833578
  0.0025132430466341  0.7486837536320921  0.6246413512354381
  0.0025224416435196  0.7491948290760382  0.8745729816500947
  0.7495737895835461  0.5026202259237328  0.1244413088293213
  0.7527047181776222  0.4999266894069361  0.3742957654994861
  0.7527160068182807  0.4990103673693597  0.6245031722736281
  0.7526092894116436  0.5000143509869992  0.8743485345413641
  0.4999309492898597  0.7524491665599840  0.1247282708774652
  0.5025406094692925  0.7500397112302332  0.3747703938672583
  0.5024907853233743  0.7489244736087227  0.6246903713339567
  0.5025718886670208  0.7490880291649592  0.8746398590865615
  0.2495624148263863  0.0026114961410175  0.1245000103941024
  0.2525656570976570 -0.0000889515259213  0.3744184706042460
  0.2524950708196457  0.9989015759813884  0.6245320760266915
  0.2527193891440548  0.9998889862197866  0.8743089621837855
  0.7490078516328628  0.0025583319897512  0.1247840913746061
  0.7524581898599275  0.0000842624769139  0.3746433310737375
  0.7525790698833844  0.9989353695726368  0.6247383788405741
  0.7524308523791973 -0.0000646407298231  0.8747921705427237
  0.0101303774986481  0.9986079146063629  0.0001207466800919
  0.9892424309154474  0.0024575289083517  0.2489256450276169
  0.0115412311913424  0.9970995443765969  0.5007656084275511
  0.9922876297006814  0.0000524037438053  0.7495193491198391
  0.5086454033168383  0.9990813116061429  0.9999117642809111
  0.4890893850420863  0.0031747450317708  0.2489395755832571
  0.5111540040643443  0.9985120216191683  0.5006086051973266
  0.4922589807382625  0.0007875913912552  0.7492370889095958
  0.2600175771615334  0.2514931126898790  0.0000016999090949
  0.2392845627023077  0.2475590550005406  0.2489699494925744
  0.2620285533708672  0.2502610404559003  0.5001800381808510
  0.2419230764786819  0.2465111652976214  0.7493390191213831
  0.0086647919989315  0.4991354847023860 -0.0000729792776065
  0.9888539252146338  0.5028524243098791  0.2488350975745665
  0.0111906331889633  0.4982267855947946  0.5006580823774216
  0.9925234523674655  0.5002869112064539  0.7491709673295212
  0.7588871277450041  0.2535581492010249  0.0000754607432343
  0.7382752283877130  0.2495522104747811  0.2493972073761959
  0.7608657177257442  0.2521041225028766  0.5007825293473669
  0.7420533550255620  0.2487025552145284  0.7491145518341947
  0.5092283149520086  0.4992580351880920 -0.0001115829798001
  0.4893041652482630  0.5023056487506455  0.2488184493746102
  0.5114653632500534  0.4974271591429864  0.5008850328265007
  0.4926497510273890  0.4999898838998739  0.7491687950769889
  0.2593463591295850  0.7534022934450307  0.0001350939323846
  0.2388031239555639  0.7496269686801048  0.2491405657773717
  0.2613443874447284  0.7518232658259898  0.5006550456638699
  0.2423196638942481  0.7484091340319226  0.7493399668522276
  0.7602733047273408  0.7520053799358470  0.0002788781027590
  0.7392549745740716  0.7480064455759592  0.2490940951383601
  0.7620758432209267  0.7504005784101195  0.5003024307228767
  0.7425621898312879  0.7469334703160631  0.7491653134012943
 
  0.00000000E+00  0.00000000E+00  0.00000000E+00
  0.00000000E+00  0.00000000E+00  0.00000000E+00
  0.00000000E+00  0.00000000E+00  0.00000000E+00
  0.00000000E+00  0.00000000E+00  0.00000000E+00
  0.00000000E+00  0.00000000E+00  0.00000000E+00
  0.00000000E+00  0.00000000E+00  0.00000000E+00
  0.00000000E+00  0.00000000E+00  0.00000000E+00
  0.00000000E+00  0.00000000E+00  0.00000000E+00
  0.00000000E+00  0.00000000E+00  0.00000000E+00
  0.00000000E+00  0.00000000E+00  0.00000000E+00
  0.00000000E+00  0.00000000E+00  0.00000000E+00
  0.00000000E+00  0.00000000E+00  0.00000000E+00
  0.00000000E+00  0.00000000E+00  0.00000000E+00
  0.00000000E+00  0.00000000E+00  0.00000000E+00
  0.00000000E+00  0.00000000E+00  0.00000000E+00
  0.00000000E+00  0.00000000E+00  0.00000000E+00
  0.00000000E+00  0.00000000E+00  0.00000000E+00
  0.00000000E+00  0.00000000E+00  0.00000000E+00
  0.00000000E+00  0.00000000E+00  0.00000000E+00
  0.00000000E+00  0.00000000E+00  0.00000000E+00
  0.00000000E+00  0.00000000E+00  0.00000000E+00
  0.00000000E+00  0.00000000E+00  0.00000000E+00
  0.00000000E+00  0.00000000E+00  0.00000000E+00
  0.00000000E+00  0.00000000E+00  0.00000000E+00
  0.00000000E+00  0.00000000E+00  0.00000000E+00
  0.00000000E+00  0.00000000E+00  0.00000000E+00
  0.00000000E+00  0.00000000E+00  0.00000000E+00
  0.00000000E+00  0.00000000E+00  0.00000000E+00
  0.00000000E+00  0.00000000E+00  0.00000000E+00
  0.00000000E+00  0.00000000E+00  0.00000000E+00
  0.00000000E+00  0.00000000E+00  0.00000000E+00
  0.00000000E+00  0.00000000E+00  0.00000000E+00
  0.00000000E+00  0.00000000E+00  0.00000000E+00
  0.00000000E+00  0.00000000E+00  0.00000000E+00
  0.00000000E+00  0.00000000E+00  0.00000000E+00
  0.00000000E+00  0.00000000E+00  0.00000000E+00
  0.00000000E+00  0.00000000E+00  0.00000000E+00
  0.00000000E+00  0.00000000E+00  0.00000000E+00
  0.00000000E+00  0.00000000E+00  0.00000000E+00
  0.00000000E+00  0.00000000E+00  0.00000000E+00
  0.00000000E+00  0.00000000E+00  0.00000000E+00
  0.00000000E+00  0.00000000E+00  0.00000000E+00
  0.00000000E+00  0.00000000E+00  0.00000000E+00
  0.00000000E+00  0.00000000E+00  0.00000000E+00
  0.00000000E+00  0.00000000E+00  0.00000000E+00
  0.00000000E+00  0.00000000E+00  0.00000000E+00
  0.00000000E+00  0.00000000E+00  0.00000000E+00
  0.00000000E+00  0.00000000E+00  0.00000000E+00
  0.00000000E+00  0.00000000E+00  0.00000000E+00
  0.00000000E+00  0.00000000E+00  0.00000000E+00
  0.00000000E+00  0.00000000E+00  0.00000000E+00
  0.00000000E+00  0.00000000E+00  0.00000000E+00
  0.00000000E+00  0.00000000E+00  0.00000000E+00
  0.00000000E+00  0.00000000E+00  0.00000000E+00
  0.00000000E+00  0.00000000E+00  0.00000000E+00
  0.00000000E+00  0.00000000E+00  0.00000000E+00
  0.00000000E+00  0.00000000E+00  0.00000000E+00
  0.00000000E+00  0.00000000E+00  0.00000000E+00
  0.00000000E+00  0.00000000E+00  0.00000000E+00
  0.00000000E+00  0.00000000E+00  0.00000000E+00
  0.00000000E+00  0.00000000E+00  0.00000000E+00
  0.00000000E+00  0.00000000E+00  0.00000000E+00
  0.00000000E+00  0.00000000E+00  0.00000000E+00
  0.00000000E+00  0.00000000E+00  0.00000000E+00
  0.00000000E+00  0.00000000E+00  0.00000000E+00
  0.00000000E+00  0.00000000E+00  0.00000000E+00
  0.00000000E+00  0.00000000E+00  0.00000000E+00
  0.00000000E+00  0.00000000E+00  0.00000000E+00
  0.00000000E+00  0.00000000E+00  0.00000000E+00
  0.00000000E+00  0.00000000E+00  0.00000000E+00
  0.00000000E+00  0.00000000E+00  0.00000000E+00
  0.00000000E+00  0.00000000E+00  0.00000000E+00
  0.00000000E+00  0.00000000E+00  0.00000000E+00
  0.00000000E+00  0.00000000E+00  0.00000000E+00
  0.00000000E+00  0.00000000E+00  0.00000000E+00
  0.00000000E+00  0.00000000E+00  0.00000000E+00
  0.00000000E+00  0.00000000E+00  0.00000000E+00
  0.00000000E+00  0.00000000E+00  0.00000000E+00
  0.00000000E+00  0.00000000E+00  0.00000000E+00
  0.00000000E+00  0.00000000E+00  0.00000000E+00
  0.00000000E+00  0.00000000E+00  0.00000000E+00
  0.00000000E+00  0.00000000E+00  0.00000000E+00
  0.00000000E+00  0.00000000E+00  0.00000000E+00
  0.00000000E+00  0.00000000E+00  0.00000000E+00
  0.00000000E+00  0.00000000E+00  0.00000000E+00
  0.00000000E+00  0.00000000E+00  0.00000000E+00
  0.00000000E+00  0.00000000E+00  0.00000000E+00
  0.00000000E+00  0.00000000E+00  0.00000000E+00
  0.00000000E+00  0.00000000E+00  0.00000000E+00
  0.00000000E+00  0.00000000E+00  0.00000000E+00
  0.00000000E+00  0.00000000E+00  0.00000000E+00
  0.00000000E+00  0.00000000E+00  0.00000000E+00
  0.00000000E+00  0.00000000E+00  0.00000000E+00
  0.00000000E+00  0.00000000E+00  0.00000000E+00
  0.00000000E+00  0.00000000E+00  0.00000000E+00
  0.00000000E+00  0.00000000E+00  0.00000000E+00
  0.00000000E+00  0.00000000E+00  0.00000000E+00
  0.00000000E+00  0.00000000E+00  0.00000000E+00
  0.00000000E+00  0.00000000E+00  0.00000000E+00
  0.00000000E+00  0.00000000E+00  0.00000000E+00
  0.00000000E+00  0.00000000E+00  0.00000000E+00
  0.00000000E+00  0.00000000E+00  0.00000000E+00
  0.00000000E+00  0.00000000E+00  0.00000000E+00
  0.00000000E+00  0.00000000E+00  0.00000000E+00
  0.00000000E+00  0.00000000E+00  0.00000000E+00
  0.00000000E+00  0.00000000E+00  0.00000000E+00
  0.00000000E+00  0.00000000E+00  0.00000000E+00
  0.00000000E+00  0.00000000E+00  0.00000000E+00
  0.00000000E+00  0.00000000E+00  0.00000000E+00
  0.00000000E+00  0.00000000E+00  0.00000000E+00
  0.00000000E+00  0.00000000E+00  0.00000000E+00
  0.00000000E+00  0.00000000E+00  0.00000000E+00
  0.00000000E+00  0.00000000E+00  0.00000000E+00
  0.00000000E+00  0.00000000E+00  0.00000000E+00
  0.00000000E+00  0.00000000E+00  0.00000000E+00
  0.00000000E+00  0.00000000E+00  0.00000000E+00
  0.00000000E+00  0.00000000E+00  0.00000000E+00
  0.00000000E+00  0.00000000E+00  0.00000000E+00
  0.00000000E+00  0.00000000E+00  0.00000000E+00
  0.00000000E+00  0.00000000E+00  0.00000000E+00
  0.00000000E+00  0.00000000E+00  0.00000000E+00
  0.00000000E+00  0.00000000E+00  0.00000000E+00
  0.00000000E+00  0.00000000E+00  0.00000000E+00
  0.00000000E+00  0.00000000E+00  0.00000000E+00
  0.00000000E+00  0.00000000E+00  0.00000000E+00
  0.00000000E+00  0.00000000E+00  0.00000000E+00
  0.00000000E+00  0.00000000E+00  0.00000000E+00
  0.00000000E+00  0.00000000E+00  0.00000000E+00
  0.00000000E+00  0.00000000E+00  0.00000000E+00
  0.00000000E+00  0.00000000E+00  0.00000000E+00
  0.00000000E+00  0.00000000E+00  0.00000000E+00
  0.00000000E+00  0.00000000E+00  0.00000000E+00
  0.00000000E+00  0.00000000E+00  0.00000000E+00
  0.00000000E+00  0.00000000E+00  0.00000000E+00
  0.00000000E+00  0.00000000E+00  0.00000000E+00
  0.00000000E+00  0.00000000E+00  0.00000000E+00
  0.00000000E+00  0.00000000E+00  0.00000000E+00
  0.00000000E+00  0.00000000E+00  0.00000000E+00
  0.00000000E+00  0.00000000E+00  0.00000000E+00
  0.00000000E+00  0.00000000E+00  0.00000000E+00
  0.00000000E+00  0.00000000E+00  0.00000000E+00
  0.00000000E+00  0.00000000E+00  0.00000000E+00
  0.00000000E+00  0.00000000E+00  0.00000000E+00
  0.00000000E+00  0.00000000E+00  0.00000000E+00
  0.00000000E+00  0.00000000E+00  0.00000000E+00
  0.00000000E+00  0.00000000E+00  0.00000000E+00
  0.00000000E+00  0.00000000E+00  0.00000000E+00
  0.00000000E+00  0.00000000E+00  0.00000000E+00
  0.00000000E+00  0.00000000E+00  0.00000000E+00
  0.00000000E+00  0.00000000E+00  0.00000000E+00
  0.00000000E+00  0.00000000E+00  0.00000000E+00
  0.00000000E+00  0.00000000E+00  0.00000000E+00
  0.00000000E+00  0.00000000E+00  0.00000000E+00
  0.00000000E+00  0.00000000E+00  0.00000000E+00
  0.00000000E+00  0.00000000E+00  0.00000000E+00
  0.00000000E+00  0.00000000E+00  0.00000000E+00
  0.00000000E+00  0.00000000E+00  0.00000000E+00
  0.00000000E+00  0.00000000E+00  0.00000000E+00
  0.00000000E+00  0.00000000E+00  0.00000000E+00
  0.00000000E+00  0.00000000E+00  0.00000000E+00
