I Sn Rb                                 
   1.00000000000000     
    12.5079329999999995  -12.5079329999999995    0.0000000000000000
    12.5079329999999995   12.5079329999999995    0.0000000000000000
     0.0000000000000000    0.0000000000000000   25.0158650000000016
   I    Rb   Sn
    96    32    32
Direct
  0.0993614650703649  0.1619384722107137  0.9796132116602886
  0.1486936148089666  0.1056784863109801  0.2832497760008180
  0.0897427204863114  0.1530868727371273  0.4799816206477979
  0.1527218719365793  0.1080798716411016  0.7819409523210583
  0.6102164614995360  0.1519601890038987  0.9692981586005042
  0.6584567982786218  0.0974435785285930  0.2689337606676331
  0.5944377620626781  0.1412498931549036  0.4695373679574993
  0.6598429276998025  0.0965003442837282  0.7716449799664759
  0.4109273567115484  0.3493182057872835  0.0218919646165495
  0.3571415068118207  0.3966827681987936  0.2213758339815753
  0.3980702344828516  0.3461598105124550  0.5222815333200163
  0.3615970524691140  0.4008566375981935  0.7208583491583076
  0.1105250382723677  0.6524810945026912  0.9708851869009050
  0.1590807496019791  0.5981819527927632  0.2706855384365190
  0.0939354223725363  0.6412580424755628  0.4696824472814979
  0.1604559461532428  0.5964687636446109  0.7727167511331993
  0.9032172936130725  0.3610879046451664  0.0301558690768029
  0.8469639570469684  0.4069654589493099  0.2296950252843094
  0.8862790933966171  0.3468763559973854  0.5310271391473586
  0.8495629878552557  0.4068090739508360  0.7308264546950413
  0.6015062565896994  0.6579235724678272  0.9798321850974803
  0.6497971257281878  0.6080098968710871  0.2802065430548027
  0.5922718281459965  0.6515791607063489  0.4780433278634467
  0.6555036643165092  0.6092311407021642  0.7806562284313074
  0.4033670874521829  0.8612847538298597  0.0294388752373125
  0.3476176407893803  0.9066936355749673  0.2288277910093468
  0.3858489442165282  0.8482962094908921  0.5299326283846628
  0.3485318289721829  0.9057762851854950  0.7289606515906579
  0.9108659707870198  0.8507243070010740  0.0221400233520866
  0.8578615758585255  0.8975900305446661  0.2190086307762837
  0.9000059691278063  0.8422099098493359  0.5208878055338063
  0.8589161310087841  0.9031177573101202  0.7187829190560839
  0.8587453994018355  0.0970100073051783  0.0268335146098863
  0.8944732494081318  0.1524763521684553  0.2238929370021999
  0.8383624767520307  0.1002872814403268  0.5255037985008754
  0.9093117273318846  0.1486440062680753  0.7277933457351605
  0.3457225079136553  0.1081931603735907  0.9729473558567456
  0.3963035543934414  0.1520459762134755  0.2760356864710323
  0.3499755933738047  0.0962926866381636  0.4776728027336187
  0.3985712676152892  0.1542543078269083  0.7741088796717914
  0.1497814925173351  0.4091869501497590  0.0263620031069705
  0.0932890999790205  0.3503142874535530  0.2263295864992894
  0.1503241207494928  0.3958637452433413  0.5292921927919375
  0.0973685375264492  0.3556314342887237  0.7253945708376749
  0.8476794618125932  0.6059831723549663  0.9738686497068265
  0.8966748784672360  0.6536339475935615  0.2749075667147294
  0.8488720793370244  0.5929403576490648  0.4761667924182942
  0.9002634002182256  0.6584425037543762  0.7737220281715230
  0.6585184479585902  0.3979632047332442  0.9776719311895780
  0.5918627143517293  0.3524857385846401  0.2739205596858893
  0.6415249995674924  0.4029433511598471  0.4725207564942850
  0.6073719099039757  0.3434393974093472  0.7771905483903403
  0.3595013046804201  0.5968858047071411  0.0260419909231459
  0.3944972894720922  0.6526294736359991  0.2240614020028788
  0.3398778169649101  0.6026065584391203  0.5255204382051598
  0.4082625413700758  0.6468134344189518  0.7264672477809588
  0.1583789944233567  0.8981776808366235  0.9777645452056059
  0.0921354052346860  0.8525074251065770  0.2734484598335119
  0.1425166719457817  0.9053830967682814  0.4734313212694634
  0.1075163421028533  0.8435482976912917  0.7771370221663750
  0.6492806302229129  0.9090402207908456  0.0221112531711092
  0.5944232124529135  0.8513697009611016  0.2241238120637853
  0.6508438922140308  0.8922972096763527  0.5237218804155112
  0.5961364171254609  0.8537055735272473  0.7232321797310296
  0.0515893784450818  0.0055552369294972  0.1216536663363743
  0.9445697118163058  0.0021371129525939  0.3701968043321828
  0.0518898451289286  0.0051503812445827  0.6192476610657877
  0.9532583181162854  0.0001759097124058  0.8691686140896010
  0.4999709968833806  0.0506134307543691  0.1210100844214710
  0.4966278948670939  0.9472722878955849  0.3694172193651371
  0.4973110451166673  0.0492589739656489  0.6184962986323538
  0.4953876082447544  0.9490973518257850  0.8690892414987782
  0.2510449381532140  0.1994212169581274  0.1333647683750521
  0.2506921152048652  0.3021878835459456  0.3831770254433461
  0.2509182017447975  0.2003105274899627  0.6329241979486799
  0.2515804536981020  0.3024352982962861  0.8814466639394195
  0.9989154969534628  0.5501614389167375  0.1228100357894661
  0.9943457860252179  0.4454318198786554  0.3708917642286486
  0.9953025588666549  0.5515459055308610  0.6191268469877367
  0.9949319109540704  0.4522627435119635  0.8704428484585619
  0.6984951184001035  0.2510957294773719  0.1207724017324339
  0.7945049327128827  0.2480314926887474  0.3716395286513449
  0.6968212116845539  0.2494183394745432  0.6243782682152484
  0.8017561492750852  0.2487749406596810  0.8734401106281779
  0.5498144491124090  0.5030828681799483  0.1218363375279620
  0.4448452169839320  0.5024472169894784  0.3705003894948580
  0.5533062233394317  0.5043577107481251  0.6187407681761055
  0.4548383715280001  0.5026300729492515  0.8691485744737035
  0.1999783017924751  0.7508278219062312  0.1210867268418953
  0.2967399292585616  0.7502232831861873  0.3717738511572068
  0.1973174150721697  0.7499286236204765  0.6242982727852966
  0.3020679078433735  0.7491368885749983  0.8732166978606226
  0.7471899857104537  0.7013691537202773  0.1213216223237489
  0.7484097318388825  0.7999625637189163  0.3724755297700287
  0.7474320295111989  0.7034944619407245  0.6230589279216063
  0.7510118537835903  0.8026433640515362  0.8729112652692951
  0.0236209010473153  0.2273742126592992  0.1124713742017258
  0.0065319792437612  0.2323560114104609  0.3502999051157533
  0.0268824127923526  0.2298435250854635  0.6129249728593082
  0.0152933482426309  0.2399579433315052  0.8504580122014357
  0.4869216909235557  0.2616946224061971  0.1501774539411082
  0.4727929453974239  0.2796642489654868  0.3886708924264726
  0.4842723261217074  0.2605405790240877  0.6483960811232509
  0.4758559279095486  0.2763987596232740  0.8876984807592969
  0.2311220379826646  0.5285188254348367  0.1387379055603645
  0.2338456422500071  0.5145555726594200  0.4004787128171960
  0.2234804062758713  0.5219291007590930  0.6400300134832838
  0.2449279019627172  0.5180639499123803  0.9017036520361466
  0.9883638797923858  0.7616551109702235  0.1498066956291838
  0.9729536019095856  0.7786290918349164  0.3873268731252138
  0.9852481076652004  0.7630681788324598  0.6485308288909930
  0.9765291771767758  0.7765558911802752  0.8885309812927731
  0.7649585946578078  0.4898313195811516  0.1006503048679064
  0.7710042648138433  0.4730803050635868  0.3619906532365541
  0.7659564291357809  0.4901702316021095  0.6027251387458143
  0.7746222602522377  0.4743387475647032  0.8631019112632934
  0.5226714270019494  0.7253465655651082  0.1116861787136420
  0.5093193099964597  0.7339545209264982  0.3493239662743796
  0.5246040569844331  0.7279269400436038  0.6105163739110226
  0.5161742187034826  0.7367150616562953  0.8503621245945499
  0.2662049498233859  0.9901501537016340  0.1004284493278951
  0.2753413768482660  0.9737174309245251  0.3630682684899542
  0.2640689358051500  0.9897202591604122  0.6016877376489793
  0.2759430072929178  0.9737007556200633  0.8627329740060968
  0.7282756265439723  0.0263291042811894  0.1368889561126531
  0.7327200386364926  0.0129490833181355  0.3986952411701780
  0.7173593569337126  0.0184840212832515  0.6371692535584053
  0.7441123389477109  0.0172012487435345  0.8995262172283526
  0.9978666451779054  0.9968681495891899  0.0070998355079021
  0.9927378374356162  0.9915940099696233  0.2533961954739046
  0.0089690859014131  0.0048556157819462  0.5011410503920454
  0.9916653733906042  0.0020401532386264  0.7501326153081523
  0.5041527759316540  0.9969115247533457  0.0061291722305769
  0.4962734219703064  0.9872710563978491  0.2502638758367427
  0.4946118935283246  0.0093644483124360  0.4993996886966831
  0.4956154501661892  0.9878930658635359  0.7507446141787979
  0.2471336808222488  0.2458069192415071  0.9959111843841597
  0.2511322753819664  0.2365574080809498  0.2526007640982597
  0.2517270206487314  0.2619015993890972  0.5016990523584371
  0.2532582673798188  0.2395629775341711  0.7522233690610171
  0.0042712102180954  0.4966726456304024  0.0080566048335958
  0.9957890576485604  0.4864321331335397  0.2521940533927836
  0.9947496326187730  0.5090252399971775  0.5006075710254672
  0.9962581467071602  0.4899366855841533  0.7520207037478912
  0.7420873265322253  0.2514692088054217  0.0019346187552334
  0.7528275101188345  0.2404221080248725  0.2538126660251822
  0.7511573086640561  0.2453786617372714  0.5095693242479441
  0.7458933719266484  0.2436326919738373  0.7575986449210353
  0.4982989691328810  0.4956598999055791  0.0067644575111386
  0.4921846073103687  0.4912397592454160  0.2536877359743528
  0.5100137748407829  0.5045227779531173  0.5005634320575914
  0.4933226556403539  0.5017237835374495  0.7500160100593489
  0.2425601704065578  0.7522064179587297  0.0021195559419265
  0.2530954675305889  0.7411750319798591  0.2543462599033876
  0.2507272386726186  0.7465096669480213  0.5091693037842862
  0.2459605868162991  0.7440618280560889  0.7576652082790425
  0.7481442871287903  0.7401203866837708  0.0017379654377349
  0.7521626940899306  0.7431293351869497  0.2577698557528898
  0.7532721118436121  0.7542304886136940  0.5064830660719669
  0.7543348568692588  0.7462921148435853  0.7576843567965941
 
  0.00000000E+00  0.00000000E+00  0.00000000E+00
  0.00000000E+00  0.00000000E+00  0.00000000E+00
  0.00000000E+00  0.00000000E+00  0.00000000E+00
  0.00000000E+00  0.00000000E+00  0.00000000E+00
  0.00000000E+00  0.00000000E+00  0.00000000E+00
  0.00000000E+00  0.00000000E+00  0.00000000E+00
  0.00000000E+00  0.00000000E+00  0.00000000E+00
  0.00000000E+00  0.00000000E+00  0.00000000E+00
  0.00000000E+00  0.00000000E+00  0.00000000E+00
  0.00000000E+00  0.00000000E+00  0.00000000E+00
  0.00000000E+00  0.00000000E+00  0.00000000E+00
  0.00000000E+00  0.00000000E+00  0.00000000E+00
  0.00000000E+00  0.00000000E+00  0.00000000E+00
  0.00000000E+00  0.00000000E+00  0.00000000E+00
  0.00000000E+00  0.00000000E+00  0.00000000E+00
  0.00000000E+00  0.00000000E+00  0.00000000E+00
  0.00000000E+00  0.00000000E+00  0.00000000E+00
  0.00000000E+00  0.00000000E+00  0.00000000E+00
  0.00000000E+00  0.00000000E+00  0.00000000E+00
  0.00000000E+00  0.00000000E+00  0.00000000E+00
  0.00000000E+00  0.00000000E+00  0.00000000E+00
  0.00000000E+00  0.00000000E+00  0.00000000E+00
  0.00000000E+00  0.00000000E+00  0.00000000E+00
  0.00000000E+00  0.00000000E+00  0.00000000E+00
  0.00000000E+00  0.00000000E+00  0.00000000E+00
  0.00000000E+00  0.00000000E+00  0.00000000E+00
  0.00000000E+00  0.00000000E+00  0.00000000E+00
  0.00000000E+00  0.00000000E+00  0.00000000E+00
  0.00000000E+00  0.00000000E+00  0.00000000E+00
  0.00000000E+00  0.00000000E+00  0.00000000E+00
  0.00000000E+00  0.00000000E+00  0.00000000E+00
  0.00000000E+00  0.00000000E+00  0.00000000E+00
  0.00000000E+00  0.00000000E+00  0.00000000E+00
  0.00000000E+00  0.00000000E+00  0.00000000E+00
  0.00000000E+00  0.00000000E+00  0.00000000E+00
  0.00000000E+00  0.00000000E+00  0.00000000E+00
  0.00000000E+00  0.00000000E+00  0.00000000E+00
  0.00000000E+00  0.00000000E+00  0.00000000E+00
  0.00000000E+00  0.00000000E+00  0.00000000E+00
  0.00000000E+00  0.00000000E+00  0.00000000E+00
  0.00000000E+00  0.00000000E+00  0.00000000E+00
  0.00000000E+00  0.00000000E+00  0.00000000E+00
  0.00000000E+00  0.00000000E+00  0.00000000E+00
  0.00000000E+00  0.00000000E+00  0.00000000E+00
  0.00000000E+00  0.00000000E+00  0.00000000E+00
  0.00000000E+00  0.00000000E+00  0.00000000E+00
  0.00000000E+00  0.00000000E+00  0.00000000E+00
  0.00000000E+00  0.00000000E+00  0.00000000E+00
  0.00000000E+00  0.00000000E+00  0.00000000E+00
  0.00000000E+00  0.00000000E+00  0.00000000E+00
  0.00000000E+00  0.00000000E+00  0.00000000E+00
  0.00000000E+00  0.00000000E+00  0.00000000E+00
  0.00000000E+00  0.00000000E+00  0.00000000E+00
  0.00000000E+00  0.00000000E+00  0.00000000E+00
  0.00000000E+00  0.00000000E+00  0.00000000E+00
  0.00000000E+00  0.00000000E+00  0.00000000E+00
  0.00000000E+00  0.00000000E+00  0.00000000E+00
  0.00000000E+00  0.00000000E+00  0.00000000E+00
  0.00000000E+00  0.00000000E+00  0.00000000E+00
  0.00000000E+00  0.00000000E+00  0.00000000E+00
  0.00000000E+00  0.00000000E+00  0.00000000E+00
  0.00000000E+00  0.00000000E+00  0.00000000E+00
  0.00000000E+00  0.00000000E+00  0.00000000E+00
  0.00000000E+00  0.00000000E+00  0.00000000E+00
  0.00000000E+00  0.00000000E+00  0.00000000E+00
  0.00000000E+00  0.00000000E+00  0.00000000E+00
  0.00000000E+00  0.00000000E+00  0.00000000E+00
  0.00000000E+00  0.00000000E+00  0.00000000E+00
  0.00000000E+00  0.00000000E+00  0.00000000E+00
  0.00000000E+00  0.00000000E+00  0.00000000E+00
  0.00000000E+00  0.00000000E+00  0.00000000E+00
  0.00000000E+00  0.00000000E+00  0.00000000E+00
  0.00000000E+00  0.00000000E+00  0.00000000E+00
  0.00000000E+00  0.00000000E+00  0.00000000E+00
  0.00000000E+00  0.00000000E+00  0.00000000E+00
  0.00000000E+00  0.00000000E+00  0.00000000E+00
  0.00000000E+00  0.00000000E+00  0.00000000E+00
  0.00000000E+00  0.00000000E+00  0.00000000E+00
  0.00000000E+00  0.00000000E+00  0.00000000E+00
  0.00000000E+00  0.00000000E+00  0.00000000E+00
  0.00000000E+00  0.00000000E+00  0.00000000E+00
  0.00000000E+00  0.00000000E+00  0.00000000E+00
  0.00000000E+00  0.00000000E+00  0.00000000E+00
  0.00000000E+00  0.00000000E+00  0.00000000E+00
  0.00000000E+00  0.00000000E+00  0.00000000E+00
  0.00000000E+00  0.00000000E+00  0.00000000E+00
  0.00000000E+00  0.00000000E+00  0.00000000E+00
  0.00000000E+00  0.00000000E+00  0.00000000E+00
  0.00000000E+00  0.00000000E+00  0.00000000E+00
  0.00000000E+00  0.00000000E+00  0.00000000E+00
  0.00000000E+00  0.00000000E+00  0.00000000E+00
  0.00000000E+00  0.00000000E+00  0.00000000E+00
  0.00000000E+00  0.00000000E+00  0.00000000E+00
  0.00000000E+00  0.00000000E+00  0.00000000E+00
  0.00000000E+00  0.00000000E+00  0.00000000E+00
  0.00000000E+00  0.00000000E+00  0.00000000E+00
  0.00000000E+00  0.00000000E+00  0.00000000E+00
  0.00000000E+00  0.00000000E+00  0.00000000E+00
  0.00000000E+00  0.00000000E+00  0.00000000E+00
  0.00000000E+00  0.00000000E+00  0.00000000E+00
  0.00000000E+00  0.00000000E+00  0.00000000E+00
  0.00000000E+00  0.00000000E+00  0.00000000E+00
  0.00000000E+00  0.00000000E+00  0.00000000E+00
  0.00000000E+00  0.00000000E+00  0.00000000E+00
  0.00000000E+00  0.00000000E+00  0.00000000E+00
  0.00000000E+00  0.00000000E+00  0.00000000E+00
  0.00000000E+00  0.00000000E+00  0.00000000E+00
  0.00000000E+00  0.00000000E+00  0.00000000E+00
  0.00000000E+00  0.00000000E+00  0.00000000E+00
  0.00000000E+00  0.00000000E+00  0.00000000E+00
  0.00000000E+00  0.00000000E+00  0.00000000E+00
  0.00000000E+00  0.00000000E+00  0.00000000E+00
  0.00000000E+00  0.00000000E+00  0.00000000E+00
  0.00000000E+00  0.00000000E+00  0.00000000E+00
  0.00000000E+00  0.00000000E+00  0.00000000E+00
  0.00000000E+00  0.00000000E+00  0.00000000E+00
  0.00000000E+00  0.00000000E+00  0.00000000E+00
  0.00000000E+00  0.00000000E+00  0.00000000E+00
  0.00000000E+00  0.00000000E+00  0.00000000E+00
  0.00000000E+00  0.00000000E+00  0.00000000E+00
  0.00000000E+00  0.00000000E+00  0.00000000E+00
  0.00000000E+00  0.00000000E+00  0.00000000E+00
  0.00000000E+00  0.00000000E+00  0.00000000E+00
  0.00000000E+00  0.00000000E+00  0.00000000E+00
  0.00000000E+00  0.00000000E+00  0.00000000E+00
  0.00000000E+00  0.00000000E+00  0.00000000E+00
  0.00000000E+00  0.00000000E+00  0.00000000E+00
  0.00000000E+00  0.00000000E+00  0.00000000E+00
  0.00000000E+00  0.00000000E+00  0.00000000E+00
  0.00000000E+00  0.00000000E+00  0.00000000E+00
  0.00000000E+00  0.00000000E+00  0.00000000E+00
  0.00000000E+00  0.00000000E+00  0.00000000E+00
  0.00000000E+00  0.00000000E+00  0.00000000E+00
  0.00000000E+00  0.00000000E+00  0.00000000E+00
  0.00000000E+00  0.00000000E+00  0.00000000E+00
  0.00000000E+00  0.00000000E+00  0.00000000E+00
  0.00000000E+00  0.00000000E+00  0.00000000E+00
  0.00000000E+00  0.00000000E+00  0.00000000E+00
  0.00000000E+00  0.00000000E+00  0.00000000E+00
  0.00000000E+00  0.00000000E+00  0.00000000E+00
  0.00000000E+00  0.00000000E+00  0.00000000E+00
  0.00000000E+00  0.00000000E+00  0.00000000E+00
  0.00000000E+00  0.00000000E+00  0.00000000E+00
  0.00000000E+00  0.00000000E+00  0.00000000E+00
  0.00000000E+00  0.00000000E+00  0.00000000E+00
  0.00000000E+00  0.00000000E+00  0.00000000E+00
  0.00000000E+00  0.00000000E+00  0.00000000E+00
  0.00000000E+00  0.00000000E+00  0.00000000E+00
  0.00000000E+00  0.00000000E+00  0.00000000E+00
  0.00000000E+00  0.00000000E+00  0.00000000E+00
  0.00000000E+00  0.00000000E+00  0.00000000E+00
  0.00000000E+00  0.00000000E+00  0.00000000E+00
  0.00000000E+00  0.00000000E+00  0.00000000E+00
  0.00000000E+00  0.00000000E+00  0.00000000E+00
  0.00000000E+00  0.00000000E+00  0.00000000E+00
  0.00000000E+00  0.00000000E+00  0.00000000E+00
  0.00000000E+00  0.00000000E+00  0.00000000E+00
  0.00000000E+00  0.00000000E+00  0.00000000E+00
  0.00000000E+00  0.00000000E+00  0.00000000E+00
  0.00000000E+00  0.00000000E+00  0.00000000E+00
