Cs Hg Cl                                
   1.00000000000000     
    10.8000640000000008  -10.8000640000000008    0.0000000000000000
    10.8000640000000008   10.8000640000000008    0.0000000000000000
     0.0000000000000000    0.0000000000000000   21.6001280000000015
   Cl   Cs   Hg
    96    32    32
Direct
 -0.0006152024481519  0.2517607330563541  0.0091018183094630
  0.9890784676976710  0.2538197131351623  0.2394187057271936
  0.0296574258873707  0.2267703677813354  0.5123431280426146
  0.9812129816714816  0.2825133568466324  0.7380328515116205
  0.5026117892618031  0.2482380294969571  0.0099068658553930
  0.4715912254733109  0.2657275831679617  0.2434882831860721
  0.5052407338782757  0.2259523563754168  0.5143070489225576
  0.5055729065573106  0.2678321440364195  0.7395094107914078
  0.2207464417969110  0.5063527968753518  0.9881255607233610
  0.2742334238561282  0.4793098228525302  0.2554189203515910
  0.2529522780533706  0.5067022443074656  0.4904587810937979
  0.2498366493621819  0.4872711563028215  0.7588952903534923
  0.9947796260090283  0.7347072282652856  0.9910098805661275
  0.0177243724812725  0.7702851249038142  0.2567256876462387
  0.0244809009352213  0.7487151036007315  0.4906742185117998
  0.9736368521598139  0.7729148045321841  0.7556951852204651
  0.7348755716886316  0.5212063914858041  0.0023155254042743
  0.7800135128402477  0.4762905219755447  0.2607327531076675
  0.7458077080955415  0.5134856804909985  0.4846755597686796
  0.7513784617905721  0.4825278130492069  0.7453089451937516
  0.5221092861933004  0.7251661448173741  0.9951952652873031
  0.4916654802710930  0.7762421528210268  0.2585669695809036
  0.5215795044758632  0.7410812934447735  0.4885033500389432
  0.4900186044511179  0.7471483254499174  0.7583327055345223
  0.2416274412488574  0.0227890127071280  0.9893513086664847
  0.2434937110009371  0.9887586085586878  0.2487534950801356
  0.2497886912195101  0.0242771709558967  0.5058385621967522
  0.2699685185227867  0.9827616735607082  0.7645977420729492
  0.7266652519617971  0.0044591075295393  0.0107680549384967
  0.7484119265798926  0.9921060789545402  0.2402277971269918
  0.7538204523833668  0.0070046519324102  0.5096260133090429
  0.7736620245512410  0.9695620828919329  0.7441795920014890
  0.1247655533348697  0.1068224474173240  0.1232032372324501
  0.0863881777750071  0.1184624489703486  0.3649808150380942
  0.1335294123890747  0.1379523372725636  0.6537967370276956
  0.1402484642083670  0.1417500960979649  0.8606233008643845
  0.6158264102987641  0.1215188036002984  0.1375584738121034
  0.5844795489537656  0.1169938138471484  0.3716942943514411
  0.6255071124276731  0.1181414423679849  0.6436118381399177
  0.6479586699695168  0.1105137555693554  0.8656217686945095
  0.3602966799721389  0.3908074231859295  0.1064301573517845
  0.3958054053456991  0.3663464490444045  0.3911171317996213
  0.3815796497366111  0.3781803308734827  0.6176770774516307
  0.3612327350285110  0.3653107945182412  0.8839222942371916
  0.1661696750829852  0.6319967241468090  0.1332385839132580
  0.1368038042829485  0.6308204511589455  0.3643822406385082
  0.1010757452980422  0.6371627390515473  0.6352952682160953
  0.1200030014476592  0.6255260866697639  0.8572077365944233
  0.8552329335960157  0.3858243448536273  0.1181214333558838
  0.8977829782180573  0.3622677563368340  0.3910281170322202
  0.8889802833368813  0.3804928982831690  0.5947426331037026
  0.8481975623585828  0.3794064028229510  0.8856346998636797
  0.6630770480279772  0.6352713373914083  0.1511675422760724
  0.6358090233908680  0.6385877874979605  0.3536016569372456
  0.5931970062919247  0.6173293658758712  0.6287649026957709
  0.6181846597064630  0.5971978689340184  0.8621141801510840
  0.3496916524900779  0.8762055051945415  0.1091489222926737
  0.3930069077599249  0.8896018610487041  0.3900239634122686
  0.3928865826354976  0.8570115169990195  0.6182465383560484
  0.3787525286107351  0.8759111096983422  0.8957989510444682
  0.8627185234584945  0.8651098721182627  0.1190973335863867
  0.8938565598123559  0.8893457610699894  0.3784051450153664
  0.8963633599820868  0.8674778100333296  0.6083879371314672
  0.8738028755121500  0.8989287671139942  0.8930172527173988
  0.8733544494063357  0.1281387864518731  0.1209722381967449
  0.8359470791599046  0.1352420199480029  0.3704095678926289
  0.8793042656261870  0.1156392803980877  0.6312404807605514
  0.8895086959281165  0.1416141609566210  0.8733544089507327
  0.3639607613287612  0.1356993079233620  0.1210605575980454
  0.3362413169919624  0.1404370490968754  0.3678791406315708
  0.3808237753374114  0.0994194608880195  0.6432687726070725
  0.4055393186060632  0.1209280608277912  0.8679710875918643
  0.1143238386156998  0.3842955504133855  0.1267747361347852
  0.1430346299771874  0.3646100314504860  0.3739596521604656
  0.1304475133244099  0.3978860365718636  0.6221770269333355
  0.0906224024661976  0.3817733765870958  0.8743527299381861
  0.9150801824252700  0.6175792642929028  0.1357499599687363
  0.8883164826191378  0.6245020633051979  0.3716292084871306
  0.8459843745907528  0.6273058095896650  0.6177721955223007
  0.8629939710527965  0.6363034957884308  0.8693792583217596
  0.6098951219710912  0.3857940964395316  0.1299851437922991
  0.6404237152803107  0.3605389190133466  0.3740284255754124
  0.6376471030999231  0.3854525282998850  0.6090502060917223
  0.6136096333015088  0.3508706637979521  0.8770310898095842
  0.4114210552749385  0.6240770345377266  0.1306785211788308
  0.3842415784766556  0.6167791921617645  0.3731666573425366
  0.3426908145779872  0.6261347561290703  0.6287986943502688
  0.3763135881128408  0.6239728312803805  0.8789491289571600
  0.1097242155381853  0.8622669129001046  0.1128760498157802
  0.1461416195877345  0.8864042405321318  0.3841621941862056
  0.1499256438564004  0.8811963187511050  0.6332608097316784
  0.1118003108790194  0.8778517093933268  0.8799961118127620
  0.5968784881590594  0.8737445403449033  0.1240711989022755
  0.6453795846338913  0.8882027019202025  0.3766477740855674
  0.6452285177539104  0.8595292359668445  0.6215675353717103
  0.6342240103056314  0.8553070225099910  0.8716752197728107
 -0.0008864964010331  0.0061570383145316  0.0032721876892280
  0.9930766048343427  0.9995207004569954  0.2412777665982028
  0.0119637304810789  0.9959932408270977  0.5012355628675559
  0.0070195085445450  0.0040990368433821  0.7542871608244545
  0.4912168864891242  0.0059212774780466  0.0056335884457884
  0.4830380557968250  0.0068930292819553  0.2482453078237360
  0.5112418887786581  0.9918495259589390  0.5098906201564027
  0.5117356488671438  0.9812416534914868  0.7540332501729684
  0.2380188020227008  0.2565046197661094 -0.0001412722684452
  0.2359367721331245  0.2468431044307041  0.2416899033577995
  0.2581100436277359  0.2575498043754431  0.5045034643891068
  0.2656252195248753  0.2551928222549502  0.7516875968248650
  0.9834091254882683  0.4999097243163791  0.9968215823969508
  0.0158159330122468  0.4964432194724111  0.2577550348181271
  0.0121795336227653  0.5110450886467253  0.4922846086369725
  0.9869014045084784  0.5109780392192376  0.7495790750883662
  0.7429894113889675  0.2481630727777037  0.0052446249910213
  0.7423512518910137  0.2484603474430109  0.2428184514433761
  0.7499685459475531  0.2471912278901740  0.5025844515773266
  0.7503300440661985  0.2488240793135886  0.7484026950502338
  0.4998048468478094  0.4937161061510799  0.9936876516942427
  0.5098079757810263  0.4995450321715247  0.2562838114436575
  0.5061932484592306  0.5025753832076852  0.4959355179385248
  0.4877147954776886  0.4991562182952122  0.7494084972549989
  0.2390852541134119  0.7464413940549063  0.9911702371456871
  0.2583968290118467  0.7564685267045681  0.2564360189474464
  0.2617104259904616  0.7511770419158839  0.4942505872312195
  0.2514131865152574  0.7505372035885988  0.7572255595943840
  0.7520762945792291  0.7525206373534389  0.9983248140920314
  0.7755059592983061  0.7606231715870834  0.2579006309288712
  0.7603398555588690  0.7529978624126450  0.4897179666276186
  0.7379467724072967  0.7350051439590610  0.7479783734576033
  0.9965862315543266  0.2546909532260890  0.1244190001275862
  0.0039028496238433  0.2491170056147350  0.3798630415741585
  0.9970037896495852  0.2459573677503152  0.6252843851353861
  0.0026473690643457  0.2512577030578897  0.8690550151123180
  0.4997322649028773  0.2495407662593451  0.1281948055345841
  0.5016265706660038  0.2511358479341173  0.3744033477499103
  0.5022419086519362  0.2470855285243359  0.6266778929725765
  0.4954001250557906  0.2480869410957328  0.8779756809325544
  0.2503895356054933  0.5004250260404076  0.1239663308562291
  0.2523244384549075  0.5005845298215570  0.3715456116497300
  0.2516822531332999  0.4979312725664214  0.6224699853170891
  0.2482251688193106  0.5022562358404274  0.8743022151516322
  0.9991288733190606  0.7497696296012429  0.1227436003591449
  0.0057341266019804  0.7524906381782732  0.3736149567968450
  0.9989746436811078  0.7534174702948084  0.6256199297668269
  0.9978306607016681  0.7466561283161737  0.8719406784072949
  0.7450490654706083  0.5030774212748864  0.1252378192628274
  0.7489170375596280  0.5051873082485118  0.3707943516531336
  0.7594962797227904  0.4906298270992596  0.6227155985202226
  0.7464257341842168  0.5022434754936689  0.8746687956587208
  0.5054030283879767  0.7477315117608614  0.1244677105018299
  0.5000583813008294  0.7498679946566547  0.3730809532432071
  0.5048414035822130  0.7471693848099267  0.6251678907339181
  0.4963016305942780  0.7509763613735538  0.8787289576425487
  0.2503152294637155  0.0015653590746264  0.1267194644049347
  0.2569500358217820  0.0025777116476272  0.3782335648986131
  0.2467864712644911  0.0105405971679504  0.6276026928620396
  0.2452037593863669  0.9969625446608195  0.8766694558136572
  0.7504182803382937  0.0021506640821430  0.1249221816268379
  0.7533450847621463  0.0022753989338718  0.3772738447193850
  0.7491302615596642  0.9992633266107559  0.6286685203815255
  0.7503215395375932  0.9920598513285249  0.8736711704635159
 
  0.00000000E+00  0.00000000E+00  0.00000000E+00
  0.00000000E+00  0.00000000E+00  0.00000000E+00
  0.00000000E+00  0.00000000E+00  0.00000000E+00
  0.00000000E+00  0.00000000E+00  0.00000000E+00
  0.00000000E+00  0.00000000E+00  0.00000000E+00
  0.00000000E+00  0.00000000E+00  0.00000000E+00
  0.00000000E+00  0.00000000E+00  0.00000000E+00
  0.00000000E+00  0.00000000E+00  0.00000000E+00
  0.00000000E+00  0.00000000E+00  0.00000000E+00
  0.00000000E+00  0.00000000E+00  0.00000000E+00
  0.00000000E+00  0.00000000E+00  0.00000000E+00
  0.00000000E+00  0.00000000E+00  0.00000000E+00
  0.00000000E+00  0.00000000E+00  0.00000000E+00
  0.00000000E+00  0.00000000E+00  0.00000000E+00
  0.00000000E+00  0.00000000E+00  0.00000000E+00
  0.00000000E+00  0.00000000E+00  0.00000000E+00
  0.00000000E+00  0.00000000E+00  0.00000000E+00
  0.00000000E+00  0.00000000E+00  0.00000000E+00
  0.00000000E+00  0.00000000E+00  0.00000000E+00
  0.00000000E+00  0.00000000E+00  0.00000000E+00
  0.00000000E+00  0.00000000E+00  0.00000000E+00
  0.00000000E+00  0.00000000E+00  0.00000000E+00
  0.00000000E+00  0.00000000E+00  0.00000000E+00
  0.00000000E+00  0.00000000E+00  0.00000000E+00
  0.00000000E+00  0.00000000E+00  0.00000000E+00
  0.00000000E+00  0.00000000E+00  0.00000000E+00
  0.00000000E+00  0.00000000E+00  0.00000000E+00
  0.00000000E+00  0.00000000E+00  0.00000000E+00
  0.00000000E+00  0.00000000E+00  0.00000000E+00
  0.00000000E+00  0.00000000E+00  0.00000000E+00
  0.00000000E+00  0.00000000E+00  0.00000000E+00
  0.00000000E+00  0.00000000E+00  0.00000000E+00
  0.00000000E+00  0.00000000E+00  0.00000000E+00
  0.00000000E+00  0.00000000E+00  0.00000000E+00
  0.00000000E+00  0.00000000E+00  0.00000000E+00
  0.00000000E+00  0.00000000E+00  0.00000000E+00
  0.00000000E+00  0.00000000E+00  0.00000000E+00
  0.00000000E+00  0.00000000E+00  0.00000000E+00
  0.00000000E+00  0.00000000E+00  0.00000000E+00
  0.00000000E+00  0.00000000E+00  0.00000000E+00
  0.00000000E+00  0.00000000E+00  0.00000000E+00
  0.00000000E+00  0.00000000E+00  0.00000000E+00
  0.00000000E+00  0.00000000E+00  0.00000000E+00
  0.00000000E+00  0.00000000E+00  0.00000000E+00
  0.00000000E+00  0.00000000E+00  0.00000000E+00
  0.00000000E+00  0.00000000E+00  0.00000000E+00
  0.00000000E+00  0.00000000E+00  0.00000000E+00
  0.00000000E+00  0.00000000E+00  0.00000000E+00
  0.00000000E+00  0.00000000E+00  0.00000000E+00
  0.00000000E+00  0.00000000E+00  0.00000000E+00
  0.00000000E+00  0.00000000E+00  0.00000000E+00
  0.00000000E+00  0.00000000E+00  0.00000000E+00
  0.00000000E+00  0.00000000E+00  0.00000000E+00
  0.00000000E+00  0.00000000E+00  0.00000000E+00
  0.00000000E+00  0.00000000E+00  0.00000000E+00
  0.00000000E+00  0.00000000E+00  0.00000000E+00
  0.00000000E+00  0.00000000E+00  0.00000000E+00
  0.00000000E+00  0.00000000E+00  0.00000000E+00
  0.00000000E+00  0.00000000E+00  0.00000000E+00
  0.00000000E+00  0.00000000E+00  0.00000000E+00
  0.00000000E+00  0.00000000E+00  0.00000000E+00
  0.00000000E+00  0.00000000E+00  0.00000000E+00
  0.00000000E+00  0.00000000E+00  0.00000000E+00
  0.00000000E+00  0.00000000E+00  0.00000000E+00
  0.00000000E+00  0.00000000E+00  0.00000000E+00
  0.00000000E+00  0.00000000E+00  0.00000000E+00
  0.00000000E+00  0.00000000E+00  0.00000000E+00
  0.00000000E+00  0.00000000E+00  0.00000000E+00
  0.00000000E+00  0.00000000E+00  0.00000000E+00
  0.00000000E+00  0.00000000E+00  0.00000000E+00
  0.00000000E+00  0.00000000E+00  0.00000000E+00
  0.00000000E+00  0.00000000E+00  0.00000000E+00
  0.00000000E+00  0.00000000E+00  0.00000000E+00
  0.00000000E+00  0.00000000E+00  0.00000000E+00
  0.00000000E+00  0.00000000E+00  0.00000000E+00
  0.00000000E+00  0.00000000E+00  0.00000000E+00
  0.00000000E+00  0.00000000E+00  0.00000000E+00
  0.00000000E+00  0.00000000E+00  0.00000000E+00
  0.00000000E+00  0.00000000E+00  0.00000000E+00
  0.00000000E+00  0.00000000E+00  0.00000000E+00
  0.00000000E+00  0.00000000E+00  0.00000000E+00
  0.00000000E+00  0.00000000E+00  0.00000000E+00
  0.00000000E+00  0.00000000E+00  0.00000000E+00
  0.00000000E+00  0.00000000E+00  0.00000000E+00
  0.00000000E+00  0.00000000E+00  0.00000000E+00
  0.00000000E+00  0.00000000E+00  0.00000000E+00
  0.00000000E+00  0.00000000E+00  0.00000000E+00
  0.00000000E+00  0.00000000E+00  0.00000000E+00
  0.00000000E+00  0.00000000E+00  0.00000000E+00
  0.00000000E+00  0.00000000E+00  0.00000000E+00
  0.00000000E+00  0.00000000E+00  0.00000000E+00
  0.00000000E+00  0.00000000E+00  0.00000000E+00
  0.00000000E+00  0.00000000E+00  0.00000000E+00
  0.00000000E+00  0.00000000E+00  0.00000000E+00
  0.00000000E+00  0.00000000E+00  0.00000000E+00
  0.00000000E+00  0.00000000E+00  0.00000000E+00
  0.00000000E+00  0.00000000E+00  0.00000000E+00
  0.00000000E+00  0.00000000E+00  0.00000000E+00
  0.00000000E+00  0.00000000E+00  0.00000000E+00
  0.00000000E+00  0.00000000E+00  0.00000000E+00
  0.00000000E+00  0.00000000E+00  0.00000000E+00
  0.00000000E+00  0.00000000E+00  0.00000000E+00
  0.00000000E+00  0.00000000E+00  0.00000000E+00
  0.00000000E+00  0.00000000E+00  0.00000000E+00
  0.00000000E+00  0.00000000E+00  0.00000000E+00
  0.00000000E+00  0.00000000E+00  0.00000000E+00
  0.00000000E+00  0.00000000E+00  0.00000000E+00
  0.00000000E+00  0.00000000E+00  0.00000000E+00
  0.00000000E+00  0.00000000E+00  0.00000000E+00
  0.00000000E+00  0.00000000E+00  0.00000000E+00
  0.00000000E+00  0.00000000E+00  0.00000000E+00
  0.00000000E+00  0.00000000E+00  0.00000000E+00
  0.00000000E+00  0.00000000E+00  0.00000000E+00
  0.00000000E+00  0.00000000E+00  0.00000000E+00
  0.00000000E+00  0.00000000E+00  0.00000000E+00
  0.00000000E+00  0.00000000E+00  0.00000000E+00
  0.00000000E+00  0.00000000E+00  0.00000000E+00
  0.00000000E+00  0.00000000E+00  0.00000000E+00
  0.00000000E+00  0.00000000E+00  0.00000000E+00
  0.00000000E+00  0.00000000E+00  0.00000000E+00
  0.00000000E+00  0.00000000E+00  0.00000000E+00
  0.00000000E+00  0.00000000E+00  0.00000000E+00
  0.00000000E+00  0.00000000E+00  0.00000000E+00
  0.00000000E+00  0.00000000E+00  0.00000000E+00
  0.00000000E+00  0.00000000E+00  0.00000000E+00
  0.00000000E+00  0.00000000E+00  0.00000000E+00
  0.00000000E+00  0.00000000E+00  0.00000000E+00
  0.00000000E+00  0.00000000E+00  0.00000000E+00
  0.00000000E+00  0.00000000E+00  0.00000000E+00
  0.00000000E+00  0.00000000E+00  0.00000000E+00
  0.00000000E+00  0.00000000E+00  0.00000000E+00
  0.00000000E+00  0.00000000E+00  0.00000000E+00
  0.00000000E+00  0.00000000E+00  0.00000000E+00
  0.00000000E+00  0.00000000E+00  0.00000000E+00
  0.00000000E+00  0.00000000E+00  0.00000000E+00
  0.00000000E+00  0.00000000E+00  0.00000000E+00
  0.00000000E+00  0.00000000E+00  0.00000000E+00
  0.00000000E+00  0.00000000E+00  0.00000000E+00
  0.00000000E+00  0.00000000E+00  0.00000000E+00
  0.00000000E+00  0.00000000E+00  0.00000000E+00
  0.00000000E+00  0.00000000E+00  0.00000000E+00
  0.00000000E+00  0.00000000E+00  0.00000000E+00
  0.00000000E+00  0.00000000E+00  0.00000000E+00
  0.00000000E+00  0.00000000E+00  0.00000000E+00
  0.00000000E+00  0.00000000E+00  0.00000000E+00
  0.00000000E+00  0.00000000E+00  0.00000000E+00
  0.00000000E+00  0.00000000E+00  0.00000000E+00
  0.00000000E+00  0.00000000E+00  0.00000000E+00
  0.00000000E+00  0.00000000E+00  0.00000000E+00
  0.00000000E+00  0.00000000E+00  0.00000000E+00
  0.00000000E+00  0.00000000E+00  0.00000000E+00
  0.00000000E+00  0.00000000E+00  0.00000000E+00
  0.00000000E+00  0.00000000E+00  0.00000000E+00
  0.00000000E+00  0.00000000E+00  0.00000000E+00
  0.00000000E+00  0.00000000E+00  0.00000000E+00
  0.00000000E+00  0.00000000E+00  0.00000000E+00
  0.00000000E+00  0.00000000E+00  0.00000000E+00
  0.00000000E+00  0.00000000E+00  0.00000000E+00
  0.00000000E+00  0.00000000E+00  0.00000000E+00
  0.00000000E+00  0.00000000E+00  0.00000000E+00
