Rb Br Sn                                
   1.00000000000000     
    11.7142029999999995  -11.7142029999999995    0.0000000000000000
    11.7142029999999995   11.7142029999999995    0.0000000000000000
     0.0000000000000000    0.0000000000000000   23.4284070000000000
   Br   Rb   Sn
    96    32    32
Direct
  0.0513462305555341  0.2443615219375514  0.9920767472453309
  0.9469228081870606  0.2423671239879230  0.2431832372081637
  0.0520209220278657  0.2550256471580959  0.4933372820593063
  0.9499774343153756  0.2574848733697777  0.7421172272158567
  0.4855411286434996  0.2904813955519748  0.0055813120427573
  0.5108973826391071  0.2010601429583519  0.2553427272366904
  0.4886340827801360  0.2973861867729146  0.5049430068043063
  0.5082249527696309  0.2126043394537145  0.7546867831999311
  0.2570812572824864  0.4506269379925891  0.9918187064298746
  0.2515582841588488  0.5513694298391258  0.2444635049568824
  0.2428576478741865  0.4509194379590311  0.4934491570297329
  0.2389093725407264  0.5525654672732840  0.7423440338245987
  0.9831917552015308  0.7944098430381298  0.9945306780022238
  0.0044768081587739  0.7022059503072997  0.2440253189861548
  0.9950034731113576  0.7991287903338389  0.4916617504479343
  0.0021981947629444  0.7082248846453489  0.7424119608687567
  0.7100030282327676  0.5033386625034391  0.0076841352505702
  0.8018948411903394  0.4893205438024091  0.2584504296621850
  0.7021468568688022  0.5085772692752669  0.5062244755397024
  0.7973070119063849  0.4792199824987315  0.7563585604101154
  0.5522824806130818  0.7417115276070688  0.9932474012343349
  0.4470368184633878  0.7372643198373082  0.2436850260127305
  0.5519891891343573  0.7549397143278854  0.4934494315662835
  0.4500758915706021  0.7564675025577229  0.7427823439484208
  0.2084318393306661  0.0037178003417774  0.0090899955339965
  0.3021211250443370  0.9881386573130980  0.2594161835120048
  0.2014163882327504  0.0075972260384607  0.5076443461103137
  0.3028622385270430  0.9775281718156809  0.7583838739675582
  0.7560057301020296  0.9510762735215451  0.9926653297352767
  0.7517946737281079  0.0523629766356231  0.2449890842748305
  0.7430319026226885  0.9510439572779604  0.4944962083909852
  0.7405407873642450  0.0522307862732420  0.7435700391645769
  0.1064230671270073  0.1111088778335285  0.1585785402791880
  0.1499490855176050  0.1558323402563011  0.3506001039884066
  0.0853014560593579  0.1114338734855091  0.6430909646849999
  0.0950405164709765  0.1032495273160961  0.8555690481585576
  0.5994520379718269  0.1073770642105181  0.1021161996121723
  0.6591457676046059  0.1438761455905622  0.4024000904005621
  0.5960792951901318  0.0919862523581366  0.6048200102526691
  0.5801142932131351  0.0929774170746648  0.8927002934554719
  0.3877071034582649  0.3950684671404261  0.1574611090907631
  0.3578157688165953  0.3404602776268184  0.3498335947748727
  0.3999386821406610  0.3970990895484255  0.6504868279484101
  0.3889599578278234  0.4033339683603268  0.8506072925105940
  0.0975559214013294  0.6051891146362190  0.1036635418421680
  0.1603979940242680  0.6441115362581721  0.4000585804946613
  0.0963983164833957  0.5918817763014275  0.6012331761123808
  0.1002383980198936  0.6152533072713576  0.9055009970082786
  0.8940613399508495  0.3997048434818839  0.1005916899697660
  0.8483684881976070  0.3546394644295449  0.3991264863240334
  0.8821950361922258  0.4069511248566806  0.5950872537781113
  0.8961661185197484  0.4011156646487076  0.9041290724873768
  0.5988108939413505  0.6025830968276029  0.1545075794836009
  0.6498803478511702  0.6561317447734466  0.3501051147715814
  0.5860458322872000  0.6122964629285801  0.6437549145562377
  0.5938588547206957  0.6009179437760220  0.8578815644749221
  0.3929019658298539  0.8969389197151468  0.1032436680183738
  0.3455904664966353  0.8519495042935477  0.3993017969330480
  0.3808459156891751  0.9051599527473387  0.5924756835410795
  0.3902607583508475  0.8959119310904780  0.9084763051131017
  0.8875633145091668  0.8944151780182706  0.1590248977234480
  0.8563633688113318  0.8421142987170126  0.3519391868947490
  0.9002227797489105  0.8939567346762400  0.6500829681731105
  0.8882816337746661  0.9042195609266618  0.8502141533783019
  0.8792675785488604  0.1319435724816449  0.0903635341090930
  0.9197808814876133  0.1018337025636553  0.3969376285997900
  0.8562380017808753  0.1525944396580153  0.5978324012304999
  0.8654751412891871  0.1485532213346248  0.8981562052975405
  0.3617062414288058  0.1462111607191745  0.1168647702140977
  0.3909214265716627  0.0951114170959545  0.4033417312580123
  0.3405789235297252  0.1715984775057637  0.6148585386303519
  0.3477301235555989  0.1640786449245225  0.8779253410718658
  0.1479743301038424  0.3652941718287646  0.1488418181619487
  0.1049605876539885  0.4154715116528476  0.3536383729872105
  0.1428274321581493  0.3663333604609115  0.6564699473503116
  0.1448474094305260  0.3693531897274557  0.8463762932078945
  0.8573474010689952  0.6496835059996880  0.1137985514991566
  0.8903193057038113  0.5974326731083829  0.4032770988356424
  0.8421485687606900  0.6693651543110688  0.6135940115200390
  0.8555704854778957  0.6559165844254560  0.8785319716813467
  0.6690574056712721  0.3396461745986080  0.1341554926658154
  0.6002316197189949  0.3849255635271729  0.3487613508660207
  0.6484912933416248  0.3624454802976198  0.6348075107308567
  0.6665636857782139  0.3450794307946135  0.8747033264740697
  0.3734345460507831  0.6359333911211243  0.0897455097192450
  0.4204434610815442  0.6007524114163779  0.3973791953548994
  0.3572595406635030  0.6520597398356572  0.5982525711596954
  0.3658771278107688  0.6472400970187370  0.9000016722572824
  0.1674517199968551  0.8391134772873367  0.1349386115004282
  0.0986297296005622  0.8876313386970253  0.3443458701764163
  0.1499880257262675  0.8607521795637819  0.6366002617392711
  0.1581739130817670  0.8551361900963483  0.8715114950636721
  0.6473826860824157  0.8659273168673624  0.1504133970868453
  0.6049355972826519  0.9154397407741759  0.3544992971103409
  0.6423473188263510  0.8665638348745074  0.6603890434888450
  0.6511670189724383  0.8614003100021033  0.8487024132377686
  0.9906025184693069  0.0134860673213846  0.9819420040511239
  0.9768122480968443  0.0209677685381477  0.2630558603564385
  0.9858660626479284  0.0092899366849607  0.5250457431383064
  0.9597115621393543  0.0410946897917709  0.7496594780730007
  0.5378902128818535  0.9609180917798804  0.0054611853410755
  0.5116515648901089  0.9919576138639737  0.2269225077595270
  0.5206465022376371  0.9758972731705816  0.4875569137762019
  0.5211924107077386  0.9912402612998122  0.7563914472647554
  0.2646637984826887  0.2378503998901986  0.0030017145886076
  0.2678809246900227  0.2325956368622631  0.2362419062366727
  0.2666870887008728  0.2359487815552913  0.4783523727442507
  0.2834236506695053  0.2654436189687427  0.7496668677098861
  0.0400417162809333  0.4644625486368132  0.0022018490756750
  0.0114845165915140  0.4901900032308566  0.2265565145996948
  0.0185831863781727  0.4745848542842648  0.4861240292564721
  0.0156888997215075  0.4870896830325154  0.7479930010768013
  0.7678215052174440  0.2794187467874083  0.0029818534932003
  0.7362868044164017  0.2652966260327107  0.2690278282504978
  0.7295148712664029  0.2776575505852782  0.5105289683658976
  0.7377119990093631  0.2646751271453531  0.7485520520785641
  0.4904359316225484  0.5118651299477404  0.9880475082084437
  0.4777142389391542  0.5160005287694222  0.2649546862598970
  0.4873410545204768  0.5105479375789912  0.5257023766410427
  0.4599411491441917  0.5415581628225034  0.7505687135101687
  0.2504713115794013  0.7729711951233903  0.9997855209478944
  0.2372472674494831  0.7645551418573526  0.2688641272426733
  0.2274940831061332  0.7747677405266788  0.5113805332070901
  0.2388048006940740  0.7648588414295697  0.7513506962672838
  0.7646331728339019  0.7383878459153941  0.9967796068570497
  0.7698268756655263  0.7332569890126371  0.2367216016115029
  0.7657609737607297  0.7364210425248262  0.4783699315877916
  0.7849482949022518  0.7591430361408360  0.7500323080647978
  0.0007482283744101  0.2363314011596987  0.1299687309361391
  0.0095810711573813  0.2427339157116236  0.3774294118206372
  0.9917851459311966  0.2501756452446438  0.6244236281436794
  0.0047691005977107  0.2438612905901133  0.8758855087179036
  0.5036769092205459  0.2451910137753385  0.1210526368690051
  0.4991645611914541  0.2501860135335647  0.3697962074220620
  0.4879999650230111  0.2563004807861110  0.6222245751966615
  0.4999523872955520  0.2398707409529349  0.8745041674560502
  0.2580797989630343  0.4969242271552967  0.1313829011038295
  0.2459404381309137  0.5017058220061609  0.3777482989472326
  0.2350435751560115  0.5013798117484507  0.6251389296988435
  0.2509686746401407  0.4965323079927109  0.8754853680911531
  0.0022182968480179  0.7415542767559494  0.1260034636011837
  0.9988342642951196  0.7561547403214232  0.3736081323839422
  0.9900101257831485  0.7516852819983222  0.6261841560081263
  0.0004913893511755  0.7473614223201536  0.8798201664555746
  0.7516718332056959  0.4892016826121168  0.1237121934973971
  0.7596659594242504  0.4959728402397348  0.3755557248245980
  0.7474962868368958  0.5021055072489449  0.6222521979823763
  0.7587442357762967  0.4899953295887478  0.8735429351738464
  0.4984779216414949  0.7343417608721604  0.1300626740454241
  0.5090309644418437  0.7422691697775520  0.3776068771900090
  0.4918810681774508  0.7511827545591175  0.6254424501768262
  0.5045253523285343  0.7421751064806145  0.8777537542694595
  0.2517548125543078  0.9875330034736903  0.1246504972638596
  0.2592323723407033  0.9944380924144164  0.3759874728195467
  0.2482664588958728  0.0005444340602549  0.6226537657693981
  0.2602797325805897  0.9930295585175081  0.8739701866469347
  0.7583006059097687  0.9962143257540870  0.1320335201918401
  0.7456717466052375  0.0019075313165425  0.3786288501848931
  0.7341060351135126  0.0003756069303412  0.6267800542089463
  0.7492926421200737  0.9949797630377603  0.8759356168666899
 
  0.00000000E+00  0.00000000E+00  0.00000000E+00
  0.00000000E+00  0.00000000E+00  0.00000000E+00
  0.00000000E+00  0.00000000E+00  0.00000000E+00
  0.00000000E+00  0.00000000E+00  0.00000000E+00
  0.00000000E+00  0.00000000E+00  0.00000000E+00
  0.00000000E+00  0.00000000E+00  0.00000000E+00
  0.00000000E+00  0.00000000E+00  0.00000000E+00
  0.00000000E+00  0.00000000E+00  0.00000000E+00
  0.00000000E+00  0.00000000E+00  0.00000000E+00
  0.00000000E+00  0.00000000E+00  0.00000000E+00
  0.00000000E+00  0.00000000E+00  0.00000000E+00
  0.00000000E+00  0.00000000E+00  0.00000000E+00
  0.00000000E+00  0.00000000E+00  0.00000000E+00
  0.00000000E+00  0.00000000E+00  0.00000000E+00
  0.00000000E+00  0.00000000E+00  0.00000000E+00
  0.00000000E+00  0.00000000E+00  0.00000000E+00
  0.00000000E+00  0.00000000E+00  0.00000000E+00
  0.00000000E+00  0.00000000E+00  0.00000000E+00
  0.00000000E+00  0.00000000E+00  0.00000000E+00
  0.00000000E+00  0.00000000E+00  0.00000000E+00
  0.00000000E+00  0.00000000E+00  0.00000000E+00
  0.00000000E+00  0.00000000E+00  0.00000000E+00
  0.00000000E+00  0.00000000E+00  0.00000000E+00
  0.00000000E+00  0.00000000E+00  0.00000000E+00
  0.00000000E+00  0.00000000E+00  0.00000000E+00
  0.00000000E+00  0.00000000E+00  0.00000000E+00
  0.00000000E+00  0.00000000E+00  0.00000000E+00
  0.00000000E+00  0.00000000E+00  0.00000000E+00
  0.00000000E+00  0.00000000E+00  0.00000000E+00
  0.00000000E+00  0.00000000E+00  0.00000000E+00
  0.00000000E+00  0.00000000E+00  0.00000000E+00
  0.00000000E+00  0.00000000E+00  0.00000000E+00
  0.00000000E+00  0.00000000E+00  0.00000000E+00
  0.00000000E+00  0.00000000E+00  0.00000000E+00
  0.00000000E+00  0.00000000E+00  0.00000000E+00
  0.00000000E+00  0.00000000E+00  0.00000000E+00
  0.00000000E+00  0.00000000E+00  0.00000000E+00
  0.00000000E+00  0.00000000E+00  0.00000000E+00
  0.00000000E+00  0.00000000E+00  0.00000000E+00
  0.00000000E+00  0.00000000E+00  0.00000000E+00
  0.00000000E+00  0.00000000E+00  0.00000000E+00
  0.00000000E+00  0.00000000E+00  0.00000000E+00
  0.00000000E+00  0.00000000E+00  0.00000000E+00
  0.00000000E+00  0.00000000E+00  0.00000000E+00
  0.00000000E+00  0.00000000E+00  0.00000000E+00
  0.00000000E+00  0.00000000E+00  0.00000000E+00
  0.00000000E+00  0.00000000E+00  0.00000000E+00
  0.00000000E+00  0.00000000E+00  0.00000000E+00
  0.00000000E+00  0.00000000E+00  0.00000000E+00
  0.00000000E+00  0.00000000E+00  0.00000000E+00
  0.00000000E+00  0.00000000E+00  0.00000000E+00
  0.00000000E+00  0.00000000E+00  0.00000000E+00
  0.00000000E+00  0.00000000E+00  0.00000000E+00
  0.00000000E+00  0.00000000E+00  0.00000000E+00
  0.00000000E+00  0.00000000E+00  0.00000000E+00
  0.00000000E+00  0.00000000E+00  0.00000000E+00
  0.00000000E+00  0.00000000E+00  0.00000000E+00
  0.00000000E+00  0.00000000E+00  0.00000000E+00
  0.00000000E+00  0.00000000E+00  0.00000000E+00
  0.00000000E+00  0.00000000E+00  0.00000000E+00
  0.00000000E+00  0.00000000E+00  0.00000000E+00
  0.00000000E+00  0.00000000E+00  0.00000000E+00
  0.00000000E+00  0.00000000E+00  0.00000000E+00
  0.00000000E+00  0.00000000E+00  0.00000000E+00
  0.00000000E+00  0.00000000E+00  0.00000000E+00
  0.00000000E+00  0.00000000E+00  0.00000000E+00
  0.00000000E+00  0.00000000E+00  0.00000000E+00
  0.00000000E+00  0.00000000E+00  0.00000000E+00
  0.00000000E+00  0.00000000E+00  0.00000000E+00
  0.00000000E+00  0.00000000E+00  0.00000000E+00
  0.00000000E+00  0.00000000E+00  0.00000000E+00
  0.00000000E+00  0.00000000E+00  0.00000000E+00
  0.00000000E+00  0.00000000E+00  0.00000000E+00
  0.00000000E+00  0.00000000E+00  0.00000000E+00
  0.00000000E+00  0.00000000E+00  0.00000000E+00
  0.00000000E+00  0.00000000E+00  0.00000000E+00
  0.00000000E+00  0.00000000E+00  0.00000000E+00
  0.00000000E+00  0.00000000E+00  0.00000000E+00
  0.00000000E+00  0.00000000E+00  0.00000000E+00
  0.00000000E+00  0.00000000E+00  0.00000000E+00
  0.00000000E+00  0.00000000E+00  0.00000000E+00
  0.00000000E+00  0.00000000E+00  0.00000000E+00
  0.00000000E+00  0.00000000E+00  0.00000000E+00
  0.00000000E+00  0.00000000E+00  0.00000000E+00
  0.00000000E+00  0.00000000E+00  0.00000000E+00
  0.00000000E+00  0.00000000E+00  0.00000000E+00
  0.00000000E+00  0.00000000E+00  0.00000000E+00
  0.00000000E+00  0.00000000E+00  0.00000000E+00
  0.00000000E+00  0.00000000E+00  0.00000000E+00
  0.00000000E+00  0.00000000E+00  0.00000000E+00
  0.00000000E+00  0.00000000E+00  0.00000000E+00
  0.00000000E+00  0.00000000E+00  0.00000000E+00
  0.00000000E+00  0.00000000E+00  0.00000000E+00
  0.00000000E+00  0.00000000E+00  0.00000000E+00
  0.00000000E+00  0.00000000E+00  0.00000000E+00
  0.00000000E+00  0.00000000E+00  0.00000000E+00
  0.00000000E+00  0.00000000E+00  0.00000000E+00
  0.00000000E+00  0.00000000E+00  0.00000000E+00
  0.00000000E+00  0.00000000E+00  0.00000000E+00
  0.00000000E+00  0.00000000E+00  0.00000000E+00
  0.00000000E+00  0.00000000E+00  0.00000000E+00
  0.00000000E+00  0.00000000E+00  0.00000000E+00
  0.00000000E+00  0.00000000E+00  0.00000000E+00
  0.00000000E+00  0.00000000E+00  0.00000000E+00
  0.00000000E+00  0.00000000E+00  0.00000000E+00
  0.00000000E+00  0.00000000E+00  0.00000000E+00
  0.00000000E+00  0.00000000E+00  0.00000000E+00
  0.00000000E+00  0.00000000E+00  0.00000000E+00
  0.00000000E+00  0.00000000E+00  0.00000000E+00
  0.00000000E+00  0.00000000E+00  0.00000000E+00
  0.00000000E+00  0.00000000E+00  0.00000000E+00
  0.00000000E+00  0.00000000E+00  0.00000000E+00
  0.00000000E+00  0.00000000E+00  0.00000000E+00
  0.00000000E+00  0.00000000E+00  0.00000000E+00
  0.00000000E+00  0.00000000E+00  0.00000000E+00
  0.00000000E+00  0.00000000E+00  0.00000000E+00
  0.00000000E+00  0.00000000E+00  0.00000000E+00
  0.00000000E+00  0.00000000E+00  0.00000000E+00
  0.00000000E+00  0.00000000E+00  0.00000000E+00
  0.00000000E+00  0.00000000E+00  0.00000000E+00
  0.00000000E+00  0.00000000E+00  0.00000000E+00
  0.00000000E+00  0.00000000E+00  0.00000000E+00
  0.00000000E+00  0.00000000E+00  0.00000000E+00
  0.00000000E+00  0.00000000E+00  0.00000000E+00
  0.00000000E+00  0.00000000E+00  0.00000000E+00
  0.00000000E+00  0.00000000E+00  0.00000000E+00
  0.00000000E+00  0.00000000E+00  0.00000000E+00
  0.00000000E+00  0.00000000E+00  0.00000000E+00
  0.00000000E+00  0.00000000E+00  0.00000000E+00
  0.00000000E+00  0.00000000E+00  0.00000000E+00
  0.00000000E+00  0.00000000E+00  0.00000000E+00
  0.00000000E+00  0.00000000E+00  0.00000000E+00
  0.00000000E+00  0.00000000E+00  0.00000000E+00
  0.00000000E+00  0.00000000E+00  0.00000000E+00
  0.00000000E+00  0.00000000E+00  0.00000000E+00
  0.00000000E+00  0.00000000E+00  0.00000000E+00
  0.00000000E+00  0.00000000E+00  0.00000000E+00
  0.00000000E+00  0.00000000E+00  0.00000000E+00
  0.00000000E+00  0.00000000E+00  0.00000000E+00
  0.00000000E+00  0.00000000E+00  0.00000000E+00
  0.00000000E+00  0.00000000E+00  0.00000000E+00
  0.00000000E+00  0.00000000E+00  0.00000000E+00
  0.00000000E+00  0.00000000E+00  0.00000000E+00
  0.00000000E+00  0.00000000E+00  0.00000000E+00
  0.00000000E+00  0.00000000E+00  0.00000000E+00
  0.00000000E+00  0.00000000E+00  0.00000000E+00
  0.00000000E+00  0.00000000E+00  0.00000000E+00
  0.00000000E+00  0.00000000E+00  0.00000000E+00
  0.00000000E+00  0.00000000E+00  0.00000000E+00
  0.00000000E+00  0.00000000E+00  0.00000000E+00
  0.00000000E+00  0.00000000E+00  0.00000000E+00
  0.00000000E+00  0.00000000E+00  0.00000000E+00
  0.00000000E+00  0.00000000E+00  0.00000000E+00
  0.00000000E+00  0.00000000E+00  0.00000000E+00
  0.00000000E+00  0.00000000E+00  0.00000000E+00
  0.00000000E+00  0.00000000E+00  0.00000000E+00
  0.00000000E+00  0.00000000E+00  0.00000000E+00
  0.00000000E+00  0.00000000E+00  0.00000000E+00
  0.00000000E+00  0.00000000E+00  0.00000000E+00
  0.00000000E+00  0.00000000E+00  0.00000000E+00
