I Rb Cd                                 
   1.00000000000000     
    12.0370779999999993  -12.0370779999999993    0.0000000000000000
    12.0370779999999993   12.0370779999999993    0.0000000000000000
     0.0000000000000000    0.0000000000000000   24.0741569999999996
   Cd   I    Rb
    32    96    32
Direct
  0.9855420723659013  0.9849354404469662  0.9557381207787480
  0.9995719575106884  0.0523044222987136  0.2324096011891229
  0.0097211386537500  0.9570874297689503  0.5193037657584405
  0.9940066704706412  0.0061119723632984  0.7480183914892349
  0.4624415056668284  0.9730689229515591  0.0262242601329620
  0.4963207559045120  0.0044200515940096  0.2479912473844614
  0.5221140616273674  0.9924062616423645  0.4859758521622611
  0.5032692214897839  0.0140895883091641  0.7430804381837288
  0.2985656836442180  0.2338011290041345  0.0234336060912274
  0.2615068112816951  0.2206588062162540  0.2516416396670927
  0.2309253786642947  0.2923574800082082  0.4604735052552512
  0.2110566474852369  0.2374078872646735  0.7223802629543539
  0.0135749891107224  0.5163738500703681  0.0421441172131104
  0.0165802880412477  0.4661719136435173  0.2609167791664036
  0.9972228914992112  0.5301683432184440  0.4773884990347778
  0.9854547035656147  0.4517750333254104  0.7531823177743909
  0.7919300196706667  0.1917030729782900  0.9746495110310130
  0.7207185130618439  0.2252215192177844  0.2412371562059171
  0.6988679509497409  0.2401172727669334  0.5307840623843716
  0.7566484271477338  0.2110091886284565  0.7630043886787489
  0.5173889336892009  0.4880468720847355 -0.0000217480439736
  0.4828313308457279  0.4466586988909609  0.2350401062526045
  0.4482061928889386  0.5295914194084886  0.4983896488738879
  0.5056338726672704  0.5328674701746986  0.7622589250272824
  0.2919003124348283  0.7348098635520831  0.0066525245511533
  0.2595351424842893  0.7819683077531133  0.2839698847538462
  0.2188838085702803  0.7326473454683394  0.5144725129300791
  0.2142983001244815  0.7855231732674519  0.7296778974820097
  0.7623611726306309  0.6730915798024381  0.0083535984876014
  0.7691736349693854  0.7273282382438900  0.2761406413499098
  0.7684305297895679  0.7665680549952791  0.4932100302881097
  0.7858362982238781  0.7732439947645746  0.7478029490106324
  0.1699472319137171  0.1461806833646416  0.9942357117565939
  0.1187163073800128  0.1606892407512870  0.1924589684175075
  0.0778670590346241  0.1049149626861842  0.5121625563838592
  0.1432042587978375  0.0832508617788265  0.7068129553881928
  0.6749762155919872  0.0951315101888429  0.0167072573213390
  0.5590558323193592  0.1670966156186500  0.2349374899847386
  0.5568048280536716  0.1391109240860056  0.5390007183415392
  0.6488234180196705  0.0907500920045892  0.7108113342233309
  0.3332305123947768  0.3815806865500500  0.9765829639487000
  0.3795234237066002  0.3368436502264516  0.2948805588401049
  0.3010736197605533  0.4464506007663566  0.4782063610317719
  0.4029398175090597  0.4037586770001946  0.7500042324312411
  0.1328416243139363  0.6326986319322758  0.0395280172848733
  0.1674603751657582  0.6584397434344560  0.2403398556508807
  0.1222688052217280  0.5981664361729653  0.5467200838207132
  0.1704154861071281  0.6272855960112168  0.7310299347431444
  0.8361738265010243  0.3460119299333246  0.9860578067351694
  0.9016152620628276  0.3529066415963039  0.2766054667053406
  0.8679618023402546  0.4300423132786031  0.4842369895215726
  0.8659805916882845  0.3532131087794208  0.7975458885879751
  0.6647941433544631  0.5475021003534207  0.0485351208362073
  0.6305953012222321  0.6567515372676859  0.2428626446344179
  0.6509030217199265  0.6452935247932651  0.5078649412007877
  0.6624273978369791  0.5552459086872176  0.7386494175807776
  0.3455149070892566  0.8945305328424744  0.9648673535915390
  0.4163326175410471  0.8343439615467121  0.2752962935958285
  0.3709831076341619  0.9289500878790616  0.4821794901031161
  0.3256745731463392  0.8767262109980350  0.7802810557368343
  0.8691248892241923  0.8700835654590265  0.9583282878537493
  0.8778462845996444  0.8420629921260401  0.2474762948308458
  0.8585731956271548  0.9182718411121089  0.4737417696352670
  0.8400615276930674  0.9316958458276251  0.7701863048508776
  0.9339795098260909  0.1166672620044536  0.0220218931517352
  0.8399495290897514  0.1047282174151149  0.2018201733126604
  0.8306409579012566  0.1503265705667810  0.5109183149518270
  0.8955710239643976  0.1422200696383688  0.7047305724938332
  0.4259885550950164  0.1315422354448329  0.9799485053218232
  0.3452699914406137  0.0802411478072301  0.2875044818870210
  0.3399483802907186  0.1740562406247937  0.4693980941561978
  0.3865562867666848  0.1372753859146781  0.7479093954041783
  0.0883693610916661  0.3733728468277593  0.0329724945301418
  0.1594905675479506  0.4102183698700160  0.2197622919800569
  0.0892029452753983  0.3493643291764663  0.5039977401734680
  0.1074177542434977  0.3690788317769094  0.6923360869084063
  0.8977365489564718  0.5774237968083609  0.9690788638642865
  0.8690944931084318  0.5974760603337391  0.3033334691574569
  0.9202014057876220  0.6860024638889282  0.4790656855810787
  0.8855491040325434  0.6611501759488202  0.7897193425752601
  0.5834786590015439  0.3439614700466995  0.9674414644118977
  0.6226306153060631  0.3989411940078939  0.2862663812778244
  0.6324613341430148  0.3632185565159852  0.4717035371986442
  0.6308892905786996  0.3096626441183871  0.7956528343055121
  0.4224461573876424  0.6238174921519649  0.0366272735148641
  0.4023144602054436  0.5886499035369258  0.2268377465396873
  0.3771925685536703  0.6731698303839581  0.5470284109170102
  0.4117269535585071  0.6601381679799456  0.7315025764163974
  0.1132133961346101  0.8911732600599298  0.9871854353744743
  0.1538084065650848  0.9058151802962864  0.2758316702018326
  0.1132574972066268  0.8528227607667805  0.4607582306136133
  0.0706399044580036  0.8514408661068253  0.7779918432215545
  0.5901334259590270  0.8726074602389197  0.0222631887122988
  0.6306673654569007  0.9181213805971028  0.2159284554833043
  0.6301240608152159  0.8815876653990112  0.5297757311856195
  0.6295979171729176  0.8162300489755002  0.7656649209352852
  0.0068203664196541  0.9572284300376911  0.1371630527024785
  0.9880222808602921  0.0443686695458765  0.3468422140542806
  0.9818329727651356  0.9228995999044994  0.6315838395221173
  0.0354713007490215  0.0700082226848044  0.8591287095944120
  0.4176781187315325  0.0176252761261420  0.1345959270604812
  0.5614896039313235  0.0111852936368637  0.3713133315260180
  0.4690027614717814  0.9348362194762009  0.6457080479275800
  0.5026359827297571  0.9875835774176072  0.8571306953217510
  0.3252891951021536  0.2587750681065862  0.1391999003300578
  0.1649402430541582  0.2501415715091750  0.3513261850531547
  0.2934287256449986  0.2680373222768205  0.6227052253293091
  0.2224560872228835  0.2668765312095246  0.8369947326652457
  0.9546476053325992  0.5367179628892196  0.1540930632118591
  0.0718214899557904  0.5263650622668269  0.3699951281871759
  0.9295223674487039  0.5108552530354198  0.6510621818660042
  0.0532461422161541  0.4969281570925751  0.8541412236241865
  0.7345801794003716  0.3016091751109473  0.1393718478117535
  0.7466246499201752  0.2080426668220972  0.3544816845772125
  0.7282895094419594  0.3018234210910128  0.6390709420864792
  0.8003080649211667  0.1287245201672400  0.8649426595879263
  0.4955148462389340  0.4173597273189567  0.1192072586172260
  0.4935830998372269  0.5535736907341080  0.3899786865148263
  0.5062761593127983  0.4766819499640582  0.5992628674268886
  0.4895282920958165  0.5477088889651008  0.8846250458654459
  0.2828358585308540  0.7875187703984513  0.1161933708981665
  0.2741683646324277  0.7120571650637587  0.3978905975252421
  0.2139912956419232  0.8329774789911483  0.6127693077967281
  0.2548963258488894  0.6961617579044378  0.8977124932268272
  0.8059583196769053  0.7385895081242653  0.1083547554591918
  0.7064777710624769  0.7924715961613412  0.3789977411506416
  0.7886177466933980  0.7529233005341807  0.6260599946112753
  0.6962913670366712  0.7133621130293413  0.9084246269515318
  0.9510876890028270  0.2821318862465310  0.1309131027044448
  0.9548333844380106  0.2462520153987183  0.4040293338775356
  0.9438941288801778  0.2924469997570635  0.6053234660514937
  0.0148128036410689  0.2830026314802288  0.9028122938679289
  0.5425891722400541  0.2185269984928051  0.0914633584735902
  0.5226393542616380  0.2278930831645729  0.3823511505220094
  0.5144117731742445  0.2662654481182464  0.6642162479709991
  0.4479811915085766  0.2665059160233146  0.8636506660667546
  0.2791860066582490  0.4938721173036461  0.1093947570385407
  0.2772920802860800  0.5151121401879174  0.3340290461612951
  0.2864723205146184  0.4960691881793240  0.6352941319398355
  0.2666164208541742  0.4946017685058358  0.8482278054792843
  0.0275821539436581  0.7495530763313418  0.1411143182384951
  0.0216764303078814  0.7476599765538873  0.3439797366669638
  0.0006858995994928  0.7119277706193174  0.6569947087721953
  0.0322534248504834  0.7234033407971487  0.9004673843803612
  0.7480507331586925  0.5026729293145796  0.1849628952017844
  0.7124398367895185  0.5277484038859136  0.3898782755140819
  0.7298673133343653  0.5044441276925621  0.6003737836727265
  0.7211748687440303  0.4792368026649640  0.8809394694101612
  0.5066598579183003  0.7607049139281126  0.1437250620985923
  0.4927824873281510  0.7680598764940271  0.4156063172574148
  0.5594105522490841  0.7318708627883724  0.6369634190181652
  0.4693032809063015  0.7647748174779527  0.8676488382677301
  0.2092376234394319  0.9946750379399067  0.1044265900191452
  0.2045792584643989  0.0325750646174447  0.3969116600206110
  0.2964195466742860  0.0494856800836587  0.6026234239062158
  0.2544973337848830  0.0422338685456643  0.8619143952461953
  0.7871360705920742  0.9515908065403452  0.0979084140093955
  0.7729317857990693  0.9931791930014676  0.3323596914343536
  0.7779337704624331  0.9860047676122504  0.6179599326799792
  0.6987654436433036  0.9405200382503530  0.8896272611213050
 
  0.00000000E+00  0.00000000E+00  0.00000000E+00
  0.00000000E+00  0.00000000E+00  0.00000000E+00
  0.00000000E+00  0.00000000E+00  0.00000000E+00
  0.00000000E+00  0.00000000E+00  0.00000000E+00
  0.00000000E+00  0.00000000E+00  0.00000000E+00
  0.00000000E+00  0.00000000E+00  0.00000000E+00
  0.00000000E+00  0.00000000E+00  0.00000000E+00
  0.00000000E+00  0.00000000E+00  0.00000000E+00
  0.00000000E+00  0.00000000E+00  0.00000000E+00
  0.00000000E+00  0.00000000E+00  0.00000000E+00
  0.00000000E+00  0.00000000E+00  0.00000000E+00
  0.00000000E+00  0.00000000E+00  0.00000000E+00
  0.00000000E+00  0.00000000E+00  0.00000000E+00
  0.00000000E+00  0.00000000E+00  0.00000000E+00
  0.00000000E+00  0.00000000E+00  0.00000000E+00
  0.00000000E+00  0.00000000E+00  0.00000000E+00
  0.00000000E+00  0.00000000E+00  0.00000000E+00
  0.00000000E+00  0.00000000E+00  0.00000000E+00
  0.00000000E+00  0.00000000E+00  0.00000000E+00
  0.00000000E+00  0.00000000E+00  0.00000000E+00
  0.00000000E+00  0.00000000E+00  0.00000000E+00
  0.00000000E+00  0.00000000E+00  0.00000000E+00
  0.00000000E+00  0.00000000E+00  0.00000000E+00
  0.00000000E+00  0.00000000E+00  0.00000000E+00
  0.00000000E+00  0.00000000E+00  0.00000000E+00
  0.00000000E+00  0.00000000E+00  0.00000000E+00
  0.00000000E+00  0.00000000E+00  0.00000000E+00
  0.00000000E+00  0.00000000E+00  0.00000000E+00
  0.00000000E+00  0.00000000E+00  0.00000000E+00
  0.00000000E+00  0.00000000E+00  0.00000000E+00
  0.00000000E+00  0.00000000E+00  0.00000000E+00
  0.00000000E+00  0.00000000E+00  0.00000000E+00
  0.00000000E+00  0.00000000E+00  0.00000000E+00
  0.00000000E+00  0.00000000E+00  0.00000000E+00
  0.00000000E+00  0.00000000E+00  0.00000000E+00
  0.00000000E+00  0.00000000E+00  0.00000000E+00
  0.00000000E+00  0.00000000E+00  0.00000000E+00
  0.00000000E+00  0.00000000E+00  0.00000000E+00
  0.00000000E+00  0.00000000E+00  0.00000000E+00
  0.00000000E+00  0.00000000E+00  0.00000000E+00
  0.00000000E+00  0.00000000E+00  0.00000000E+00
  0.00000000E+00  0.00000000E+00  0.00000000E+00
  0.00000000E+00  0.00000000E+00  0.00000000E+00
  0.00000000E+00  0.00000000E+00  0.00000000E+00
  0.00000000E+00  0.00000000E+00  0.00000000E+00
  0.00000000E+00  0.00000000E+00  0.00000000E+00
  0.00000000E+00  0.00000000E+00  0.00000000E+00
  0.00000000E+00  0.00000000E+00  0.00000000E+00
  0.00000000E+00  0.00000000E+00  0.00000000E+00
  0.00000000E+00  0.00000000E+00  0.00000000E+00
  0.00000000E+00  0.00000000E+00  0.00000000E+00
  0.00000000E+00  0.00000000E+00  0.00000000E+00
  0.00000000E+00  0.00000000E+00  0.00000000E+00
  0.00000000E+00  0.00000000E+00  0.00000000E+00
  0.00000000E+00  0.00000000E+00  0.00000000E+00
  0.00000000E+00  0.00000000E+00  0.00000000E+00
  0.00000000E+00  0.00000000E+00  0.00000000E+00
  0.00000000E+00  0.00000000E+00  0.00000000E+00
  0.00000000E+00  0.00000000E+00  0.00000000E+00
  0.00000000E+00  0.00000000E+00  0.00000000E+00
  0.00000000E+00  0.00000000E+00  0.00000000E+00
  0.00000000E+00  0.00000000E+00  0.00000000E+00
  0.00000000E+00  0.00000000E+00  0.00000000E+00
  0.00000000E+00  0.00000000E+00  0.00000000E+00
  0.00000000E+00  0.00000000E+00  0.00000000E+00
  0.00000000E+00  0.00000000E+00  0.00000000E+00
  0.00000000E+00  0.00000000E+00  0.00000000E+00
  0.00000000E+00  0.00000000E+00  0.00000000E+00
  0.00000000E+00  0.00000000E+00  0.00000000E+00
  0.00000000E+00  0.00000000E+00  0.00000000E+00
  0.00000000E+00  0.00000000E+00  0.00000000E+00
  0.00000000E+00  0.00000000E+00  0.00000000E+00
  0.00000000E+00  0.00000000E+00  0.00000000E+00
  0.00000000E+00  0.00000000E+00  0.00000000E+00
  0.00000000E+00  0.00000000E+00  0.00000000E+00
  0.00000000E+00  0.00000000E+00  0.00000000E+00
  0.00000000E+00  0.00000000E+00  0.00000000E+00
  0.00000000E+00  0.00000000E+00  0.00000000E+00
  0.00000000E+00  0.00000000E+00  0.00000000E+00
  0.00000000E+00  0.00000000E+00  0.00000000E+00
  0.00000000E+00  0.00000000E+00  0.00000000E+00
  0.00000000E+00  0.00000000E+00  0.00000000E+00
  0.00000000E+00  0.00000000E+00  0.00000000E+00
  0.00000000E+00  0.00000000E+00  0.00000000E+00
  0.00000000E+00  0.00000000E+00  0.00000000E+00
  0.00000000E+00  0.00000000E+00  0.00000000E+00
  0.00000000E+00  0.00000000E+00  0.00000000E+00
  0.00000000E+00  0.00000000E+00  0.00000000E+00
  0.00000000E+00  0.00000000E+00  0.00000000E+00
  0.00000000E+00  0.00000000E+00  0.00000000E+00
  0.00000000E+00  0.00000000E+00  0.00000000E+00
  0.00000000E+00  0.00000000E+00  0.00000000E+00
  0.00000000E+00  0.00000000E+00  0.00000000E+00
  0.00000000E+00  0.00000000E+00  0.00000000E+00
  0.00000000E+00  0.00000000E+00  0.00000000E+00
  0.00000000E+00  0.00000000E+00  0.00000000E+00
  0.00000000E+00  0.00000000E+00  0.00000000E+00
  0.00000000E+00  0.00000000E+00  0.00000000E+00
  0.00000000E+00  0.00000000E+00  0.00000000E+00
  0.00000000E+00  0.00000000E+00  0.00000000E+00
  0.00000000E+00  0.00000000E+00  0.00000000E+00
  0.00000000E+00  0.00000000E+00  0.00000000E+00
  0.00000000E+00  0.00000000E+00  0.00000000E+00
  0.00000000E+00  0.00000000E+00  0.00000000E+00
  0.00000000E+00  0.00000000E+00  0.00000000E+00
  0.00000000E+00  0.00000000E+00  0.00000000E+00
  0.00000000E+00  0.00000000E+00  0.00000000E+00
  0.00000000E+00  0.00000000E+00  0.00000000E+00
  0.00000000E+00  0.00000000E+00  0.00000000E+00
  0.00000000E+00  0.00000000E+00  0.00000000E+00
  0.00000000E+00  0.00000000E+00  0.00000000E+00
  0.00000000E+00  0.00000000E+00  0.00000000E+00
  0.00000000E+00  0.00000000E+00  0.00000000E+00
  0.00000000E+00  0.00000000E+00  0.00000000E+00
  0.00000000E+00  0.00000000E+00  0.00000000E+00
  0.00000000E+00  0.00000000E+00  0.00000000E+00
  0.00000000E+00  0.00000000E+00  0.00000000E+00
  0.00000000E+00  0.00000000E+00  0.00000000E+00
  0.00000000E+00  0.00000000E+00  0.00000000E+00
  0.00000000E+00  0.00000000E+00  0.00000000E+00
  0.00000000E+00  0.00000000E+00  0.00000000E+00
  0.00000000E+00  0.00000000E+00  0.00000000E+00
  0.00000000E+00  0.00000000E+00  0.00000000E+00
  0.00000000E+00  0.00000000E+00  0.00000000E+00
  0.00000000E+00  0.00000000E+00  0.00000000E+00
  0.00000000E+00  0.00000000E+00  0.00000000E+00
  0.00000000E+00  0.00000000E+00  0.00000000E+00
  0.00000000E+00  0.00000000E+00  0.00000000E+00
  0.00000000E+00  0.00000000E+00  0.00000000E+00
  0.00000000E+00  0.00000000E+00  0.00000000E+00
  0.00000000E+00  0.00000000E+00  0.00000000E+00
  0.00000000E+00  0.00000000E+00  0.00000000E+00
  0.00000000E+00  0.00000000E+00  0.00000000E+00
  0.00000000E+00  0.00000000E+00  0.00000000E+00
  0.00000000E+00  0.00000000E+00  0.00000000E+00
  0.00000000E+00  0.00000000E+00  0.00000000E+00
  0.00000000E+00  0.00000000E+00  0.00000000E+00
  0.00000000E+00  0.00000000E+00  0.00000000E+00
  0.00000000E+00  0.00000000E+00  0.00000000E+00
  0.00000000E+00  0.00000000E+00  0.00000000E+00
  0.00000000E+00  0.00000000E+00  0.00000000E+00
  0.00000000E+00  0.00000000E+00  0.00000000E+00
  0.00000000E+00  0.00000000E+00  0.00000000E+00
  0.00000000E+00  0.00000000E+00  0.00000000E+00
  0.00000000E+00  0.00000000E+00  0.00000000E+00
  0.00000000E+00  0.00000000E+00  0.00000000E+00
  0.00000000E+00  0.00000000E+00  0.00000000E+00
  0.00000000E+00  0.00000000E+00  0.00000000E+00
  0.00000000E+00  0.00000000E+00  0.00000000E+00
  0.00000000E+00  0.00000000E+00  0.00000000E+00
  0.00000000E+00  0.00000000E+00  0.00000000E+00
  0.00000000E+00  0.00000000E+00  0.00000000E+00
  0.00000000E+00  0.00000000E+00  0.00000000E+00
  0.00000000E+00  0.00000000E+00  0.00000000E+00
  0.00000000E+00  0.00000000E+00  0.00000000E+00
  0.00000000E+00  0.00000000E+00  0.00000000E+00
  0.00000000E+00  0.00000000E+00  0.00000000E+00
  0.00000000E+00  0.00000000E+00  0.00000000E+00
  0.00000000E+00  0.00000000E+00  0.00000000E+00
  0.00000000E+00  0.00000000E+00  0.00000000E+00
