Ca In  I                                
   1.00000000000000     
    12.3677290000000006  -12.3677290000000006    0.0000000000000000
    12.3677290000000006   12.3677290000000006    0.0000000000000000
     0.0000000000000000    0.0000000000000000   24.7354580000000013
   Ca   In   I 
    32    32    96
Direct
  0.9918957555266446  0.0436010618693716  0.0640800459839764
  0.8617569003830603  0.9371516408406164  0.3629717467469646
  0.0449071222073159  0.0316404519231860  0.4649168363456536
  0.0575208394339661  0.0512515260145669  0.7497698073101321
  0.5115217437918940  0.9067974596812773  0.9787121248789955
  0.4248737586157699  0.9238898641191845  0.3089361175128686
  0.5432537236142525  0.8852818980528716  0.4800319476741385
  0.5464940479486615  0.0639509482599751  0.8476896176755057
  0.1154546924657244  0.5347409235499151  0.9392904907775731
  0.3669019493180969  0.1201005566808086  0.2380295849257345
  0.2181520537723260  0.1862701639052294  0.5489322554998696
  0.1944842371010338  0.2690311158076921  0.7009563009779647
  0.9755000132704702  0.3982465836167133  0.0377280141413475
  0.9722582223271122  0.4465556052441420  0.2280749337743271
  0.9982929906862112  0.6944470693140462  0.4988698737136263
  0.0187519314917593  0.5853705202391329  0.7372805814328033
  0.7809354700894457  0.2039012073769981  0.9906510116287227
  0.8065740886440311  0.2830599314639580  0.1650392213999612
  0.7420674364987110  0.1915751230093494  0.5090687792850938
  0.7448165738296780  0.1726486001874188  0.7413221130501731
  0.5241433199749156  0.4310552288062834  0.9790593859136040
  0.4844893829417390  0.4038263271131655  0.2004381794878164
  0.4976446723729201  0.3860745328087353  0.5163790331824392
  0.3972782585545197  0.4506104557933336  0.8348296977304963
  0.3823682704657508  0.7202508572309956  0.0053478098092952
  0.3671029601982248  0.6203700853837805  0.2259270053257209
  0.2287308699810813  0.8388464271682761  0.5010979270445115
  0.1132957164136458  0.8065969161122427  0.6877568441848685
  0.8196307151311782  0.8812995660817053  0.0340689244835832
  0.8640988404942500  0.6514146471587066  0.3384605256494234
  0.6800878643578427  0.6613388347620535  0.5094441823215936
  0.6904571627859719  0.7021838766937920  0.7259268725628643
  0.1620292019138977  0.2085834331949088  0.1348437490922579
  0.9453457094348642  0.3698871551283987  0.3843625911205060
  0.9175225136852538  0.2694927798637470  0.6522206408085740
  0.0103339767957081  0.3300142278179922  0.8460214918387889
  0.5199099782290578  0.1844931977924002  0.0818448992942006
  0.5143526939638980  0.2262293880615825  0.3967198594012887
  0.4935445213892797  0.1304689714979775  0.5889350199565907
  0.5204617892361728  0.2487459162318557  0.8699672904420339
  0.2407474031945895  0.5243935587741891  0.1048046822979828
  0.2915361881686032  0.4928242831045658  0.4439964814612239
  0.2775052741374130  0.4962377252334984  0.6774730698336323
  0.3017312190995756  0.6697431734352091  0.8457007301252163
  0.9497040036886573  0.8052341008537794  0.1659878640281897
  0.1319020167416983  0.6152773415060075  0.3165075647568883
  0.8888770597102872  0.7746338613755784  0.6493864679180588
  0.0090440220615357  0.7902466192437426  0.9087220880784215
  0.6951061817170101  0.5551375852104475  0.1457007790302813
  0.6475741261626345  0.4478144663444847  0.3560939180876162
  0.7557994425506814  0.4470870672859882  0.5992051887764039
  0.7783396110717081  0.4867601166678560  0.8272597871615394
  0.5693476079898673  0.7721188109932278  0.1152862505814482
  0.5036350961409535  0.6958112821278469  0.3564106911708975
  0.4499239359638044  0.6826677152776160  0.6275119042063757
  0.5055235323646379  0.7338539154134497  0.8461966194165054
  0.2246801729508834  0.9740770143551153  0.1030775472604136
  0.1983915053220145  0.0835784827482404  0.3462898079870803
  0.3654775425547642  0.9702159814091635  0.7058957446441682
  0.2182308921140763  0.0222559351881667  0.8863752487142228
  0.7033384776875740  0.9111791561717268  0.1998680942714967
  0.6080102663003689  0.0848552168562431  0.3362033279917800
  0.6331671305072899  0.9373942110898287  0.6443672999136998
  0.8318262758601067  0.9637368852722777  0.8473655991624811
  0.1118138886457123  0.3611355832784999  0.9627029629751739
  0.9256695553559172  0.2744795862096058  0.2533901954246864
  0.0919267061499925  0.2010322160891387  0.4583797545078177
  0.7605516592044800  0.3438317728372162  0.7286627159867217
  0.6167264413561063  0.2777533991422346  0.9816643043646190
  0.4841030037486365  0.2509026298582706  0.2603958340162821
  0.3855497318113579  0.2409710755442343  0.5067819489247183
  0.3784356692405555  0.0746679291636665  0.8154307999690157
  0.2116500108430387  0.6741455900762338  0.9785100527051830
  0.3165343492643610  0.4491900455542480  0.2162735402952416
  0.3923425145145067  0.5075491208143473  0.5634378923005467
  0.0688138548096437  0.4061444903227804  0.7213059680873308
  0.0041747208874187  0.8680170689439929  0.0349206184258333
  0.8276955612118658  0.8104532119009689  0.2752661774793054
  0.0533782155891711  0.8676384699843342  0.5198309118852652
  0.9800526771916587  0.7555601593940959  0.7682789433316672
  0.6584761338203345  0.5184707175342407  0.0244103879437873
  0.9722481625929894  0.6275859831580248  0.2365606799449755
  0.6450849604709971  0.4825253210934607  0.4906553065899110
  0.8367249201385399  0.5849327362071259  0.7150443804416899
  0.5600261040942156  0.7356366628759882  0.9848186271973314
  0.4475908267976599  0.7798631483637263  0.2390078371197641
  0.5093556896793771  0.7075996763666027  0.4954689619378549
  0.5395818156929750  0.8008056360869829  0.7164564211595500
  0.1407917809332236  0.0914135743544023  0.0081833904577111
  0.2733282041336642  0.9648480846816443  0.2497282761740619
  0.2227211584822847  0.0189917578950390  0.4971498123110130
  0.1960534225928052  0.9332341041244057  0.7576708367015922
  0.8586568342183597  0.0446147458109823  0.9750300233232719
  0.7717086065241189  0.0451669617114596  0.2883069984801899
  0.6984051667266230  0.8381543791046666  0.5345281800763110
  0.5848421951163494  0.1001559832512040  0.7265588615178608
  0.3337436107015447  0.1260923363753125  0.1154857292662054
  0.2254432598258450  0.2187714679592327  0.2622452633006882
  0.0806536466276907  0.1545747168050418  0.6398238723173593
  0.1509914044735794  0.1824643276482986  0.8083513143252488
  0.7139786838492362  0.1617146253007647  0.1050523541433416
  0.5169813174782909  0.0182120462221323  0.2219333140398166
  0.6082495177049562  0.0691710165685999  0.4835911127291491
  0.7111159802112339  0.1420899337186173  0.8669028944970146
  0.4456061689921186  0.3659438706404926  0.0832353396376041
  0.4532781603855002  0.4155247133259666  0.3982438936851670
  0.3499108776273960  0.3432547751281933  0.7395331423490622
  0.3846196635186144  0.3288835851879452  0.9271201396915071
  0.2050770156008110  0.6611019681816769  0.1880673004373412
  0.1738589528840876  0.6798729899878686  0.4671934824735011
  0.0512782195907230  0.6596001664440759  0.6185334804243821
  0.1838661843580209  0.6610543111331522  0.7434460874959897
  0.8552391452014287  0.4454357098507846  0.1269279951880380
  0.8280496407675050  0.4778123004540560  0.3069258783257953
  0.8619542152835304  0.3207720031712789  0.5270022107066898
  0.8572378646109263  0.3495917620410673  0.9438648403173704
  0.5364250718193969  0.5572740171927834  0.2502228358259694
  0.6959468790359047  0.6484359686314444  0.3815465170530564
  0.6267689038302346  0.6094137214266819  0.6298898565006108
  0.6664860954837185  0.6408685601223820  0.8377472554619851
  0.4112107568015839  0.8632822249528066  0.0809351586476908
  0.3696803404733420  0.8525883817888114  0.4200741906520816
  0.2639563085461677  0.8081569150448499  0.6188611919265972
  0.3615002124602525  0.8509397341240167  0.9174579510897987
  0.8595500849572314  0.9760768073422086  0.1403146888261961
  0.8812211455273062  0.7849271615603106  0.4279040571065736
  0.7674450626343264  0.8599191166542871  0.7288386311660575
  0.8266743553747538  0.8072228568081535  0.9203192938723714
  0.9315427890915181  0.2244950141651220  0.0755173983496914
  0.8663398090376674  0.0508992281832810  0.4634618084508433
  0.7917199780436806  0.1230937370547922  0.6245755142142080
  0.9138540640673768  0.1529090394544391  0.7753078866166544
  0.6499262172460166  0.9348959895074317  0.0573147517928499
  0.3916570636613501  0.0825553410074837  0.3651750491724106
  0.3095247883335898  0.1393608395322264  0.6530226620510925
  0.4824975345020986  0.0798937348568880  0.9660977043091797
  0.0888156988253748  0.4054936561479701  0.1373096506816838
  0.0982012338852666  0.4282346092911110  0.3134949389695039
  0.2010068489899213  0.3508259852714462  0.5889790375244754
  0.2270321405073227  0.4944670430501947  0.8466748136201792
  0.9950043652895565  0.5715715133374537  0.0223473810373175
  0.9813105481476410  0.5690983002447313  0.4133583737573809
  0.8432634087533714  0.6181952533304805  0.5458828225525795
  0.9815930219162152  0.5328009046441684  0.8545444895873223
  0.6617742093247484  0.3744731405469100  0.1978727747229291
  0.7075323422585854  0.2630695632170834  0.3963029836030448
  0.6157914321016169  0.2852351168948443  0.5774414597110969
  0.5737797624357345  0.4182482480505554  0.8497031594755506
  0.4235743945279044  0.6167171540941978  0.1036640311794732
  0.3296208775303494  0.6189306800313197  0.3491720827602339
  0.4212895995070389  0.5823510239430918  0.7519983633321099
  0.4253922987326594  0.5681245042699883  0.9325767032057747
  0.0806507410052673  0.0455715774254693  0.1710558510740500
  0.0336953386613841  0.9612955621585978  0.3514759736048090
  0.9921880564003748  0.9369452127782469  0.6660675836715004
  0.0222138866088047  0.9701069548946034  0.8618894414457828
  0.7928982221230211  0.7435169685288250  0.1094184000916419
  0.5915907492715425  0.8930792538843700  0.3593639504651011
  0.4560280595902889  0.9378322603678770  0.5781895637234776
  0.6056682777493824  0.9042210945110879  0.8696834284476379
 
  0.00000000E+00  0.00000000E+00  0.00000000E+00
  0.00000000E+00  0.00000000E+00  0.00000000E+00
  0.00000000E+00  0.00000000E+00  0.00000000E+00
  0.00000000E+00  0.00000000E+00  0.00000000E+00
  0.00000000E+00  0.00000000E+00  0.00000000E+00
  0.00000000E+00  0.00000000E+00  0.00000000E+00
  0.00000000E+00  0.00000000E+00  0.00000000E+00
  0.00000000E+00  0.00000000E+00  0.00000000E+00
  0.00000000E+00  0.00000000E+00  0.00000000E+00
  0.00000000E+00  0.00000000E+00  0.00000000E+00
  0.00000000E+00  0.00000000E+00  0.00000000E+00
  0.00000000E+00  0.00000000E+00  0.00000000E+00
  0.00000000E+00  0.00000000E+00  0.00000000E+00
  0.00000000E+00  0.00000000E+00  0.00000000E+00
  0.00000000E+00  0.00000000E+00  0.00000000E+00
  0.00000000E+00  0.00000000E+00  0.00000000E+00
  0.00000000E+00  0.00000000E+00  0.00000000E+00
  0.00000000E+00  0.00000000E+00  0.00000000E+00
  0.00000000E+00  0.00000000E+00  0.00000000E+00
  0.00000000E+00  0.00000000E+00  0.00000000E+00
  0.00000000E+00  0.00000000E+00  0.00000000E+00
  0.00000000E+00  0.00000000E+00  0.00000000E+00
  0.00000000E+00  0.00000000E+00  0.00000000E+00
  0.00000000E+00  0.00000000E+00  0.00000000E+00
  0.00000000E+00  0.00000000E+00  0.00000000E+00
  0.00000000E+00  0.00000000E+00  0.00000000E+00
  0.00000000E+00  0.00000000E+00  0.00000000E+00
  0.00000000E+00  0.00000000E+00  0.00000000E+00
  0.00000000E+00  0.00000000E+00  0.00000000E+00
  0.00000000E+00  0.00000000E+00  0.00000000E+00
  0.00000000E+00  0.00000000E+00  0.00000000E+00
  0.00000000E+00  0.00000000E+00  0.00000000E+00
  0.00000000E+00  0.00000000E+00  0.00000000E+00
  0.00000000E+00  0.00000000E+00  0.00000000E+00
  0.00000000E+00  0.00000000E+00  0.00000000E+00
  0.00000000E+00  0.00000000E+00  0.00000000E+00
  0.00000000E+00  0.00000000E+00  0.00000000E+00
  0.00000000E+00  0.00000000E+00  0.00000000E+00
  0.00000000E+00  0.00000000E+00  0.00000000E+00
  0.00000000E+00  0.00000000E+00  0.00000000E+00
  0.00000000E+00  0.00000000E+00  0.00000000E+00
  0.00000000E+00  0.00000000E+00  0.00000000E+00
  0.00000000E+00  0.00000000E+00  0.00000000E+00
  0.00000000E+00  0.00000000E+00  0.00000000E+00
  0.00000000E+00  0.00000000E+00  0.00000000E+00
  0.00000000E+00  0.00000000E+00  0.00000000E+00
  0.00000000E+00  0.00000000E+00  0.00000000E+00
  0.00000000E+00  0.00000000E+00  0.00000000E+00
  0.00000000E+00  0.00000000E+00  0.00000000E+00
  0.00000000E+00  0.00000000E+00  0.00000000E+00
  0.00000000E+00  0.00000000E+00  0.00000000E+00
  0.00000000E+00  0.00000000E+00  0.00000000E+00
  0.00000000E+00  0.00000000E+00  0.00000000E+00
  0.00000000E+00  0.00000000E+00  0.00000000E+00
  0.00000000E+00  0.00000000E+00  0.00000000E+00
  0.00000000E+00  0.00000000E+00  0.00000000E+00
  0.00000000E+00  0.00000000E+00  0.00000000E+00
  0.00000000E+00  0.00000000E+00  0.00000000E+00
  0.00000000E+00  0.00000000E+00  0.00000000E+00
  0.00000000E+00  0.00000000E+00  0.00000000E+00
  0.00000000E+00  0.00000000E+00  0.00000000E+00
  0.00000000E+00  0.00000000E+00  0.00000000E+00
  0.00000000E+00  0.00000000E+00  0.00000000E+00
  0.00000000E+00  0.00000000E+00  0.00000000E+00
  0.00000000E+00  0.00000000E+00  0.00000000E+00
  0.00000000E+00  0.00000000E+00  0.00000000E+00
  0.00000000E+00  0.00000000E+00  0.00000000E+00
  0.00000000E+00  0.00000000E+00  0.00000000E+00
  0.00000000E+00  0.00000000E+00  0.00000000E+00
  0.00000000E+00  0.00000000E+00  0.00000000E+00
  0.00000000E+00  0.00000000E+00  0.00000000E+00
  0.00000000E+00  0.00000000E+00  0.00000000E+00
  0.00000000E+00  0.00000000E+00  0.00000000E+00
  0.00000000E+00  0.00000000E+00  0.00000000E+00
  0.00000000E+00  0.00000000E+00  0.00000000E+00
  0.00000000E+00  0.00000000E+00  0.00000000E+00
  0.00000000E+00  0.00000000E+00  0.00000000E+00
  0.00000000E+00  0.00000000E+00  0.00000000E+00
  0.00000000E+00  0.00000000E+00  0.00000000E+00
  0.00000000E+00  0.00000000E+00  0.00000000E+00
  0.00000000E+00  0.00000000E+00  0.00000000E+00
  0.00000000E+00  0.00000000E+00  0.00000000E+00
  0.00000000E+00  0.00000000E+00  0.00000000E+00
  0.00000000E+00  0.00000000E+00  0.00000000E+00
  0.00000000E+00  0.00000000E+00  0.00000000E+00
  0.00000000E+00  0.00000000E+00  0.00000000E+00
  0.00000000E+00  0.00000000E+00  0.00000000E+00
  0.00000000E+00  0.00000000E+00  0.00000000E+00
  0.00000000E+00  0.00000000E+00  0.00000000E+00
  0.00000000E+00  0.00000000E+00  0.00000000E+00
  0.00000000E+00  0.00000000E+00  0.00000000E+00
  0.00000000E+00  0.00000000E+00  0.00000000E+00
  0.00000000E+00  0.00000000E+00  0.00000000E+00
  0.00000000E+00  0.00000000E+00  0.00000000E+00
  0.00000000E+00  0.00000000E+00  0.00000000E+00
  0.00000000E+00  0.00000000E+00  0.00000000E+00
  0.00000000E+00  0.00000000E+00  0.00000000E+00
  0.00000000E+00  0.00000000E+00  0.00000000E+00
  0.00000000E+00  0.00000000E+00  0.00000000E+00
  0.00000000E+00  0.00000000E+00  0.00000000E+00
  0.00000000E+00  0.00000000E+00  0.00000000E+00
  0.00000000E+00  0.00000000E+00  0.00000000E+00
  0.00000000E+00  0.00000000E+00  0.00000000E+00
  0.00000000E+00  0.00000000E+00  0.00000000E+00
  0.00000000E+00  0.00000000E+00  0.00000000E+00
  0.00000000E+00  0.00000000E+00  0.00000000E+00
  0.00000000E+00  0.00000000E+00  0.00000000E+00
  0.00000000E+00  0.00000000E+00  0.00000000E+00
  0.00000000E+00  0.00000000E+00  0.00000000E+00
  0.00000000E+00  0.00000000E+00  0.00000000E+00
  0.00000000E+00  0.00000000E+00  0.00000000E+00
  0.00000000E+00  0.00000000E+00  0.00000000E+00
  0.00000000E+00  0.00000000E+00  0.00000000E+00
  0.00000000E+00  0.00000000E+00  0.00000000E+00
  0.00000000E+00  0.00000000E+00  0.00000000E+00
  0.00000000E+00  0.00000000E+00  0.00000000E+00
  0.00000000E+00  0.00000000E+00  0.00000000E+00
  0.00000000E+00  0.00000000E+00  0.00000000E+00
  0.00000000E+00  0.00000000E+00  0.00000000E+00
  0.00000000E+00  0.00000000E+00  0.00000000E+00
  0.00000000E+00  0.00000000E+00  0.00000000E+00
  0.00000000E+00  0.00000000E+00  0.00000000E+00
  0.00000000E+00  0.00000000E+00  0.00000000E+00
  0.00000000E+00  0.00000000E+00  0.00000000E+00
  0.00000000E+00  0.00000000E+00  0.00000000E+00
  0.00000000E+00  0.00000000E+00  0.00000000E+00
  0.00000000E+00  0.00000000E+00  0.00000000E+00
  0.00000000E+00  0.00000000E+00  0.00000000E+00
  0.00000000E+00  0.00000000E+00  0.00000000E+00
  0.00000000E+00  0.00000000E+00  0.00000000E+00
  0.00000000E+00  0.00000000E+00  0.00000000E+00
  0.00000000E+00  0.00000000E+00  0.00000000E+00
  0.00000000E+00  0.00000000E+00  0.00000000E+00
  0.00000000E+00  0.00000000E+00  0.00000000E+00
  0.00000000E+00  0.00000000E+00  0.00000000E+00
  0.00000000E+00  0.00000000E+00  0.00000000E+00
  0.00000000E+00  0.00000000E+00  0.00000000E+00
  0.00000000E+00  0.00000000E+00  0.00000000E+00
  0.00000000E+00  0.00000000E+00  0.00000000E+00
  0.00000000E+00  0.00000000E+00  0.00000000E+00
  0.00000000E+00  0.00000000E+00  0.00000000E+00
  0.00000000E+00  0.00000000E+00  0.00000000E+00
  0.00000000E+00  0.00000000E+00  0.00000000E+00
  0.00000000E+00  0.00000000E+00  0.00000000E+00
  0.00000000E+00  0.00000000E+00  0.00000000E+00
  0.00000000E+00  0.00000000E+00  0.00000000E+00
  0.00000000E+00  0.00000000E+00  0.00000000E+00
  0.00000000E+00  0.00000000E+00  0.00000000E+00
  0.00000000E+00  0.00000000E+00  0.00000000E+00
  0.00000000E+00  0.00000000E+00  0.00000000E+00
  0.00000000E+00  0.00000000E+00  0.00000000E+00
  0.00000000E+00  0.00000000E+00  0.00000000E+00
  0.00000000E+00  0.00000000E+00  0.00000000E+00
  0.00000000E+00  0.00000000E+00  0.00000000E+00
  0.00000000E+00  0.00000000E+00  0.00000000E+00
  0.00000000E+00  0.00000000E+00  0.00000000E+00
  0.00000000E+00  0.00000000E+00  0.00000000E+00
  0.00000000E+00  0.00000000E+00  0.00000000E+00
  0.00000000E+00  0.00000000E+00  0.00000000E+00
  0.00000000E+00  0.00000000E+00  0.00000000E+00
