Cl Rb Cd                                
   1.00000000000000     
    10.5744769999999999  -10.5744769999999999    0.0000000000000000
    10.5744769999999999   10.5744769999999999    0.0000000000000000
     0.0000000000000000    0.0000000000000000   21.1489539999999998
   Cd   Cl   Rb
    32    96    32
Direct
  0.0019825345252582  0.9984674556253565  0.0004699615820595
  0.9995655019199883  0.0003074703994857  0.2503252304117535
  0.9995208434621631  0.0005163575503798  0.4997914632112024
  0.0018695239939289  0.9987254870787937  0.7494800508131231
  0.4999174978243556  0.0001657049756277  0.9999946443496887
  0.5011139064814060  0.9984358664718002  0.2498675171048666
  0.5011080728147025  0.9981520555690857  0.5004838184749036
  0.4996166617871473  0.0002699552961372  0.7505149164450664
  0.2509279568539168  0.2490644224047181  0.9998638613991163
  0.2489932224979837  0.2506336425631926  0.2498115689435807
  0.2491613069954507  0.2505500481440526  0.5004919372269969
  0.2509196828849645  0.2489632570914063  0.7501211373334652
  0.9998942555074746  0.5001062333226587  0.0000165485028538
  0.0012522777285120  0.4986316654007602  0.2500359763577793
  0.0012813009025404  0.4981995168473352  0.5005960467228570
  0.9994491294057581  0.5002239442419870  0.7504701338112375
  0.7494169762795618  0.2505236268041688  0.0003877117200726
  0.7508219721070193  0.2489634576353787  0.2501869629903463
  0.7507180275563189  0.2487303116776170  0.4999565238839707
  0.7494528414063120  0.2505229597789473  0.7495775663383033
  0.5019402514997084  0.4984474911906503  0.0005123139107194
  0.4996329102921160  0.5001675880482145  0.2502042957273805
  0.4994273290560222  0.5001165770089319  0.4999755637239959
  0.5017332731105587  0.4983179555825734  0.7494013416283997
  0.2495366334528484  0.7505528833161743  0.0004219025494819
  0.2509634799339820  0.7491118463233715  0.2501902344099894
  0.2508687808282087  0.7488906322984484  0.4999443607464075
  0.2493639541844370  0.7505829435300988  0.7497056482520380
  0.7510566272817322  0.7489672345696430  0.0000699915283003
  0.7492901846863012  0.7507542947453749  0.2498318834205444
  0.7493566647882673  0.7505408762675325  0.5004835436256224
  0.7509129598060286  0.7489793428379028  0.7503806273758509
  0.1399069696988653  0.1091333721958801  0.0151571264641545
  0.1099821594608296  0.1407400292210392  0.2354645093906886
  0.1113493994414118  0.1394109528150788  0.5153715481180844
  0.1404741847813163  0.1087731695738259  0.7342504984985052
  0.6395871370022304  0.1103265958261214  0.9859257130347918
  0.6104188957787754  0.1390490273026191  0.2643383279905039
  0.6112334804429708  0.1381100862864440  0.4853922354879067
  0.6401986553790245  0.1095669817271558  0.7642823514462641
  0.3613159125588271  0.3885941660695343  0.9860997331276466
  0.3898154333831431  0.3598502346824800  0.2637788018094519
  0.3889885118987286  0.3607138126548451  0.4856729821699212
  0.3610935783557174  0.3887092866043850  0.7642570436909309
  0.1398381978836939  0.6099400828166698  0.9859592305038780
  0.1108009445502972  0.6394023935959746  0.2643503503292820
  0.1113246746591538  0.6385462550325034  0.4860623556792091
  0.1396206765773403  0.6099790093950517  0.7645934239229734
  0.8607236893269870  0.3881092475823800  0.0157755805832436
  0.8908879687467610  0.3597059746947215  0.2352519262027380
  0.8893177795635279  0.3610171110643328  0.5157329684539226
  0.8597174663722100  0.3889375469974634  0.7345585409930251
  0.6399822795776355  0.6091148075671730  0.0154426322703387
  0.6109897501571315  0.6398793506910481  0.2354696199936872
  0.6115400726660659  0.6389522871567667  0.5150965088923042
  0.6398560043623110  0.6088098269219254  0.7346483938346856
  0.3610934313614748  0.8881018488647734  0.0156296555621185
  0.3911054107762367  0.8598882892825764  0.2345506146545304
  0.3895343421330231  0.8608465535349010  0.5160981176578487
  0.3600519782122684  0.8888840671288248  0.7349780228014108
  0.8618805855291750  0.8883167884005734  0.9860939154182232
  0.8907274037462336  0.8593609194394097  0.2637207360590370
  0.8891196363384907  0.8608280705585820  0.4859849748714162
  0.8610374535253924  0.8889259234822071  0.7641871018427637
  0.8886858372903536  0.1374876381564824  0.9877519767674655
  0.8612919406983517  0.1105903443783769  0.2684671076894604
  0.8628178238934757  0.1122188695832455  0.4809581883570131
  0.8895376523183040  0.1384630474413454  0.7624952880639926
  0.3882819234188160  0.1372741845898871  0.9814528609800631
  0.3610692745288678  0.1105659022829149  0.2626333041181361
  0.3620647312814529  0.1113029449845099  0.4874664148814551
  0.3886983665586435  0.1376184211328816  0.7689327263377961
  0.1115040504205026  0.3603513839354959  0.0156194426302282
  0.1438348078938221  0.3933614129299366  0.2368016514091955
  0.1428676416365885  0.3922225454047313  0.5144251640753869
  0.1110554218884832  0.3603294566413754  0.7348299225023783
  0.8883841510262325  0.6372492503592427  0.9816466638971439
  0.8614489783263769  0.6104596110821517  0.2629591253155690
  0.8621711052990004  0.6113248362892363  0.4873574351486515
  0.8882089777941253  0.6375256437031999  0.7690423783259359
  0.6073426368208044  0.3562878153560577  0.0134032743964827
  0.6393430408165006  0.3884947662575139  0.2343726812200214
  0.6384209898086315  0.3877539802955728  0.5156088200737619
  0.6068390937486110  0.3556328928405769  0.7364985179203670
  0.3889834432881738  0.6376729130111715  0.9877956206254384
  0.3622205709309578  0.6113453293377341  0.2684804325400057
  0.3629119913480485  0.6121530590276453  0.4812995174400087
  0.3889398807547090  0.6380033623045379  0.7623978055876190
  0.1077141036736488  0.8563555096467074  0.0134917709906784
  0.1402607679037713  0.8893634108977563  0.2347177008284018
  0.1386814303006685  0.8881807893512326  0.5153096101639157
  0.1069420180570065  0.8559251831121865  0.7366948547152983
  0.6121326842819637  0.8607170251487470  0.0159080591709496
  0.6440747032995843  0.8931958190086927  0.2369569142944462
  0.6426582226448579  0.8918516494898869  0.5143152377785325
  0.6111219939494570  0.8599473771926992  0.7349090833149226
  0.9704988130292798  0.0000004536573582  0.1256541346425573
  0.0299403243820301  0.9998407743265494  0.3750160135301851
  0.9695374579728149  0.9998847107481705  0.6244443967293625
  0.0303577056971178  0.9993029314145705  0.8749469336253238
  0.5001553393929593  0.0301951638769864  0.1245823992230211
  0.5003480656155266  0.9687934421463608  0.3752154031579676
  0.5000747102214655  0.0298752628489386  0.6257814529092840
  0.5002251227200313  0.9691313868579576  0.8753053207473601
  0.2806549799180659  0.2486471159466984  0.1246000633755723
  0.2203279616766416  0.2504400779488056  0.3752093788145115
  0.2813411892035010  0.2491233456519782  0.6256090681284892
  0.2206029461852779  0.2486819451050080  0.8750009958790258
  0.9999780320972996  0.5298964051862947  0.1247290033122662
  0.0012487760283730  0.4692799075987713  0.3753095714213466
  0.9997661553505787  0.5302726474610409  0.6258023376890005
  0.9993170369442119  0.4692303696838388  0.8752143521224537
  0.7506092834696682  0.2186492756729373  0.1256123957778040
  0.7504038319967707  0.2792755218617511  0.3750294078592931
  0.7505061037061814  0.2179560368154881  0.6244145908700743
  0.7500305417337351  0.2791759060582231  0.8750947407944988
  0.4702193840404555  0.4999447461021554  0.1256381476401343
  0.5297963596583097  0.4993814013698437  0.3750207110695211
  0.4692611792192410  0.4998914605498216  0.6244575843210480
  0.5300219655556803  0.4992850807007183  0.8750006027488688
  0.2505284257673062  0.7186962749871584  0.1255803451640911
  0.2513300884826070  0.7792682503804678  0.3750661912812843
  0.2505372209193565  0.7187006509708994  0.6246248335898090
  0.2500862518611871  0.7790940754791589  0.8751598922759120
  0.7810764227482176  0.7487046743215036  0.1247560413739683
  0.7206276316221987  0.7505834273313234  0.3752031798433202
  0.7810597249748135  0.7486009927753385  0.6257073703006547
  0.7206932565780491  0.7487851202349721  0.8752853282648084
  0.9892596742391366  0.2386089088242774  0.1189505112957588
  0.9889708799017121  0.2383054552565277  0.3741156601348654
  0.9895483234423321  0.2388909428067645  0.6308773560549052
  0.9990440351484909  0.2478865169037692  0.8755475615713433
  0.5068692427070028  0.2560406540138309  0.1359490217179966
  0.5003449434627959  0.2500510134964911  0.3751756800902908
  0.5069152524254603  0.2555612679256681  0.6137372299049503
  0.5115006717413649  0.2608735501042068  0.8750807986425566
  0.2441273321379137  0.4926439155089395  0.1140303742110387
  0.2397126582860201  0.4880413002576673  0.3753005469016588
  0.2432470357343463  0.4928766536067635  0.6367736379437604
  0.2520225932304540  0.5006196509480251  0.8751710488342781
  0.0075368665607834  0.7561287278189290  0.1360973485253290
  0.0005637118916780  0.7498211139421592  0.3755305099738912
  0.0069376679142378  0.7561640091183743  0.6138327562171132
  0.0113679072563244  0.7609867105052971  0.8751990327276780
  0.7618469307031017  0.5103365120892541  0.1312965196816909
  0.7513366704028042  0.5007906800190509  0.3753345160696493
  0.7612803266618976  0.5101974496901964  0.6185174104234487
  0.7616120816530851  0.5105715181467498  0.8753555931381880
  0.4899475658712831  0.7382127414365739  0.1190707760705588
  0.4894771199099576  0.7378719620687653  0.3746128985639073
  0.4898720410777102  0.7386008951362657  0.6308888559460041
  0.4991924135181164  0.7475706261481815  0.8751690706162223
  0.2618799791686484  0.0103633315647850  0.1308933920848571
  0.2515458745552294  0.0007337212294731  0.3751930125408054
  0.2616573169847342  0.0098208552028968  0.6185191851474003
  0.2617590079476155  0.0105675148167741  0.8750230041619033
  0.7444919413825338  0.9926907710604334  0.1142425066894909
  0.7384159935367783  0.9885238883536669  0.3755621790014514
  0.7435938102950654  0.9920097483808341  0.6366456718094966
  0.7515059794794199  0.0000210086085826  0.8754767669865738
 
  0.00000000E+00  0.00000000E+00  0.00000000E+00
  0.00000000E+00  0.00000000E+00  0.00000000E+00
  0.00000000E+00  0.00000000E+00  0.00000000E+00
  0.00000000E+00  0.00000000E+00  0.00000000E+00
  0.00000000E+00  0.00000000E+00  0.00000000E+00
  0.00000000E+00  0.00000000E+00  0.00000000E+00
  0.00000000E+00  0.00000000E+00  0.00000000E+00
  0.00000000E+00  0.00000000E+00  0.00000000E+00
  0.00000000E+00  0.00000000E+00  0.00000000E+00
  0.00000000E+00  0.00000000E+00  0.00000000E+00
  0.00000000E+00  0.00000000E+00  0.00000000E+00
  0.00000000E+00  0.00000000E+00  0.00000000E+00
  0.00000000E+00  0.00000000E+00  0.00000000E+00
  0.00000000E+00  0.00000000E+00  0.00000000E+00
  0.00000000E+00  0.00000000E+00  0.00000000E+00
  0.00000000E+00  0.00000000E+00  0.00000000E+00
  0.00000000E+00  0.00000000E+00  0.00000000E+00
  0.00000000E+00  0.00000000E+00  0.00000000E+00
  0.00000000E+00  0.00000000E+00  0.00000000E+00
  0.00000000E+00  0.00000000E+00  0.00000000E+00
  0.00000000E+00  0.00000000E+00  0.00000000E+00
  0.00000000E+00  0.00000000E+00  0.00000000E+00
  0.00000000E+00  0.00000000E+00  0.00000000E+00
  0.00000000E+00  0.00000000E+00  0.00000000E+00
  0.00000000E+00  0.00000000E+00  0.00000000E+00
  0.00000000E+00  0.00000000E+00  0.00000000E+00
  0.00000000E+00  0.00000000E+00  0.00000000E+00
  0.00000000E+00  0.00000000E+00  0.00000000E+00
  0.00000000E+00  0.00000000E+00  0.00000000E+00
  0.00000000E+00  0.00000000E+00  0.00000000E+00
  0.00000000E+00  0.00000000E+00  0.00000000E+00
  0.00000000E+00  0.00000000E+00  0.00000000E+00
  0.00000000E+00  0.00000000E+00  0.00000000E+00
  0.00000000E+00  0.00000000E+00  0.00000000E+00
  0.00000000E+00  0.00000000E+00  0.00000000E+00
  0.00000000E+00  0.00000000E+00  0.00000000E+00
  0.00000000E+00  0.00000000E+00  0.00000000E+00
  0.00000000E+00  0.00000000E+00  0.00000000E+00
  0.00000000E+00  0.00000000E+00  0.00000000E+00
  0.00000000E+00  0.00000000E+00  0.00000000E+00
  0.00000000E+00  0.00000000E+00  0.00000000E+00
  0.00000000E+00  0.00000000E+00  0.00000000E+00
  0.00000000E+00  0.00000000E+00  0.00000000E+00
  0.00000000E+00  0.00000000E+00  0.00000000E+00
  0.00000000E+00  0.00000000E+00  0.00000000E+00
  0.00000000E+00  0.00000000E+00  0.00000000E+00
  0.00000000E+00  0.00000000E+00  0.00000000E+00
  0.00000000E+00  0.00000000E+00  0.00000000E+00
  0.00000000E+00  0.00000000E+00  0.00000000E+00
  0.00000000E+00  0.00000000E+00  0.00000000E+00
  0.00000000E+00  0.00000000E+00  0.00000000E+00
  0.00000000E+00  0.00000000E+00  0.00000000E+00
  0.00000000E+00  0.00000000E+00  0.00000000E+00
  0.00000000E+00  0.00000000E+00  0.00000000E+00
  0.00000000E+00  0.00000000E+00  0.00000000E+00
  0.00000000E+00  0.00000000E+00  0.00000000E+00
  0.00000000E+00  0.00000000E+00  0.00000000E+00
  0.00000000E+00  0.00000000E+00  0.00000000E+00
  0.00000000E+00  0.00000000E+00  0.00000000E+00
  0.00000000E+00  0.00000000E+00  0.00000000E+00
  0.00000000E+00  0.00000000E+00  0.00000000E+00
  0.00000000E+00  0.00000000E+00  0.00000000E+00
  0.00000000E+00  0.00000000E+00  0.00000000E+00
  0.00000000E+00  0.00000000E+00  0.00000000E+00
  0.00000000E+00  0.00000000E+00  0.00000000E+00
  0.00000000E+00  0.00000000E+00  0.00000000E+00
  0.00000000E+00  0.00000000E+00  0.00000000E+00
  0.00000000E+00  0.00000000E+00  0.00000000E+00
  0.00000000E+00  0.00000000E+00  0.00000000E+00
  0.00000000E+00  0.00000000E+00  0.00000000E+00
  0.00000000E+00  0.00000000E+00  0.00000000E+00
  0.00000000E+00  0.00000000E+00  0.00000000E+00
  0.00000000E+00  0.00000000E+00  0.00000000E+00
  0.00000000E+00  0.00000000E+00  0.00000000E+00
  0.00000000E+00  0.00000000E+00  0.00000000E+00
  0.00000000E+00  0.00000000E+00  0.00000000E+00
  0.00000000E+00  0.00000000E+00  0.00000000E+00
  0.00000000E+00  0.00000000E+00  0.00000000E+00
  0.00000000E+00  0.00000000E+00  0.00000000E+00
  0.00000000E+00  0.00000000E+00  0.00000000E+00
  0.00000000E+00  0.00000000E+00  0.00000000E+00
  0.00000000E+00  0.00000000E+00  0.00000000E+00
  0.00000000E+00  0.00000000E+00  0.00000000E+00
  0.00000000E+00  0.00000000E+00  0.00000000E+00
  0.00000000E+00  0.00000000E+00  0.00000000E+00
  0.00000000E+00  0.00000000E+00  0.00000000E+00
  0.00000000E+00  0.00000000E+00  0.00000000E+00
  0.00000000E+00  0.00000000E+00  0.00000000E+00
  0.00000000E+00  0.00000000E+00  0.00000000E+00
  0.00000000E+00  0.00000000E+00  0.00000000E+00
  0.00000000E+00  0.00000000E+00  0.00000000E+00
  0.00000000E+00  0.00000000E+00  0.00000000E+00
  0.00000000E+00  0.00000000E+00  0.00000000E+00
  0.00000000E+00  0.00000000E+00  0.00000000E+00
  0.00000000E+00  0.00000000E+00  0.00000000E+00
  0.00000000E+00  0.00000000E+00  0.00000000E+00
  0.00000000E+00  0.00000000E+00  0.00000000E+00
  0.00000000E+00  0.00000000E+00  0.00000000E+00
  0.00000000E+00  0.00000000E+00  0.00000000E+00
  0.00000000E+00  0.00000000E+00  0.00000000E+00
  0.00000000E+00  0.00000000E+00  0.00000000E+00
  0.00000000E+00  0.00000000E+00  0.00000000E+00
  0.00000000E+00  0.00000000E+00  0.00000000E+00
  0.00000000E+00  0.00000000E+00  0.00000000E+00
  0.00000000E+00  0.00000000E+00  0.00000000E+00
  0.00000000E+00  0.00000000E+00  0.00000000E+00
  0.00000000E+00  0.00000000E+00  0.00000000E+00
  0.00000000E+00  0.00000000E+00  0.00000000E+00
  0.00000000E+00  0.00000000E+00  0.00000000E+00
  0.00000000E+00  0.00000000E+00  0.00000000E+00
  0.00000000E+00  0.00000000E+00  0.00000000E+00
  0.00000000E+00  0.00000000E+00  0.00000000E+00
  0.00000000E+00  0.00000000E+00  0.00000000E+00
  0.00000000E+00  0.00000000E+00  0.00000000E+00
  0.00000000E+00  0.00000000E+00  0.00000000E+00
  0.00000000E+00  0.00000000E+00  0.00000000E+00
  0.00000000E+00  0.00000000E+00  0.00000000E+00
  0.00000000E+00  0.00000000E+00  0.00000000E+00
  0.00000000E+00  0.00000000E+00  0.00000000E+00
  0.00000000E+00  0.00000000E+00  0.00000000E+00
  0.00000000E+00  0.00000000E+00  0.00000000E+00
  0.00000000E+00  0.00000000E+00  0.00000000E+00
  0.00000000E+00  0.00000000E+00  0.00000000E+00
  0.00000000E+00  0.00000000E+00  0.00000000E+00
  0.00000000E+00  0.00000000E+00  0.00000000E+00
  0.00000000E+00  0.00000000E+00  0.00000000E+00
  0.00000000E+00  0.00000000E+00  0.00000000E+00
  0.00000000E+00  0.00000000E+00  0.00000000E+00
  0.00000000E+00  0.00000000E+00  0.00000000E+00
  0.00000000E+00  0.00000000E+00  0.00000000E+00
  0.00000000E+00  0.00000000E+00  0.00000000E+00
  0.00000000E+00  0.00000000E+00  0.00000000E+00
  0.00000000E+00  0.00000000E+00  0.00000000E+00
  0.00000000E+00  0.00000000E+00  0.00000000E+00
  0.00000000E+00  0.00000000E+00  0.00000000E+00
  0.00000000E+00  0.00000000E+00  0.00000000E+00
  0.00000000E+00  0.00000000E+00  0.00000000E+00
  0.00000000E+00  0.00000000E+00  0.00000000E+00
  0.00000000E+00  0.00000000E+00  0.00000000E+00
  0.00000000E+00  0.00000000E+00  0.00000000E+00
  0.00000000E+00  0.00000000E+00  0.00000000E+00
  0.00000000E+00  0.00000000E+00  0.00000000E+00
  0.00000000E+00  0.00000000E+00  0.00000000E+00
  0.00000000E+00  0.00000000E+00  0.00000000E+00
  0.00000000E+00  0.00000000E+00  0.00000000E+00
  0.00000000E+00  0.00000000E+00  0.00000000E+00
  0.00000000E+00  0.00000000E+00  0.00000000E+00
  0.00000000E+00  0.00000000E+00  0.00000000E+00
  0.00000000E+00  0.00000000E+00  0.00000000E+00
  0.00000000E+00  0.00000000E+00  0.00000000E+00
  0.00000000E+00  0.00000000E+00  0.00000000E+00
  0.00000000E+00  0.00000000E+00  0.00000000E+00
  0.00000000E+00  0.00000000E+00  0.00000000E+00
  0.00000000E+00  0.00000000E+00  0.00000000E+00
  0.00000000E+00  0.00000000E+00  0.00000000E+00
  0.00000000E+00  0.00000000E+00  0.00000000E+00
  0.00000000E+00  0.00000000E+00  0.00000000E+00
  0.00000000E+00  0.00000000E+00  0.00000000E+00
  0.00000000E+00  0.00000000E+00  0.00000000E+00
  0.00000000E+00  0.00000000E+00  0.00000000E+00
