Sr Rb F                                 
   1.00000000000000     
     9.5807369999999992   -9.5807369999999992    0.0000000000000000
     9.5807369999999992    9.5807369999999992    0.0000000000000000
     0.0000000000000000    0.0000000000000000   19.1614739999999983
   F    Rb   Sr
    96    32    32
Direct
 -0.0021273227121102  0.2910162165667394 -0.0001504179912671
  0.0019042748147592  0.2083628084328759  0.2499633448172626
 -0.0017067608540447  0.2912254891848848  0.4998652594944711
  0.0024703503437452  0.2086365731450812  0.7499920609328009
  0.4583993774312982  0.2519322976954970 -0.0000265778200936
  0.5410596743328361  0.2478317784483453  0.2499697796530415
  0.4585267867479842  0.2516822590144385  0.5000124365698819
  0.5414103045366550  0.2479936484567377  0.7499344714191534
  0.2518619852000358  0.4584921196170622  0.0000573606167636
  0.2478464248118286  0.5412156235567988  0.2500890405349884
  0.2518571983280545  0.4582273367874571  0.5000312474180171
  0.2477761149627073  0.5413220645495715  0.7499480391054708
  0.9587010887282266  0.7518040383698021  0.0000446208676965
  0.0410919113644017  0.7477961928938125  0.2500595779652351
  0.9581899424974953  0.7517988196558389  0.4999991347143514
  0.0413426279246084  0.7481437872503345  0.7498735892001190
  0.7912524576576879  0.4985943267147579 -0.0001184643727837
  0.7082171895479983  0.5009453187431935  0.2499512560340191
  0.7912544648551960  0.4973682488931655  0.4997939284859844
  0.7088459080208016  0.5015970044289670  0.7499516573293813
  0.4986744261205657  0.7912825943316223 -0.0002578723969420
  0.5006700303942530  0.7083555634605758  0.2498841078814334
  0.4990810750101444  0.7912036575179093  0.4998047644010503
  0.5015422972220274  0.7083081509842656  0.7499068834215937
  0.2912043472231244 -0.0013418703418750 -0.0002075492804863
  0.2082794073181461  0.0018162115851460  0.2498831732503570
  0.2914128690008024 -0.0014934096175980  0.4997265926089519
  0.2087840923694731  0.0012408176670810  0.7498602434918104
  0.7520406827407352  0.9586182985851225  0.0000393573752584
  0.7470865414769030  0.0412508452380608  0.2500083030645625
  0.7516445062827053  0.9586863890623009  0.4999565741144578
  0.7482467455809357  0.0414411124673194  0.7499445636061773
  0.1514289825538611  0.1516747019248900  0.1119649192771406
  0.1117929718926083  0.1117994532482535  0.4023034256996574
  0.1524929549146214  0.1522466942220171  0.6124146045252583
  0.1119432800740304  0.1118467204641410  0.9023743565404696
  0.6359977960008143  0.1360247107515398  0.0969342948204883
  0.5960545363315626  0.0962196415889225  0.3873212074773617
  0.6370151924588591  0.1369856098105771  0.5968404194071424
  0.5969419476266039  0.0968875436566477  0.8874477441834661
  0.3628801754170175  0.3628994226809175  0.1532317214181498
  0.4031563063895914  0.4030876622621496  0.3627994453668228
  0.3637751650566496  0.3636345591726838  0.6530629196924223
  0.4031646187485708  0.4031468929688941  0.8624466852815198
  0.1363096676479853  0.6364165064650811  0.0973864930683549
  0.0965700738329769  0.5964268974057332  0.3874849129498804
  0.1368760702266848  0.6368300463770100  0.5967562767721150
  0.0967399874298759  0.5967724985786019  0.8875580940137678
  0.8474295152192630  0.3475843372270707  0.1374653888607385
  0.8877300309531485  0.3876498316889993  0.3470664650210246
  0.8482282190826012  0.3479937955660688  0.6376514769185172
  0.8880324111918589  0.3879488835777517  0.8470661564079754
  0.6515452163859020  0.6516513455781159  0.1123363818603448
  0.6118783321611989  0.6117745793304076  0.4020206766232610
  0.6524918352602861  0.6521605461302098  0.6121636013791865
  0.6119337337582453  0.6118330994981331  0.9023427855965053
  0.3474425988938746  0.8476419149363377  0.1372703289788394
  0.3873615975589939  0.8874123971542747  0.3469906619965122
  0.3485384304606295  0.8482210738986989  0.6373034845864096
  0.3880745148518937  0.8879441192305340  0.8470036661119358
  0.8628639770116623  0.8630456071955170  0.1535992121818127
  0.9026423695635544  0.9027153596726222  0.3627283738737880
  0.8635853653652005  0.8635338308300211  0.6529369505021200
  0.9032152469292482  0.9032238534186882  0.8625412984134549
  0.8950743645754956  0.1042188132956563  0.1047896318315752
  0.8527319846206356  0.1467495836534521  0.3943211519556945
  0.8960627304642090  0.1042309327725667  0.6049002894138221
  0.8529032118247997  0.1469011667337207  0.8944467739316261
  0.3950774697794514  0.1041658975911091  0.1451851760313721
  0.3525980043028960  0.1469538903363243  0.3553473113108281
  0.3959981109893478  0.1043356091169277  0.6450580570915194
  0.3530786657957759  0.1469797750534248  0.8554447341093685
  0.1037322636282592  0.3955364472486476  0.1450097206997841
  0.1469018749599434  0.3528399670427497  0.3553147861251478
  0.1045435323382106  0.3956573253010679  0.6450692905362150
  0.1471717967401770  0.3528392584876134  0.8556140233749081
  0.8950791093103112  0.6041277271997889  0.1450654244405248
  0.8528109279207911  0.6465087020665053  0.3553063604031474
  0.8960172581609809  0.6041988464765515  0.6451123973480907
  0.8530120498176585  0.6471037692983912  0.8554205719147953
  0.6039487054362799  0.3952583101385337  0.1045934583646319
  0.6469545799056259  0.3523164379347782  0.3944060857681267
  0.6044428131783673  0.3959817486022189  0.6048298689310666
  0.6471824556635603  0.3527445977720446  0.8944361117805041
  0.3953407618294845  0.6039570284582172  0.1046415532549587
  0.3528160821395607  0.6467270352856165  0.3950597093647230
  0.3955825654591955  0.6046718803845769  0.6046333523193022
  0.3527773071074969  0.6470639855167154  0.8947018052740583
  0.1040781893003843  0.8953255682708796  0.1046035031407514
  0.1464585253768367  0.8529775782510891  0.3946607752033078
  0.1046529347657622  0.8956857114983635  0.6045763679437729
  0.1471181831898105  0.8528309621951460  0.8944329755000309
  0.6040103512601691  0.8951361687413579  0.1450990242831287
  0.6468792983576745  0.8525612750129931  0.3553851697308767
  0.6045853984610938  0.8955935582958996  0.6452973998565452
  0.6469352171654762  0.8530367510288841  0.8551753938050292
 -0.0106495077469426 -0.0101128857160471  0.9935522277932984
 -0.0067150400865793 -0.0069404754081756  0.2402622498862880
  0.9892642702154822  0.9889392861510934  0.4933930298167258
 -0.0063376266311085 -0.0063833873414222  0.7396586902373096
  0.5062081034734435  0.0063950795820658  0.0099735117475766
  0.5104002871471369  0.0104632772388387  0.2562728138463635
  0.5064394465190292  0.0066136253215188  0.5103346225566026
  0.5107739481961387  0.0106840540287045  0.7563206298232398
  0.2430358976891747  0.2428600866165575  0.9888997656895436
  0.2387411476625056  0.2388822819789869  0.2431272669451726
  0.2431837329272165  0.2429279047057097  0.4888945722656345
  0.2399074762103372  0.2398279799473573  0.7430415607025941
  0.0061420804033909  0.5063469440874649  0.0102738771581720
  0.0104547986527550  0.5103805914101316  0.2562853682575351
  0.0065451673609865  0.5064168234255637  0.5103879324249647
  0.0107115017732704  0.5106024508886164  0.7563322288158052
  0.7600765807251014  0.2594980936526144  0.0068716694960035
  0.7562678658386781  0.2566339005419640  0.2607983052296483
  0.7609691754420304  0.2609074637741776  0.5068023032963037
  0.7566075502710115  0.2570028467493818  0.7609246553312710
  0.4890941016192871  0.4892852361989972  0.9935648628485012
  0.4932549963418826  0.4932005486758735  0.2398476123946538
  0.4893224831861969  0.4895907088466147  0.4934641061148776
  0.4938112650407891  0.4935060592774496  0.7397843687731164
  0.2594669249128371  0.7599358253490636  0.0069988040399680
  0.2566646619372042  0.7563990198480025  0.2605493768085080
  0.2607175256733411  0.7606848395114121  0.5070787963428151
  0.2568792931944263  0.7569689794670658  0.7605601991120536
  0.7428341326026694  0.7428895714504883 -0.0108354322920500
  0.7389286390212897  0.7388923220261661  0.2431778544085521
  0.7426848687066426  0.7434688568723422  0.4885277788988985
  0.7399733642063725  0.7397380574812243  0.7429556293645295
  0.9995613899603852  0.2497722210976440  0.1248805981187133
 -0.0001636626075539  0.2498486493864053  0.3748901349378895
  0.0002849271391428  0.2499493185808371  0.6249814466111792
 -0.0000134692975518  0.2499636019082913  0.8748622704931841
  0.4995461010136179  0.2497480892075953  0.1249896298245183
  0.4997160370349384  0.2497381785678588  0.3749854499373078
  0.5002361466386784  0.2501842264618026  0.6249181479616016
  0.4999969631580005  0.2500269008902894  0.8749846628100372
  0.2497156664491600  0.4995878419288317  0.1250678244527408
  0.2498481865852227  0.4998014080468059  0.3750799877047758
  0.2501500049031519  0.5000329997398766  0.6249361672942919
  0.2499549777510592  0.4999779165819497  0.8750186854133981
 -0.0004761737659098  0.7498405563689003  0.1250621431536376
 -0.0002688686640793  0.7495304122039154  0.3750534300078045
  0.0001065853034248  0.7500620717460044  0.6248949729585114
  0.0000064013988613  0.7500611498444975  0.8749705493092018
  0.7495624460401297  0.4995804594313328  0.1248348978244524
  0.7498108995337616  0.4994777635169212  0.3748612333648705
  0.7502220133125739  0.5000668912372460  0.6249564829330613
  0.7500241864054008  0.4999628736126722  0.8749230843846274
  0.4995392272079070  0.7497010872633609  0.1247838614363575
  0.4996101547675544  0.7497568151372919  0.3747942707294283
  0.5003738624848268  0.7499349755924420  0.6248882183233506
  0.4999236721631403  0.7498825121803423  0.8748525151801698
  0.2495759958389188  0.9998202553891032  0.1247832947456553
  0.2497411494084505 -0.0002179673030819  0.3748261740110250
  0.2502711707340138  0.0001498958973579  0.6248917013945632
  0.2500382474643036 -0.0001162582777695  0.8748322550877010
  0.7496110701215314 -0.0004064146295815  0.1250640860123338
  0.7495424094835578 -0.0001263205524934  0.3749410718417240
  0.7501513802846790  0.0001483934611908  0.6249598605064760
  0.7500159249071059 -0.0001312300762603  0.8749664817425914
 
  0.00000000E+00  0.00000000E+00  0.00000000E+00
  0.00000000E+00  0.00000000E+00  0.00000000E+00
  0.00000000E+00  0.00000000E+00  0.00000000E+00
  0.00000000E+00  0.00000000E+00  0.00000000E+00
  0.00000000E+00  0.00000000E+00  0.00000000E+00
  0.00000000E+00  0.00000000E+00  0.00000000E+00
  0.00000000E+00  0.00000000E+00  0.00000000E+00
  0.00000000E+00  0.00000000E+00  0.00000000E+00
  0.00000000E+00  0.00000000E+00  0.00000000E+00
  0.00000000E+00  0.00000000E+00  0.00000000E+00
  0.00000000E+00  0.00000000E+00  0.00000000E+00
  0.00000000E+00  0.00000000E+00  0.00000000E+00
  0.00000000E+00  0.00000000E+00  0.00000000E+00
  0.00000000E+00  0.00000000E+00  0.00000000E+00
  0.00000000E+00  0.00000000E+00  0.00000000E+00
  0.00000000E+00  0.00000000E+00  0.00000000E+00
  0.00000000E+00  0.00000000E+00  0.00000000E+00
  0.00000000E+00  0.00000000E+00  0.00000000E+00
  0.00000000E+00  0.00000000E+00  0.00000000E+00
  0.00000000E+00  0.00000000E+00  0.00000000E+00
  0.00000000E+00  0.00000000E+00  0.00000000E+00
  0.00000000E+00  0.00000000E+00  0.00000000E+00
  0.00000000E+00  0.00000000E+00  0.00000000E+00
  0.00000000E+00  0.00000000E+00  0.00000000E+00
  0.00000000E+00  0.00000000E+00  0.00000000E+00
  0.00000000E+00  0.00000000E+00  0.00000000E+00
  0.00000000E+00  0.00000000E+00  0.00000000E+00
  0.00000000E+00  0.00000000E+00  0.00000000E+00
  0.00000000E+00  0.00000000E+00  0.00000000E+00
  0.00000000E+00  0.00000000E+00  0.00000000E+00
  0.00000000E+00  0.00000000E+00  0.00000000E+00
  0.00000000E+00  0.00000000E+00  0.00000000E+00
  0.00000000E+00  0.00000000E+00  0.00000000E+00
  0.00000000E+00  0.00000000E+00  0.00000000E+00
  0.00000000E+00  0.00000000E+00  0.00000000E+00
  0.00000000E+00  0.00000000E+00  0.00000000E+00
  0.00000000E+00  0.00000000E+00  0.00000000E+00
  0.00000000E+00  0.00000000E+00  0.00000000E+00
  0.00000000E+00  0.00000000E+00  0.00000000E+00
  0.00000000E+00  0.00000000E+00  0.00000000E+00
  0.00000000E+00  0.00000000E+00  0.00000000E+00
  0.00000000E+00  0.00000000E+00  0.00000000E+00
  0.00000000E+00  0.00000000E+00  0.00000000E+00
  0.00000000E+00  0.00000000E+00  0.00000000E+00
  0.00000000E+00  0.00000000E+00  0.00000000E+00
  0.00000000E+00  0.00000000E+00  0.00000000E+00
  0.00000000E+00  0.00000000E+00  0.00000000E+00
  0.00000000E+00  0.00000000E+00  0.00000000E+00
  0.00000000E+00  0.00000000E+00  0.00000000E+00
  0.00000000E+00  0.00000000E+00  0.00000000E+00
  0.00000000E+00  0.00000000E+00  0.00000000E+00
  0.00000000E+00  0.00000000E+00  0.00000000E+00
  0.00000000E+00  0.00000000E+00  0.00000000E+00
  0.00000000E+00  0.00000000E+00  0.00000000E+00
  0.00000000E+00  0.00000000E+00  0.00000000E+00
  0.00000000E+00  0.00000000E+00  0.00000000E+00
  0.00000000E+00  0.00000000E+00  0.00000000E+00
  0.00000000E+00  0.00000000E+00  0.00000000E+00
  0.00000000E+00  0.00000000E+00  0.00000000E+00
  0.00000000E+00  0.00000000E+00  0.00000000E+00
  0.00000000E+00  0.00000000E+00  0.00000000E+00
  0.00000000E+00  0.00000000E+00  0.00000000E+00
  0.00000000E+00  0.00000000E+00  0.00000000E+00
  0.00000000E+00  0.00000000E+00  0.00000000E+00
  0.00000000E+00  0.00000000E+00  0.00000000E+00
  0.00000000E+00  0.00000000E+00  0.00000000E+00
  0.00000000E+00  0.00000000E+00  0.00000000E+00
  0.00000000E+00  0.00000000E+00  0.00000000E+00
  0.00000000E+00  0.00000000E+00  0.00000000E+00
  0.00000000E+00  0.00000000E+00  0.00000000E+00
  0.00000000E+00  0.00000000E+00  0.00000000E+00
  0.00000000E+00  0.00000000E+00  0.00000000E+00
  0.00000000E+00  0.00000000E+00  0.00000000E+00
  0.00000000E+00  0.00000000E+00  0.00000000E+00
  0.00000000E+00  0.00000000E+00  0.00000000E+00
  0.00000000E+00  0.00000000E+00  0.00000000E+00
  0.00000000E+00  0.00000000E+00  0.00000000E+00
  0.00000000E+00  0.00000000E+00  0.00000000E+00
  0.00000000E+00  0.00000000E+00  0.00000000E+00
  0.00000000E+00  0.00000000E+00  0.00000000E+00
  0.00000000E+00  0.00000000E+00  0.00000000E+00
  0.00000000E+00  0.00000000E+00  0.00000000E+00
  0.00000000E+00  0.00000000E+00  0.00000000E+00
  0.00000000E+00  0.00000000E+00  0.00000000E+00
  0.00000000E+00  0.00000000E+00  0.00000000E+00
  0.00000000E+00  0.00000000E+00  0.00000000E+00
  0.00000000E+00  0.00000000E+00  0.00000000E+00
  0.00000000E+00  0.00000000E+00  0.00000000E+00
  0.00000000E+00  0.00000000E+00  0.00000000E+00
  0.00000000E+00  0.00000000E+00  0.00000000E+00
  0.00000000E+00  0.00000000E+00  0.00000000E+00
  0.00000000E+00  0.00000000E+00  0.00000000E+00
  0.00000000E+00  0.00000000E+00  0.00000000E+00
  0.00000000E+00  0.00000000E+00  0.00000000E+00
  0.00000000E+00  0.00000000E+00  0.00000000E+00
  0.00000000E+00  0.00000000E+00  0.00000000E+00
  0.00000000E+00  0.00000000E+00  0.00000000E+00
  0.00000000E+00  0.00000000E+00  0.00000000E+00
  0.00000000E+00  0.00000000E+00  0.00000000E+00
  0.00000000E+00  0.00000000E+00  0.00000000E+00
  0.00000000E+00  0.00000000E+00  0.00000000E+00
  0.00000000E+00  0.00000000E+00  0.00000000E+00
  0.00000000E+00  0.00000000E+00  0.00000000E+00
  0.00000000E+00  0.00000000E+00  0.00000000E+00
  0.00000000E+00  0.00000000E+00  0.00000000E+00
  0.00000000E+00  0.00000000E+00  0.00000000E+00
  0.00000000E+00  0.00000000E+00  0.00000000E+00
  0.00000000E+00  0.00000000E+00  0.00000000E+00
  0.00000000E+00  0.00000000E+00  0.00000000E+00
  0.00000000E+00  0.00000000E+00  0.00000000E+00
  0.00000000E+00  0.00000000E+00  0.00000000E+00
  0.00000000E+00  0.00000000E+00  0.00000000E+00
  0.00000000E+00  0.00000000E+00  0.00000000E+00
  0.00000000E+00  0.00000000E+00  0.00000000E+00
  0.00000000E+00  0.00000000E+00  0.00000000E+00
  0.00000000E+00  0.00000000E+00  0.00000000E+00
  0.00000000E+00  0.00000000E+00  0.00000000E+00
  0.00000000E+00  0.00000000E+00  0.00000000E+00
  0.00000000E+00  0.00000000E+00  0.00000000E+00
  0.00000000E+00  0.00000000E+00  0.00000000E+00
  0.00000000E+00  0.00000000E+00  0.00000000E+00
  0.00000000E+00  0.00000000E+00  0.00000000E+00
  0.00000000E+00  0.00000000E+00  0.00000000E+00
  0.00000000E+00  0.00000000E+00  0.00000000E+00
  0.00000000E+00  0.00000000E+00  0.00000000E+00
  0.00000000E+00  0.00000000E+00  0.00000000E+00
  0.00000000E+00  0.00000000E+00  0.00000000E+00
  0.00000000E+00  0.00000000E+00  0.00000000E+00
  0.00000000E+00  0.00000000E+00  0.00000000E+00
  0.00000000E+00  0.00000000E+00  0.00000000E+00
  0.00000000E+00  0.00000000E+00  0.00000000E+00
  0.00000000E+00  0.00000000E+00  0.00000000E+00
  0.00000000E+00  0.00000000E+00  0.00000000E+00
  0.00000000E+00  0.00000000E+00  0.00000000E+00
  0.00000000E+00  0.00000000E+00  0.00000000E+00
  0.00000000E+00  0.00000000E+00  0.00000000E+00
  0.00000000E+00  0.00000000E+00  0.00000000E+00
  0.00000000E+00  0.00000000E+00  0.00000000E+00
  0.00000000E+00  0.00000000E+00  0.00000000E+00
  0.00000000E+00  0.00000000E+00  0.00000000E+00
  0.00000000E+00  0.00000000E+00  0.00000000E+00
  0.00000000E+00  0.00000000E+00  0.00000000E+00
  0.00000000E+00  0.00000000E+00  0.00000000E+00
  0.00000000E+00  0.00000000E+00  0.00000000E+00
  0.00000000E+00  0.00000000E+00  0.00000000E+00
  0.00000000E+00  0.00000000E+00  0.00000000E+00
  0.00000000E+00  0.00000000E+00  0.00000000E+00
  0.00000000E+00  0.00000000E+00  0.00000000E+00
  0.00000000E+00  0.00000000E+00  0.00000000E+00
  0.00000000E+00  0.00000000E+00  0.00000000E+00
  0.00000000E+00  0.00000000E+00  0.00000000E+00
  0.00000000E+00  0.00000000E+00  0.00000000E+00
  0.00000000E+00  0.00000000E+00  0.00000000E+00
  0.00000000E+00  0.00000000E+00  0.00000000E+00
  0.00000000E+00  0.00000000E+00  0.00000000E+00
  0.00000000E+00  0.00000000E+00  0.00000000E+00
  0.00000000E+00  0.00000000E+00  0.00000000E+00
  0.00000000E+00  0.00000000E+00  0.00000000E+00
  0.00000000E+00  0.00000000E+00  0.00000000E+00
  0.00000000E+00  0.00000000E+00  0.00000000E+00
