Tl Br Rb                                
   1.00000000000000     
    11.7179289999999998  -11.7179289999999998    0.0000000000000000
    11.7179289999999998   11.7179289999999998    0.0000000000000000
     0.0000000000000000    0.0000000000000000   23.4358579999999996
   Br   Rb   Tl
    96    32    32
Direct
  0.9670176501778405  0.2420545508275870  0.9962273843672339
  0.0222863783322708  0.2552231319235522  0.2548174085914296
  0.9687854831973971  0.2515143710874667  0.4973121726640856
  0.0328333093106000  0.2544616066312107  0.7519803378377669
  0.5071884642611986  0.2870024675135004  0.0066686468963975
  0.4668679114785380  0.2238590428622418  0.2370912135813401
  0.5108427773642780  0.2965719808201140  0.5131438311107518
  0.5069815141271709  0.1963264968728059  0.7400053490688192
  0.2472088533904590  0.5227237760038506  0.0094079296471589
  0.2660655461112068  0.4775721722913119  0.2429370033725492
  0.3054449451001001  0.5078503834313441  0.5171447488817529
  0.1969297303928549  0.5016601918234860  0.7407932896980284
  0.0035294294487546  0.7840813814532474  0.9910508496069335
  0.9773836425413144  0.7175850877001045  0.2576242553159678
  0.0060752902317063  0.7892833184293858  0.4937865873511528
  0.9881281284854475  0.7058867674631067  0.7558740930855450
  0.7464012750668663  0.4494678860277825  0.9911461627638588
  0.7643945882442210  0.5453968114048379  0.2532800317062711
  0.7390874556802035  0.4575811947121287  0.4877257987630980
  0.7544897895684076  0.5478572043093427  0.7574950814248941
  0.4691115480347815  0.7410785393827802  0.9981503616580770
  0.5112268403328563  0.7442321554530658  0.2485097956855106
  0.4690570734050539  0.7499891709503727  0.5005333716179797
  0.5290581792180400  0.7497471378781049  0.7507176109567244
  0.2448625071073315  0.9729087335583620  0.9992252127405989
  0.2502675758326176  0.0196234832067167  0.2467416114205879
  0.2567235889435612  0.9836273593762170  0.4979515467537998
  0.2566872891736564  0.0268368573820555  0.7443017107088956
  0.8001203020990375 -0.0028659311601224  0.0130851660029121
  0.7047840663693685  0.9870948578504762  0.2461935620825621
  0.8021795712300245  0.0092580787233171  0.5112150335986942
  0.7007795577484240  0.0036106930684477  0.7416710561152291
  0.1535399345065913  0.1473195978168976  0.1083266803822522
  0.0879418319041665  0.0945797439230729  0.3829307268774498
  0.1206374103067436  0.1142580642125370  0.6169913221402424
  0.1328772073231933  0.1363447146200413  0.8912969221660629
  0.6611201069098516  0.1341855076408700  0.1192859220831582
  0.6098631971132278  0.1129948051633166  0.4032657881602225
  0.6148331200243912  0.1060906840342303  0.5918583373683163
  0.6532489664715754  0.1484868954266836  0.8910809231357684
  0.3209154216408441  0.3345371747605639  0.1140474164857676
  0.4068838791044396  0.4181935367223386  0.3808770231143911
  0.4010388253735042  0.3926673579908664  0.6619128242797716
  0.3310553795122281  0.3309558977390142  0.8633213880989931
  0.1851984185601436  0.6688439629320108  0.1403449790276162
  0.0876798930942555  0.6104970006225435  0.3954412142767840
  0.1105901758840285  0.6018525128709863  0.5887123790790428
  0.1288179078489538  0.6497378430099631  0.8835354051628158
  0.8527365750212442  0.3496917756848084  0.1352240395201544
  0.8996911632145170  0.4151481910880777  0.3639922898747037
  0.8959627720941070  0.4004761974843806  0.6324550670266669
  0.8471993923654507  0.3602548520215337  0.8489198544442899
  0.6346776058632208  0.6330947766004681  0.1066661167201458
  0.6147011596374363  0.6003965516442888  0.3768889968920039
  0.6004224193963278  0.6055963389531321  0.6170831140457079
  0.6571462341205728  0.6363536692862370  0.9055541444044862
  0.3675139845176985  0.8712076376322806  0.1296677179289512
  0.4093791348286665  0.9154412756309028  0.3542752359795953
  0.4071900985204283  0.9089601517439936  0.6313930060035224
  0.3446307787607429  0.8344987222690115  0.8609904020709296
  0.8297654946223617  0.8438808758162211  0.1435419751189559
  0.8896350259014509  0.8783569656339356  0.3646507730891863
  0.8866377370720376  0.9134308883556864  0.6530193692117016
  0.8451861987191697  0.8252365008079928  0.8664414743852757
  0.8917376433246079  0.0856989098575487  0.1604191643047401
  0.8554074410041060  0.1561829821875714  0.3631017287487810
  0.8431695611195551  0.1504824610652295  0.6475805403764590
  0.8935536165667682  0.1135566179783375  0.8569488886436588
  0.4117062473226945  0.1093695937383993  0.0975023257725264
  0.3337258262423266  0.1736203179191397  0.3765090676480607
  0.3664348975787686  0.1635395076502906  0.6051721678827894
  0.4038098315636791  0.0889464109236421  0.8882717528260029
  0.1056750636794027  0.4232267279960140  0.1258383660549051
  0.1305514955744043  0.3586221701303510  0.3881099845046901
  0.1722730405368097  0.3582296560143091  0.6095858801912516
  0.0852006076835583  0.3950259563906054  0.8865252880950395
  0.8968645210808426  0.5942690722172811  0.1075339922932331
  0.8472039189667527  0.6428387787566329  0.4002098362421668
  0.8478833006441351  0.6518234438397214  0.6032718486850055
  0.8972740065460989  0.5855819923401628  0.8952460759609107
  0.5926855530921096  0.3780164165274333  0.1468597387578625
  0.6586183446043244  0.3657092458828090  0.3371621408186037
  0.6437296978603169  0.3436095600852153  0.6471822554865962
  0.6114416919511823  0.4081891331769824  0.8540714758555585
  0.4113676117998040  0.5679869770523940  0.1275355620322328
  0.3392909504792753  0.6629297942758589  0.3684638991513120
  0.3456288557107558  0.6362189630265389  0.6579414104403891
  0.4074798367215647  0.5856209913218237  0.8671497292008569
  0.0995782802834175  0.9042854127337986  0.1342090608522885
  0.1381003959238201  0.8497291808488555  0.3564389286948469
  0.1572760662247641  0.8562510265243438  0.6320083436283815
  0.0845640276055839  0.8916716625175107  0.8457076500740167
  0.6090160034212081  0.9005727742320764  0.1001898654350290
  0.6460364334857669  0.8533750722782657  0.3955564694197239
  0.6574534733924365  0.8667662880633603  0.6050004948476460
  0.6066073495419180  0.8808814561147709  0.8886990579942616
  0.0212464871335770  0.0090867080884184  0.9952100115177782
  0.0172389381132149  0.9863563753809996  0.2624454773653607
  0.0187872497097792  0.0055144188275905  0.5086547516149631
  0.0162842291063340  0.0354808755508583  0.7425399323379491
  0.4745281491111590  0.9621545052965664  0.9938590938274253
  0.4938814576575331  0.0023050832295628  0.2217325459154940
  0.5083394890208920  0.9709126979413212  0.4952317743568559
  0.4852324638535953  0.9764824594738508  0.7682899509982763
  0.2836023579027254  0.2128576394627268  0.9865566473302968
  0.2411053417614644  0.2559117445721376  0.2498744971230635
  0.2896909570130545  0.2931311858963306  0.4927355912299659
  0.2592531613482250  0.2524097481008045  0.7319932151229190
  0.9746581809182130  0.4624992724980357  0.0055943024735950
  0.9774528795179791  0.4992085353004128  0.2363973330354609
  0.9584956255489728  0.5032886400016201  0.4980617908941259
  0.9772846705122719  0.4861262026429657  0.7660881271358144
  0.7507901108537742  0.2357850432218987  0.0042149767404456
  0.7557160255738370  0.2276234908800491  0.2386745336695371
  0.7397269888174548  0.2300878204054234  0.4996446808569653
  0.7280262782720566  0.2277952235534058  0.7637410260647665
  0.5242533228316257  0.5143106739975091  0.9933677456409146
  0.5049960225884914  0.5074210612486422  0.2610285283304657
  0.5177742797843040  0.5129103894972871  0.4949367368821577
  0.5198637592566301  0.5258048567328766  0.7451797747545360
  0.2440084614265083  0.7450392250366790  0.9967839036866697
  0.2787682302648401  0.7840250075154152  0.2543586408073427
  0.2296544780862632  0.7435638013461288  0.4930437089484555
  0.2139307504219687  0.7412723992544797  0.7578997357535815
  0.7501804255377360  0.7735738577407697  0.0062686867064040
  0.7487162490624615  0.7591069164662412  0.2756067328515860
  0.7847468629472650  0.7893347534304070  0.4988022256940249
  0.7584661082705260  0.7650299921810316  0.7294758899507238
  0.9991516621155629  0.2421940272769615  0.1264247631356722
  0.0015228998260133  0.2460416438997846  0.3769721379248427
  0.0042147647353242  0.2586223978470609  0.6235767329391624
  0.0013703594357238  0.2466913458143060  0.8742694776385095
  0.4731316069557289  0.2655719203075212  0.1219713831500467
  0.5012593984358903  0.2570871168227220  0.3732327584757097
  0.4995451015698163  0.2610415187441613  0.6299454360617742
  0.4985495411240159  0.2479855543532473  0.8729933347080545
  0.2503489040209606  0.5140374539405379  0.1272738355615292
  0.2471795133378479  0.5063792421370399  0.3765304164259703
  0.2410022454622491  0.5109842348144049  0.6263883188918371
  0.2480647968846120  0.4892127166427482  0.8750853129544220
  0.0007062075540690  0.7457987382404598  0.1246381497924723
  0.0004367643069445  0.7498489685609323  0.3741615015684043
  0.9985519053290476  0.7543638618095595  0.6262980519888656
  0.9946308640866754  0.7511955767813870  0.8728544883600402
  0.7490837210538063  0.4964040091628992  0.1222598740391458
  0.7520763055292591  0.4990633125087261  0.3697002599636937
  0.7494238984864009  0.5042798878803570  0.6231177551535453
  0.7508173825491382  0.5006634302378801  0.8743561387843932
  0.5005515826469706  0.7449415780241369  0.1227981830303086
  0.4945341682566389  0.7578761747664192  0.3751805084537093
  0.4993868442270623  0.7536373201426196  0.6246781563060868
  0.4971052425650875  0.7390294224594912  0.8737944986589380
  0.2437994789503330 -0.0002425631412288  0.1229989796333360
  0.2572032645842298  0.0143505434048701  0.3741320282531203
  0.2572248922653014  0.9987619718128384  0.6220563385815381
  0.2499616790803991  0.9925993229435778  0.8701729407264326
  0.7525792662873958  0.9929615524138252  0.1293270381879649
  0.7468297611558917  0.0053674706591451  0.3782228536789305
  0.7487306480304994  0.0111148129773297  0.6268290794772531
  0.7499160331544220  0.9973696479174881  0.8779846633250208
 
  0.00000000E+00  0.00000000E+00  0.00000000E+00
  0.00000000E+00  0.00000000E+00  0.00000000E+00
  0.00000000E+00  0.00000000E+00  0.00000000E+00
  0.00000000E+00  0.00000000E+00  0.00000000E+00
  0.00000000E+00  0.00000000E+00  0.00000000E+00
  0.00000000E+00  0.00000000E+00  0.00000000E+00
  0.00000000E+00  0.00000000E+00  0.00000000E+00
  0.00000000E+00  0.00000000E+00  0.00000000E+00
  0.00000000E+00  0.00000000E+00  0.00000000E+00
  0.00000000E+00  0.00000000E+00  0.00000000E+00
  0.00000000E+00  0.00000000E+00  0.00000000E+00
  0.00000000E+00  0.00000000E+00  0.00000000E+00
  0.00000000E+00  0.00000000E+00  0.00000000E+00
  0.00000000E+00  0.00000000E+00  0.00000000E+00
  0.00000000E+00  0.00000000E+00  0.00000000E+00
  0.00000000E+00  0.00000000E+00  0.00000000E+00
  0.00000000E+00  0.00000000E+00  0.00000000E+00
  0.00000000E+00  0.00000000E+00  0.00000000E+00
  0.00000000E+00  0.00000000E+00  0.00000000E+00
  0.00000000E+00  0.00000000E+00  0.00000000E+00
  0.00000000E+00  0.00000000E+00  0.00000000E+00
  0.00000000E+00  0.00000000E+00  0.00000000E+00
  0.00000000E+00  0.00000000E+00  0.00000000E+00
  0.00000000E+00  0.00000000E+00  0.00000000E+00
  0.00000000E+00  0.00000000E+00  0.00000000E+00
  0.00000000E+00  0.00000000E+00  0.00000000E+00
  0.00000000E+00  0.00000000E+00  0.00000000E+00
  0.00000000E+00  0.00000000E+00  0.00000000E+00
  0.00000000E+00  0.00000000E+00  0.00000000E+00
  0.00000000E+00  0.00000000E+00  0.00000000E+00
  0.00000000E+00  0.00000000E+00  0.00000000E+00
  0.00000000E+00  0.00000000E+00  0.00000000E+00
  0.00000000E+00  0.00000000E+00  0.00000000E+00
  0.00000000E+00  0.00000000E+00  0.00000000E+00
  0.00000000E+00  0.00000000E+00  0.00000000E+00
  0.00000000E+00  0.00000000E+00  0.00000000E+00
  0.00000000E+00  0.00000000E+00  0.00000000E+00
  0.00000000E+00  0.00000000E+00  0.00000000E+00
  0.00000000E+00  0.00000000E+00  0.00000000E+00
  0.00000000E+00  0.00000000E+00  0.00000000E+00
  0.00000000E+00  0.00000000E+00  0.00000000E+00
  0.00000000E+00  0.00000000E+00  0.00000000E+00
  0.00000000E+00  0.00000000E+00  0.00000000E+00
  0.00000000E+00  0.00000000E+00  0.00000000E+00
  0.00000000E+00  0.00000000E+00  0.00000000E+00
  0.00000000E+00  0.00000000E+00  0.00000000E+00
  0.00000000E+00  0.00000000E+00  0.00000000E+00
  0.00000000E+00  0.00000000E+00  0.00000000E+00
  0.00000000E+00  0.00000000E+00  0.00000000E+00
  0.00000000E+00  0.00000000E+00  0.00000000E+00
  0.00000000E+00  0.00000000E+00  0.00000000E+00
  0.00000000E+00  0.00000000E+00  0.00000000E+00
  0.00000000E+00  0.00000000E+00  0.00000000E+00
  0.00000000E+00  0.00000000E+00  0.00000000E+00
  0.00000000E+00  0.00000000E+00  0.00000000E+00
  0.00000000E+00  0.00000000E+00  0.00000000E+00
  0.00000000E+00  0.00000000E+00  0.00000000E+00
  0.00000000E+00  0.00000000E+00  0.00000000E+00
  0.00000000E+00  0.00000000E+00  0.00000000E+00
  0.00000000E+00  0.00000000E+00  0.00000000E+00
  0.00000000E+00  0.00000000E+00  0.00000000E+00
  0.00000000E+00  0.00000000E+00  0.00000000E+00
  0.00000000E+00  0.00000000E+00  0.00000000E+00
  0.00000000E+00  0.00000000E+00  0.00000000E+00
  0.00000000E+00  0.00000000E+00  0.00000000E+00
  0.00000000E+00  0.00000000E+00  0.00000000E+00
  0.00000000E+00  0.00000000E+00  0.00000000E+00
  0.00000000E+00  0.00000000E+00  0.00000000E+00
  0.00000000E+00  0.00000000E+00  0.00000000E+00
  0.00000000E+00  0.00000000E+00  0.00000000E+00
  0.00000000E+00  0.00000000E+00  0.00000000E+00
  0.00000000E+00  0.00000000E+00  0.00000000E+00
  0.00000000E+00  0.00000000E+00  0.00000000E+00
  0.00000000E+00  0.00000000E+00  0.00000000E+00
  0.00000000E+00  0.00000000E+00  0.00000000E+00
  0.00000000E+00  0.00000000E+00  0.00000000E+00
  0.00000000E+00  0.00000000E+00  0.00000000E+00
  0.00000000E+00  0.00000000E+00  0.00000000E+00
  0.00000000E+00  0.00000000E+00  0.00000000E+00
  0.00000000E+00  0.00000000E+00  0.00000000E+00
  0.00000000E+00  0.00000000E+00  0.00000000E+00
  0.00000000E+00  0.00000000E+00  0.00000000E+00
  0.00000000E+00  0.00000000E+00  0.00000000E+00
  0.00000000E+00  0.00000000E+00  0.00000000E+00
  0.00000000E+00  0.00000000E+00  0.00000000E+00
  0.00000000E+00  0.00000000E+00  0.00000000E+00
  0.00000000E+00  0.00000000E+00  0.00000000E+00
  0.00000000E+00  0.00000000E+00  0.00000000E+00
  0.00000000E+00  0.00000000E+00  0.00000000E+00
  0.00000000E+00  0.00000000E+00  0.00000000E+00
  0.00000000E+00  0.00000000E+00  0.00000000E+00
  0.00000000E+00  0.00000000E+00  0.00000000E+00
  0.00000000E+00  0.00000000E+00  0.00000000E+00
  0.00000000E+00  0.00000000E+00  0.00000000E+00
  0.00000000E+00  0.00000000E+00  0.00000000E+00
  0.00000000E+00  0.00000000E+00  0.00000000E+00
  0.00000000E+00  0.00000000E+00  0.00000000E+00
  0.00000000E+00  0.00000000E+00  0.00000000E+00
  0.00000000E+00  0.00000000E+00  0.00000000E+00
  0.00000000E+00  0.00000000E+00  0.00000000E+00
  0.00000000E+00  0.00000000E+00  0.00000000E+00
  0.00000000E+00  0.00000000E+00  0.00000000E+00
  0.00000000E+00  0.00000000E+00  0.00000000E+00
  0.00000000E+00  0.00000000E+00  0.00000000E+00
  0.00000000E+00  0.00000000E+00  0.00000000E+00
  0.00000000E+00  0.00000000E+00  0.00000000E+00
  0.00000000E+00  0.00000000E+00  0.00000000E+00
  0.00000000E+00  0.00000000E+00  0.00000000E+00
  0.00000000E+00  0.00000000E+00  0.00000000E+00
  0.00000000E+00  0.00000000E+00  0.00000000E+00
  0.00000000E+00  0.00000000E+00  0.00000000E+00
  0.00000000E+00  0.00000000E+00  0.00000000E+00
  0.00000000E+00  0.00000000E+00  0.00000000E+00
  0.00000000E+00  0.00000000E+00  0.00000000E+00
  0.00000000E+00  0.00000000E+00  0.00000000E+00
  0.00000000E+00  0.00000000E+00  0.00000000E+00
  0.00000000E+00  0.00000000E+00  0.00000000E+00
  0.00000000E+00  0.00000000E+00  0.00000000E+00
  0.00000000E+00  0.00000000E+00  0.00000000E+00
  0.00000000E+00  0.00000000E+00  0.00000000E+00
  0.00000000E+00  0.00000000E+00  0.00000000E+00
  0.00000000E+00  0.00000000E+00  0.00000000E+00
  0.00000000E+00  0.00000000E+00  0.00000000E+00
  0.00000000E+00  0.00000000E+00  0.00000000E+00
  0.00000000E+00  0.00000000E+00  0.00000000E+00
  0.00000000E+00  0.00000000E+00  0.00000000E+00
  0.00000000E+00  0.00000000E+00  0.00000000E+00
  0.00000000E+00  0.00000000E+00  0.00000000E+00
  0.00000000E+00  0.00000000E+00  0.00000000E+00
  0.00000000E+00  0.00000000E+00  0.00000000E+00
  0.00000000E+00  0.00000000E+00  0.00000000E+00
  0.00000000E+00  0.00000000E+00  0.00000000E+00
  0.00000000E+00  0.00000000E+00  0.00000000E+00
  0.00000000E+00  0.00000000E+00  0.00000000E+00
  0.00000000E+00  0.00000000E+00  0.00000000E+00
  0.00000000E+00  0.00000000E+00  0.00000000E+00
  0.00000000E+00  0.00000000E+00  0.00000000E+00
  0.00000000E+00  0.00000000E+00  0.00000000E+00
  0.00000000E+00  0.00000000E+00  0.00000000E+00
  0.00000000E+00  0.00000000E+00  0.00000000E+00
  0.00000000E+00  0.00000000E+00  0.00000000E+00
  0.00000000E+00  0.00000000E+00  0.00000000E+00
  0.00000000E+00  0.00000000E+00  0.00000000E+00
  0.00000000E+00  0.00000000E+00  0.00000000E+00
  0.00000000E+00  0.00000000E+00  0.00000000E+00
  0.00000000E+00  0.00000000E+00  0.00000000E+00
  0.00000000E+00  0.00000000E+00  0.00000000E+00
  0.00000000E+00  0.00000000E+00  0.00000000E+00
  0.00000000E+00  0.00000000E+00  0.00000000E+00
  0.00000000E+00  0.00000000E+00  0.00000000E+00
  0.00000000E+00  0.00000000E+00  0.00000000E+00
  0.00000000E+00  0.00000000E+00  0.00000000E+00
  0.00000000E+00  0.00000000E+00  0.00000000E+00
  0.00000000E+00  0.00000000E+00  0.00000000E+00
  0.00000000E+00  0.00000000E+00  0.00000000E+00
  0.00000000E+00  0.00000000E+00  0.00000000E+00
  0.00000000E+00  0.00000000E+00  0.00000000E+00
  0.00000000E+00  0.00000000E+00  0.00000000E+00
  0.00000000E+00  0.00000000E+00  0.00000000E+00
  0.00000000E+00  0.00000000E+00  0.00000000E+00
