Cs Mg Cl                                
   1.00000000000000     
    10.2554219999999994  -10.2554219999999994    0.0000000000000000
    10.2554219999999994   10.2554219999999994    0.0000000000000000
     0.0000000000000000    0.0000000000000000   20.5108439999999987
   Cl   Cs   Mg
    96    32    32
Direct
  0.9998112315711943  0.2498226932237489 -0.0001007761179834
 -0.0007123419920302  0.2496759742868976  0.2497526663291477
 -0.0003353541147652  0.2495347573416938  0.4996785421515473
 -0.0003540699574203  0.2495699364343192  0.7498219682536940
  0.4997108834339068  0.2497410578276184 -0.0002741709425656
  0.4993955734672713  0.2494718516540491  0.2497619491311107
  0.4995603103180835  0.2492732143892758  0.4997441072054811
  0.4997893419159695  0.2496715082884031  0.7496695241689585
  0.2500365999198392  0.4995095710743385  0.9997198212514431
  0.2496766538268148  0.4993539363164875  0.2497555019607345
  0.2498062405246033  0.4990210956037761  0.4997760879629077
  0.2499842929767112  0.4993872932844239  0.7497754083182701
 -0.0002487273537061  0.7498292337875784 -0.0002213483120340
 -0.0002837246681704  0.7495534550368660  0.2497376081024528
 -0.0001342726606642  0.7494007663694010  0.4997578653064048
  0.0001189391526350  0.7497216379067385  0.7497855499057102
  0.7499239162136536  0.5002391422253176 -0.0002513478722518
  0.7495278097541308  0.4998415241438123  0.2497469535876494
  0.7498717927563547  0.4995309789982801  0.4998341255326837
  0.7501996749609525  0.4999208974890581  0.7498488349827251
  0.4997169902615115  0.7496869900335803  0.9996582843639473
  0.4997493491643124  0.7495376462928947  0.2497864520177559
  0.4998773223052019  0.7491719075822664  0.4997379925904529
  0.5000572027222682  0.7497427529268561  0.7497723927145175
  0.2495217370379383 -0.0002935264524690 -0.0003237560812500
  0.2495823592715097 -0.0009129710094363  0.2497156272161696
  0.2496524418408597 -0.0009053823677859  0.4997420734430196
  0.2496166382213569  0.9994995071817969  0.7497076525942854
  0.7494821472660739  0.0001422182656223 -0.0001659800281727
  0.7494436885908929  0.9997604374293541  0.2497821390993132
  0.7496055953606722  0.9994921915953281  0.4997848018875224
  0.7495352059483943 -0.0000453786774167  0.7497695188823307
  0.1244564342427338  0.1245050952038864  0.1248831062170112
  0.1244610878477195  0.1243120061094178  0.3746727464433622
  0.1244679758395048  0.1242092646768464  0.6246185762701530
  0.1243720235909644  0.1245894089379559  0.8747459522855436
  0.6244756681452189  0.1248943562795675  0.1248384534586518
  0.6244615565187083  0.1244509084746497  0.3747483043635687
  0.6246145264570971  0.1245177684746446  0.6247372549488667
  0.6244843476432899  0.1248748188843807  0.8746786630901601
  0.3745976781710856  0.3744950791796491  0.1246619118081116
  0.3745341197916051  0.3741356587656105  0.3747518359858625
  0.3749107466568257  0.3744442910696595  0.6247742478924242
  0.3750618858083292  0.3745620563289685  0.8746821204471772
  0.1246574187408049  0.6244318885402653  0.1247311289071543
  0.1247002802407073  0.6243250835035820  0.3747776762889213
  0.1249402787032241  0.6243212969698091  0.6247505321084384
  0.1252096817175700  0.6246542220086831  0.8747470691012573
  0.8745997562343466  0.3749918568681974  0.1246326770862602
  0.8745356553129243  0.3744968324173746  0.3747100264226730
  0.8750269239327313  0.3745570986957065  0.6247541693677150
  0.8752028320408592  0.3752834691599092  0.8749048319314049
  0.6246592875279436  0.6249005811721393  0.1246825273650377
  0.6247269681050526  0.6244436042256443  0.3747310685369449
  0.6250446322511164  0.6245584864181071  0.6248671374578562
  0.6252461647713294  0.6252063009553790  0.8746705455252661
  0.3743997451449599  0.8744308257710942  0.1246316573463306
  0.3745128413023400  0.8740867470191288  0.3747407794051013
  0.3748194405554841  0.8742931636054698  0.6247149290112591
  0.3745649581972552  0.8745955038134529  0.8746980302323167
  0.8744680804590047  0.8749085242193646  0.1247770752957049
  0.8745188092566352  0.8744672648673713  0.3747837023391394
  0.8747962969377057  0.8745399694350773  0.6248388830946038
  0.8748009783468104  0.8751940421949669  0.8747737294026583
  0.8743472484881438  0.1249948432996733  0.1247456421476946
  0.8744022668129501  0.1245466127969861  0.3747711543333896
  0.8745540162300623  0.1247289942657656  0.6246693676522309
  0.8743409878098014  0.1251783554261212  0.8748882448782057
  0.3745222980423957  0.1244778558239841  0.1247047292491468
  0.3745778347137934  0.1240902156381519  0.3747279644070559
  0.3745961517116844  0.1244410991679464  0.6246833745923546
  0.3745221906384670  0.1246898440743563  0.8746482879542412
  0.1246992242993573  0.3744995803240248  0.1248621022089150
  0.1245936781193760  0.3743813557001101  0.3746365888817833
  0.1249896325983554  0.3741899296548853  0.6248240668512536
  0.1250786209303933  0.3745434738307101  0.8747316166544550
  0.8745078173738924  0.6249337512327602  0.1247464221766973
  0.8746788029663420  0.6245012461215256  0.3747819546595538
  0.8750503893938875  0.6244645113573206  0.6247756054394972
  0.8751881938483601  0.6250706410057771  0.8746656585102498
  0.6244249938646149  0.3749197045101933  0.1247001219295879
  0.6245573409986358  0.3745000761954055  0.3747095443649835
  0.6249767310125317  0.3744778337537716  0.6247207204108706
  0.6251057630932847  0.3748820094275913  0.8746622163896475
  0.3747278871145571  0.6244986686424239  0.1247511838874852
  0.3747524910413471  0.6241099588214740  0.3747282461499805
  0.3749827696817743  0.6242710503112925  0.6247236800859883
  0.3752146362502314  0.6243952693946100  0.8746262193881261
  0.1244926546598823  0.8744788087465207  0.1246418535573076
  0.1245317588987707  0.8743916651522355  0.3747312546526044
  0.1248932314444988  0.8742486001604316  0.6247654839631485
  0.1247914378558704  0.8745894306295928  0.8747855190580627
  0.6243611123673494  0.8749023004980168  0.1246676945696042
  0.6246214484187542  0.8744388973414104  0.3747613800099923
  0.6247422545753403  0.8744666301057520  0.6246753659652603
  0.6246006421112258  0.8750781578693522  0.8747865896951476
 -0.0005756134231294 -0.0001462547806198 -0.0001252314133322
  0.9992110189408069 -0.0005182827027184  0.2497996713602013
  0.9994485684287525  0.9993082170949740  0.4998224319498688
 -0.0005913620478021 -0.0003188913512957  0.7498132207714671
  0.4992930959341515 -0.0001985839936792  0.9997039913496956
  0.4993949507684013  0.9992817285931272  0.2497375090550156
  0.4995501373394507  0.9990861021095103  0.4998290946913053
  0.4994722738455297 -0.0003335996416239  0.7497718289133315
  0.2496493039821342  0.2493987140532456 -0.0001870664061507
  0.2493667895265460  0.2491589499905578  0.2498285792378319
  0.2495893923599873  0.2490007747940797  0.4998407920498881
  0.2496886274638932  0.2492273275881868  0.7498232533279210
  0.0001628071736294  0.4998467286448650 -0.0002089765375168
 -0.0006283659848771  0.4995105584042013  0.2498427151297716
  0.9998339420685167  0.4992198661670106  0.4998020185655402
  0.0002527560142903  0.4994674155065909  0.7499191088531427
  0.7496070193794372  0.2503407531705444 -0.0001653712163484
  0.7492005532605243  0.2497866353380464  0.2497888299171963
  0.7494523266166124  0.2494973652923864  0.4998204686122880
  0.7496248517700428  0.2498952697169994  0.7497595494717061
  0.5001155827786237  0.4997013087627565 -0.0002779619692915
  0.4995198135978445  0.4994365038378475  0.2498256518199921
  0.4998084512750788  0.4991164138513745  0.4997540544929607
  0.5003164793001751  0.4997060896409701  0.7497473241531650
  0.2498288280872228  0.7493342990727873 -0.0002610271062505
  0.2495710475555246  0.7492039467080539  0.2498139542997457
  0.2497673185510158  0.7489539542647792  0.4998132086442653
  0.2499921545404331  0.7492542557745687  0.7497782270867712
  0.7497222591404030  0.7504103400123600 -0.0002025229011345
  0.7494006785234695  0.7497466702316161  0.2498064406331982
  0.7498245746479270  0.7492873852237206  0.4998508159046256
  0.7501226456277005  0.7500604405893975  0.7498489140400417
 -0.0005042694254704  0.2497338925339481  0.1248459159031400
  0.9993589441477780  0.2493500111624556  0.3747917828161073
 -0.0003599101697210  0.2493679438948067  0.6247505154130424
 -0.0002818979520054  0.2498289056594825  0.8748022026141155
  0.4994870672904582  0.2496363824863719  0.1247397717747407
  0.4993409944132520  0.2491976662832320  0.3746920619836331
  0.4996763083568596  0.2493952202239596  0.6247422073974565
  0.4998183256119555  0.2498772842892038  0.8747439151565247
  0.2496250791404031  0.4994154346530543  0.1247833808024423
  0.2495199240460374  0.4991348941612058  0.3747313077771198
  0.2498963654815773  0.4990529975798952  0.6247618778745589
  0.2500853947681310  0.4996107358638149  0.8747299588555121
 -0.0004521624528634  0.7496501327427587  0.1248570946243579
 -0.0005001787649501  0.7493399691787697  0.3748209940039390
  0.0000308170080869  0.7493613748196085  0.6248552537802630
 -0.0000145063511415  0.7498773339998580  0.8748171026554152
  0.7495888131671073  0.4998856015818103  0.1247049885754109
  0.7495276973402771  0.4993791658815461  0.3748000471675763
  0.7500607293871157  0.4996238930087277  0.6247940108684663
  0.7500744900801533  0.5000950683156574  0.8747643451988644
  0.4995623455461799  0.7496281421638969  0.1246680559979426
  0.4996051162884417  0.7492054681593052  0.3747021621377469
  0.4998994114355337  0.7492794705633135  0.6247553655060369
  0.4998911074980998  0.7497910847549970  0.8747127049982442
  0.2494064982966232 -0.0006098676648191  0.1246880547964553
  0.2494294028254343 -0.0009741933040035  0.3747309539710185
  0.2496533128752031 -0.0008144860219263  0.6247228154566519
  0.2496161062195195 -0.0003560596216023  0.8747363787390298
  0.7493407688914466 -0.0000513292495892  0.1248182301935341
  0.7493747984019798 -0.0005776059557263  0.3747783907284152
  0.7495844884599089 -0.0005282690045782  0.6247925483187101
  0.7496066752020749  0.0000955708871556  0.8749038334151299
 
  0.00000000E+00  0.00000000E+00  0.00000000E+00
  0.00000000E+00  0.00000000E+00  0.00000000E+00
  0.00000000E+00  0.00000000E+00  0.00000000E+00
  0.00000000E+00  0.00000000E+00  0.00000000E+00
  0.00000000E+00  0.00000000E+00  0.00000000E+00
  0.00000000E+00  0.00000000E+00  0.00000000E+00
  0.00000000E+00  0.00000000E+00  0.00000000E+00
  0.00000000E+00  0.00000000E+00  0.00000000E+00
  0.00000000E+00  0.00000000E+00  0.00000000E+00
  0.00000000E+00  0.00000000E+00  0.00000000E+00
  0.00000000E+00  0.00000000E+00  0.00000000E+00
  0.00000000E+00  0.00000000E+00  0.00000000E+00
  0.00000000E+00  0.00000000E+00  0.00000000E+00
  0.00000000E+00  0.00000000E+00  0.00000000E+00
  0.00000000E+00  0.00000000E+00  0.00000000E+00
  0.00000000E+00  0.00000000E+00  0.00000000E+00
  0.00000000E+00  0.00000000E+00  0.00000000E+00
  0.00000000E+00  0.00000000E+00  0.00000000E+00
  0.00000000E+00  0.00000000E+00  0.00000000E+00
  0.00000000E+00  0.00000000E+00  0.00000000E+00
  0.00000000E+00  0.00000000E+00  0.00000000E+00
  0.00000000E+00  0.00000000E+00  0.00000000E+00
  0.00000000E+00  0.00000000E+00  0.00000000E+00
  0.00000000E+00  0.00000000E+00  0.00000000E+00
  0.00000000E+00  0.00000000E+00  0.00000000E+00
  0.00000000E+00  0.00000000E+00  0.00000000E+00
  0.00000000E+00  0.00000000E+00  0.00000000E+00
  0.00000000E+00  0.00000000E+00  0.00000000E+00
  0.00000000E+00  0.00000000E+00  0.00000000E+00
  0.00000000E+00  0.00000000E+00  0.00000000E+00
  0.00000000E+00  0.00000000E+00  0.00000000E+00
  0.00000000E+00  0.00000000E+00  0.00000000E+00
  0.00000000E+00  0.00000000E+00  0.00000000E+00
  0.00000000E+00  0.00000000E+00  0.00000000E+00
  0.00000000E+00  0.00000000E+00  0.00000000E+00
  0.00000000E+00  0.00000000E+00  0.00000000E+00
  0.00000000E+00  0.00000000E+00  0.00000000E+00
  0.00000000E+00  0.00000000E+00  0.00000000E+00
  0.00000000E+00  0.00000000E+00  0.00000000E+00
  0.00000000E+00  0.00000000E+00  0.00000000E+00
  0.00000000E+00  0.00000000E+00  0.00000000E+00
  0.00000000E+00  0.00000000E+00  0.00000000E+00
  0.00000000E+00  0.00000000E+00  0.00000000E+00
  0.00000000E+00  0.00000000E+00  0.00000000E+00
  0.00000000E+00  0.00000000E+00  0.00000000E+00
  0.00000000E+00  0.00000000E+00  0.00000000E+00
  0.00000000E+00  0.00000000E+00  0.00000000E+00
  0.00000000E+00  0.00000000E+00  0.00000000E+00
  0.00000000E+00  0.00000000E+00  0.00000000E+00
  0.00000000E+00  0.00000000E+00  0.00000000E+00
  0.00000000E+00  0.00000000E+00  0.00000000E+00
  0.00000000E+00  0.00000000E+00  0.00000000E+00
  0.00000000E+00  0.00000000E+00  0.00000000E+00
  0.00000000E+00  0.00000000E+00  0.00000000E+00
  0.00000000E+00  0.00000000E+00  0.00000000E+00
  0.00000000E+00  0.00000000E+00  0.00000000E+00
  0.00000000E+00  0.00000000E+00  0.00000000E+00
  0.00000000E+00  0.00000000E+00  0.00000000E+00
  0.00000000E+00  0.00000000E+00  0.00000000E+00
  0.00000000E+00  0.00000000E+00  0.00000000E+00
  0.00000000E+00  0.00000000E+00  0.00000000E+00
  0.00000000E+00  0.00000000E+00  0.00000000E+00
  0.00000000E+00  0.00000000E+00  0.00000000E+00
  0.00000000E+00  0.00000000E+00  0.00000000E+00
  0.00000000E+00  0.00000000E+00  0.00000000E+00
  0.00000000E+00  0.00000000E+00  0.00000000E+00
  0.00000000E+00  0.00000000E+00  0.00000000E+00
  0.00000000E+00  0.00000000E+00  0.00000000E+00
  0.00000000E+00  0.00000000E+00  0.00000000E+00
  0.00000000E+00  0.00000000E+00  0.00000000E+00
  0.00000000E+00  0.00000000E+00  0.00000000E+00
  0.00000000E+00  0.00000000E+00  0.00000000E+00
  0.00000000E+00  0.00000000E+00  0.00000000E+00
  0.00000000E+00  0.00000000E+00  0.00000000E+00
  0.00000000E+00  0.00000000E+00  0.00000000E+00
  0.00000000E+00  0.00000000E+00  0.00000000E+00
  0.00000000E+00  0.00000000E+00  0.00000000E+00
  0.00000000E+00  0.00000000E+00  0.00000000E+00
  0.00000000E+00  0.00000000E+00  0.00000000E+00
  0.00000000E+00  0.00000000E+00  0.00000000E+00
  0.00000000E+00  0.00000000E+00  0.00000000E+00
  0.00000000E+00  0.00000000E+00  0.00000000E+00
  0.00000000E+00  0.00000000E+00  0.00000000E+00
  0.00000000E+00  0.00000000E+00  0.00000000E+00
  0.00000000E+00  0.00000000E+00  0.00000000E+00
  0.00000000E+00  0.00000000E+00  0.00000000E+00
  0.00000000E+00  0.00000000E+00  0.00000000E+00
  0.00000000E+00  0.00000000E+00  0.00000000E+00
  0.00000000E+00  0.00000000E+00  0.00000000E+00
  0.00000000E+00  0.00000000E+00  0.00000000E+00
  0.00000000E+00  0.00000000E+00  0.00000000E+00
  0.00000000E+00  0.00000000E+00  0.00000000E+00
  0.00000000E+00  0.00000000E+00  0.00000000E+00
  0.00000000E+00  0.00000000E+00  0.00000000E+00
  0.00000000E+00  0.00000000E+00  0.00000000E+00
  0.00000000E+00  0.00000000E+00  0.00000000E+00
  0.00000000E+00  0.00000000E+00  0.00000000E+00
  0.00000000E+00  0.00000000E+00  0.00000000E+00
  0.00000000E+00  0.00000000E+00  0.00000000E+00
  0.00000000E+00  0.00000000E+00  0.00000000E+00
  0.00000000E+00  0.00000000E+00  0.00000000E+00
  0.00000000E+00  0.00000000E+00  0.00000000E+00
  0.00000000E+00  0.00000000E+00  0.00000000E+00
  0.00000000E+00  0.00000000E+00  0.00000000E+00
  0.00000000E+00  0.00000000E+00  0.00000000E+00
  0.00000000E+00  0.00000000E+00  0.00000000E+00
  0.00000000E+00  0.00000000E+00  0.00000000E+00
  0.00000000E+00  0.00000000E+00  0.00000000E+00
  0.00000000E+00  0.00000000E+00  0.00000000E+00
  0.00000000E+00  0.00000000E+00  0.00000000E+00
  0.00000000E+00  0.00000000E+00  0.00000000E+00
  0.00000000E+00  0.00000000E+00  0.00000000E+00
  0.00000000E+00  0.00000000E+00  0.00000000E+00
  0.00000000E+00  0.00000000E+00  0.00000000E+00
  0.00000000E+00  0.00000000E+00  0.00000000E+00
  0.00000000E+00  0.00000000E+00  0.00000000E+00
  0.00000000E+00  0.00000000E+00  0.00000000E+00
  0.00000000E+00  0.00000000E+00  0.00000000E+00
  0.00000000E+00  0.00000000E+00  0.00000000E+00
  0.00000000E+00  0.00000000E+00  0.00000000E+00
  0.00000000E+00  0.00000000E+00  0.00000000E+00
  0.00000000E+00  0.00000000E+00  0.00000000E+00
  0.00000000E+00  0.00000000E+00  0.00000000E+00
  0.00000000E+00  0.00000000E+00  0.00000000E+00
  0.00000000E+00  0.00000000E+00  0.00000000E+00
  0.00000000E+00  0.00000000E+00  0.00000000E+00
  0.00000000E+00  0.00000000E+00  0.00000000E+00
  0.00000000E+00  0.00000000E+00  0.00000000E+00
  0.00000000E+00  0.00000000E+00  0.00000000E+00
  0.00000000E+00  0.00000000E+00  0.00000000E+00
  0.00000000E+00  0.00000000E+00  0.00000000E+00
  0.00000000E+00  0.00000000E+00  0.00000000E+00
  0.00000000E+00  0.00000000E+00  0.00000000E+00
  0.00000000E+00  0.00000000E+00  0.00000000E+00
  0.00000000E+00  0.00000000E+00  0.00000000E+00
  0.00000000E+00  0.00000000E+00  0.00000000E+00
  0.00000000E+00  0.00000000E+00  0.00000000E+00
  0.00000000E+00  0.00000000E+00  0.00000000E+00
  0.00000000E+00  0.00000000E+00  0.00000000E+00
  0.00000000E+00  0.00000000E+00  0.00000000E+00
  0.00000000E+00  0.00000000E+00  0.00000000E+00
  0.00000000E+00  0.00000000E+00  0.00000000E+00
  0.00000000E+00  0.00000000E+00  0.00000000E+00
  0.00000000E+00  0.00000000E+00  0.00000000E+00
  0.00000000E+00  0.00000000E+00  0.00000000E+00
  0.00000000E+00  0.00000000E+00  0.00000000E+00
  0.00000000E+00  0.00000000E+00  0.00000000E+00
  0.00000000E+00  0.00000000E+00  0.00000000E+00
  0.00000000E+00  0.00000000E+00  0.00000000E+00
  0.00000000E+00  0.00000000E+00  0.00000000E+00
  0.00000000E+00  0.00000000E+00  0.00000000E+00
  0.00000000E+00  0.00000000E+00  0.00000000E+00
  0.00000000E+00  0.00000000E+00  0.00000000E+00
  0.00000000E+00  0.00000000E+00  0.00000000E+00
  0.00000000E+00  0.00000000E+00  0.00000000E+00
  0.00000000E+00  0.00000000E+00  0.00000000E+00
  0.00000000E+00  0.00000000E+00  0.00000000E+00
  0.00000000E+00  0.00000000E+00  0.00000000E+00
  0.00000000E+00  0.00000000E+00  0.00000000E+00
  0.00000000E+00  0.00000000E+00  0.00000000E+00
