Ca Tl Cl                                
   1.00000000000000     
    10.7826509999999995  -10.7826509999999995    0.0000000000000000
    10.7826509999999995   10.7826509999999995    0.0000000000000000
     0.0000000000000000    0.0000000000000000   21.5653030000000001
   Ca   Cl   Tl
    32    96    32
Direct
  0.9943949347617357  0.0006657588165945  0.0021497467069585
  0.0077284023912747  0.9954730387338573  0.2496753488464495
  0.0019746392806840 -0.0027717808544528  0.5025043823925555
  0.9950623734644547  0.0018663597630955  0.7486637549009268
  0.4977742717643830  0.0026552204216941 -0.0004019903808707
  0.5003276789281036 -0.0064766529601882  0.2481652562623468
  0.4986501680343213 -0.0047315321168603  0.4975600656630192
  0.4957128906535912  0.0048052909854494  0.7492668715125769
  0.2466529518987521  0.2562351670136890  0.0020287246692872
  0.2528309041815070  0.2417665030599336  0.2496391797768527
  0.2506664128366390  0.2466049238716006  0.5003106188772728
  0.2474422137261952  0.2565397207951622  0.7475066242032892
  0.9953374676232082  0.5037050462702922 -0.0002841684273606
  0.0021162979067729  0.4918558505444166  0.2488831040523752
  0.0005832354486125  0.4952644233594981  0.4985097078185148
  0.9947986420575506  0.5038759511152716  0.7495744513841708
  0.7463754639952026  0.2500591316324095  0.9998854428833007
  0.7554647231076227  0.2483895963225546  0.2480207371493094
  0.7539916820681760  0.2502627712288943  0.4976237837057776
  0.7440725313763841  0.2526378476227225  0.7492666224323409
  0.4932434949751375  0.5015114799578257  0.0022827023549857
  0.5075054836119707  0.4960681824929147  0.2497242747985753
  0.5024656367146585  0.4984978519777102  0.5006174755915067
  0.4930329565852407  0.5008509211682955  0.7473211434818084
  0.2446972686024675  0.7524919517779698 -0.0004447296424729
  0.2573317644192141  0.7467518302411935  0.2488614300898859
  0.2538178096056977  0.7481934673720568  0.4986461629432569
  0.2446445166219679  0.7529432539638411  0.7494125338947518
  0.7474602634172540  0.7551966343917448  0.0025460466048899
  0.7531958618987098  0.7414514805538707  0.2499563146472754
  0.7515858805556788  0.7473794923342404  0.5023624807943774
  0.7465889258422993  0.7542071328716266  0.7487824271561860
  0.1460544856156924  0.1037169863114395  0.9816325838205491
  0.1205525332666497  0.1278768176419366  0.2830195379548469
  0.1110674195072895  0.1371843216623718  0.4704444578506362
  0.1457223607616074  0.1045992812332707  0.7694292016028338
  0.6393497223662731  0.1090507752009491  0.9739172535857619
  0.6085400509838116  0.1403451190704914  0.2605415992227488
  0.6023489181014742  0.1468878423718478  0.4904136783517263
  0.6478948479512712  0.1007004558158411  0.7573812325948832
  0.3380890135734161  0.4108714077681505  0.0152918436373208
  0.3937596161332297  0.3552538831042261  0.2249095765931309
  0.3942908611116351  0.3549092858901414  0.5293156748184499
  0.3385787638354155  0.4106002419377536  0.7329372147050257
  0.1349521835212784  0.6132487298268813  0.9716361502625765
  0.1089383525098427  0.6403035846160511  0.2578958930468522
  0.0998316174600799  0.6491031694147377  0.4903115387623824
  0.1334938936739103  0.6146144069455118  0.7763691293644747
  0.8473220446940213  0.3991130126363041  0.0201623228340852
  0.9091789328985317  0.3394661723133704  0.2358106564893854
  0.9102121182165750  0.3401586661803188  0.5078937175730622
  0.8488318933001404  0.3992400919533068  0.7300183117346194
  0.6447338323426307  0.6033052110141733  0.9823919281286588
  0.6215841796558651  0.6280406904359493  0.2833277601162849
  0.6114476702948800  0.6384692258933778  0.4706172511298479
  0.6439037702078185  0.6035218511588032  0.7695558251863478
  0.3497620649590035  0.9001887591904565  0.0196101134904678
  0.4100938441255181  0.8392331880941276  0.2357160978239503
  0.4090003563298777  0.8387916624137732  0.5082271484302811
  0.3497054359597727  0.8988989449598458  0.7299267493023930
  0.8376505743482138  0.9113352939980163  0.0173834607094649
  0.8910221391654629  0.8578735363358984  0.2268650471009294
  0.8914332295453898  0.8576248954755760  0.5271737441614817
  0.8403025835101783  0.9086298399595657  0.7370286976122036
  0.8974985425489468  0.1529898856510700  0.9817347540820772
  0.8617610403669000  0.1011967923067075  0.2730047761500880
  0.8599730099776800  0.1041802248593615  0.4725616395723116
  0.8966129846296297  0.1542836886780248  0.7659285397384455
  0.3975829668409520  0.1552893254968056  0.0173970908668181
  0.3635125798326933  0.1046444349437943  0.2193174190016806
  0.3520981766896181  0.0984549182021586  0.5203660264062223
  0.3888989428670840  0.1482343439423033  0.7224180606460009
  0.0935805374048094  0.3522491259470489  0.9825877869755005
  0.1533119906741769  0.3923751883968262  0.2658880081009732
  0.1544273116737630  0.3989382769881910  0.4833748322607553
  0.0946696567652607  0.3537067436329306  0.7661075023365393
  0.8901388527133723  0.6488511095078185  0.0247101145471929
  0.8637489934045112  0.6044937039538852  0.2209500364631986
  0.8496507696932011  0.5958729491889685  0.5194223784832805
  0.8895720678656167  0.6493440826084903  0.7251638852633986
  0.5938689892783805  0.3506815117243580  0.0177413265104982
  0.6442708386287385  0.3851984422134835  0.2190015160657692
  0.6518576951806034  0.3981897768311330  0.5192741459581240
  0.6013483698231289  0.3600164814940109  0.7215543489391378
  0.3947968919833461  0.6522488018749657  0.9799758259030553
  0.3568547346442712  0.5954552289301124  0.2660281848386478
  0.3501028410667483  0.5943335476185726  0.4835709002649569
  0.3934305866629223  0.6514220368186807  0.7687338371107092
  0.0998547532469409  0.8577006917500988  0.0246998841407341
  0.1457895594295308  0.8859573626841306  0.2216554372434505
  0.1534154743525692  0.8991687734337007  0.5193600524102999
  0.0996038380259386  0.8586967642000869  0.7249274666103488
  0.5946858952460874  0.8513589585922933  0.9824845043563231
  0.6475992237495555  0.8876567200691470  0.2732473973456107
  0.6447001981744199  0.8893462357890737  0.4724379583042921
  0.5939185380960448  0.8522825658727604  0.7653753069307310
  0.0045963616349065  0.0470855414516170  0.1262855073792819
  0.0081535877090704  0.9500282183645256  0.3760501171275966
  0.0041168586620721  0.0488471908061057  0.6249077752035043
  0.9850805253737648  0.9712355449915039  0.8754196692844849
  0.5449643105889376  0.9951994266624961  0.1234431860410879
  0.4599574537174252  0.0008623117380646  0.3729226129074006
  0.5345913289964714  0.9909150206620301  0.6231016458783678
  0.4593993436375173  0.0221885989183928  0.8739581193532011
  0.2021500296693847  0.2416128531109862  0.1255296805338795
  0.3002500475287677  0.2485094603067959  0.3753961948936267
  0.2004375392796532  0.2436603272636979  0.6238422765606905
  0.2778223294301683  0.2662935283230618  0.8748020849606188
  0.0428058455947555  0.4965684778067054  0.1230421293082442
  0.9637297272907127  0.5097703950094894  0.3735186594390910
  0.0381715304426921  0.5015183041879124  0.6247328116170155
  0.9522285475016657  0.5193940351928401  0.8747289886049056
  0.7543253960935052  0.2026243725837531  0.1235154192028855
  0.7480287438372716  0.2885057135080542  0.3727979350416447
  0.7578951462718551  0.2139779211150839  0.6230980808162021
  0.7264446038975318  0.2885094834461285  0.8741649396278502
  0.5068979013646938  0.5468942417293045  0.1255402364212637
  0.5011629519411087  0.4488144365065085  0.3755702370584411
  0.5056197054001138  0.5489681462076791  0.6240776433734604
  0.4865832535469144  0.4683947206778773  0.8748319763707446
  0.2552532097511698  0.7059704811498403  0.1229242573960816
  0.2399752300725579  0.7848376752560196  0.3735685755545866
  0.2481423576756311  0.7093935435618102  0.6248047036115366
  0.2285382807299558  0.7951880988975484  0.8745450512359901
  0.7013242817062860  0.7457596498924677  0.1267298675363906
  0.7992290421514880  0.7418275811422489  0.3760666581904293
  0.7000447220136639  0.7457732463557338  0.6248421197144155
  0.7756250032546532  0.7648294342475782  0.8756831884148883
 -0.0123410078250342  0.2626590348494502  0.1039040702390005
  0.9709768741697885  0.2308203053496989  0.3755993762974261
  0.9841180476329279  0.2630798267614879  0.6442109781731967
  0.0297585637693740  0.2200271961183975  0.8740642168937875
  0.5173376681449650  0.2308040973784211  0.1403616159967324
  0.5124078126059938  0.2368245584337016  0.3732616469779860
  0.5148346094636894  0.2326977337107054  0.6168214624020759
  0.5100457350326525  0.2390194448388206  0.9016497777753641
  0.2562831127368696  0.4928837954633812  0.1493037091931789
  0.2827783967571117  0.4662525403918296  0.3723364288712014
  0.2536462818850773  0.4946775275592805  0.6016648068080828
  0.2736395889298205  0.4832302852994479  0.8740038227937176
  0.0174163315512517  0.7285860964278433  0.1375452430044786
  0.0161571952868004  0.7321463386683964  0.3715265542996062
  0.0186937344818294  0.7293662183427000  0.6182804067082469
  0.0243945790495031  0.7237266411727779  0.8752587979438611
  0.7322110618533983  0.5251337966721294  0.1154814796904404
  0.7438726282071940  0.5181494562825638  0.3927156498977244
  0.7254639944253459  0.5191436247977009  0.6367479498106490
  0.7483042049869891  0.4931228060785472  0.8760124527788224
  0.4843232058189687  0.7608656941718269  0.1039200757465847
  0.5176465440199113  0.7780428598009184  0.3755854428399900
  0.4857624946078123  0.7655133779639711  0.6437256180086083
  0.5294221846339990  0.7203797369698380  0.8741457131884329
  0.2238559368157312  0.0164490971714657  0.1154168776053220
  0.2285894653009753  0.0038209867028639  0.3909401483081412
  0.2300960167254459  0.0238989772961178  0.6363195024258483
  0.2547816065632441  0.9986252346355882  0.8755704063002967
  0.7560818700300612 -0.0087651438360250  0.1454683048428864
  0.7878835898415891  0.9612665399698079  0.3739747053737596
  0.7416941237186570  0.0070277476569786  0.6285728367563135
  0.7718204421920704  0.9787272260711511  0.8765387044194682
 
  0.00000000E+00  0.00000000E+00  0.00000000E+00
  0.00000000E+00  0.00000000E+00  0.00000000E+00
  0.00000000E+00  0.00000000E+00  0.00000000E+00
  0.00000000E+00  0.00000000E+00  0.00000000E+00
  0.00000000E+00  0.00000000E+00  0.00000000E+00
  0.00000000E+00  0.00000000E+00  0.00000000E+00
  0.00000000E+00  0.00000000E+00  0.00000000E+00
  0.00000000E+00  0.00000000E+00  0.00000000E+00
  0.00000000E+00  0.00000000E+00  0.00000000E+00
  0.00000000E+00  0.00000000E+00  0.00000000E+00
  0.00000000E+00  0.00000000E+00  0.00000000E+00
  0.00000000E+00  0.00000000E+00  0.00000000E+00
  0.00000000E+00  0.00000000E+00  0.00000000E+00
  0.00000000E+00  0.00000000E+00  0.00000000E+00
  0.00000000E+00  0.00000000E+00  0.00000000E+00
  0.00000000E+00  0.00000000E+00  0.00000000E+00
  0.00000000E+00  0.00000000E+00  0.00000000E+00
  0.00000000E+00  0.00000000E+00  0.00000000E+00
  0.00000000E+00  0.00000000E+00  0.00000000E+00
  0.00000000E+00  0.00000000E+00  0.00000000E+00
  0.00000000E+00  0.00000000E+00  0.00000000E+00
  0.00000000E+00  0.00000000E+00  0.00000000E+00
  0.00000000E+00  0.00000000E+00  0.00000000E+00
  0.00000000E+00  0.00000000E+00  0.00000000E+00
  0.00000000E+00  0.00000000E+00  0.00000000E+00
  0.00000000E+00  0.00000000E+00  0.00000000E+00
  0.00000000E+00  0.00000000E+00  0.00000000E+00
  0.00000000E+00  0.00000000E+00  0.00000000E+00
  0.00000000E+00  0.00000000E+00  0.00000000E+00
  0.00000000E+00  0.00000000E+00  0.00000000E+00
  0.00000000E+00  0.00000000E+00  0.00000000E+00
  0.00000000E+00  0.00000000E+00  0.00000000E+00
  0.00000000E+00  0.00000000E+00  0.00000000E+00
  0.00000000E+00  0.00000000E+00  0.00000000E+00
  0.00000000E+00  0.00000000E+00  0.00000000E+00
  0.00000000E+00  0.00000000E+00  0.00000000E+00
  0.00000000E+00  0.00000000E+00  0.00000000E+00
  0.00000000E+00  0.00000000E+00  0.00000000E+00
  0.00000000E+00  0.00000000E+00  0.00000000E+00
  0.00000000E+00  0.00000000E+00  0.00000000E+00
  0.00000000E+00  0.00000000E+00  0.00000000E+00
  0.00000000E+00  0.00000000E+00  0.00000000E+00
  0.00000000E+00  0.00000000E+00  0.00000000E+00
  0.00000000E+00  0.00000000E+00  0.00000000E+00
  0.00000000E+00  0.00000000E+00  0.00000000E+00
  0.00000000E+00  0.00000000E+00  0.00000000E+00
  0.00000000E+00  0.00000000E+00  0.00000000E+00
  0.00000000E+00  0.00000000E+00  0.00000000E+00
  0.00000000E+00  0.00000000E+00  0.00000000E+00
  0.00000000E+00  0.00000000E+00  0.00000000E+00
  0.00000000E+00  0.00000000E+00  0.00000000E+00
  0.00000000E+00  0.00000000E+00  0.00000000E+00
  0.00000000E+00  0.00000000E+00  0.00000000E+00
  0.00000000E+00  0.00000000E+00  0.00000000E+00
  0.00000000E+00  0.00000000E+00  0.00000000E+00
  0.00000000E+00  0.00000000E+00  0.00000000E+00
  0.00000000E+00  0.00000000E+00  0.00000000E+00
  0.00000000E+00  0.00000000E+00  0.00000000E+00
  0.00000000E+00  0.00000000E+00  0.00000000E+00
  0.00000000E+00  0.00000000E+00  0.00000000E+00
  0.00000000E+00  0.00000000E+00  0.00000000E+00
  0.00000000E+00  0.00000000E+00  0.00000000E+00
  0.00000000E+00  0.00000000E+00  0.00000000E+00
  0.00000000E+00  0.00000000E+00  0.00000000E+00
  0.00000000E+00  0.00000000E+00  0.00000000E+00
  0.00000000E+00  0.00000000E+00  0.00000000E+00
  0.00000000E+00  0.00000000E+00  0.00000000E+00
  0.00000000E+00  0.00000000E+00  0.00000000E+00
  0.00000000E+00  0.00000000E+00  0.00000000E+00
  0.00000000E+00  0.00000000E+00  0.00000000E+00
  0.00000000E+00  0.00000000E+00  0.00000000E+00
  0.00000000E+00  0.00000000E+00  0.00000000E+00
  0.00000000E+00  0.00000000E+00  0.00000000E+00
  0.00000000E+00  0.00000000E+00  0.00000000E+00
  0.00000000E+00  0.00000000E+00  0.00000000E+00
  0.00000000E+00  0.00000000E+00  0.00000000E+00
  0.00000000E+00  0.00000000E+00  0.00000000E+00
  0.00000000E+00  0.00000000E+00  0.00000000E+00
  0.00000000E+00  0.00000000E+00  0.00000000E+00
  0.00000000E+00  0.00000000E+00  0.00000000E+00
  0.00000000E+00  0.00000000E+00  0.00000000E+00
  0.00000000E+00  0.00000000E+00  0.00000000E+00
  0.00000000E+00  0.00000000E+00  0.00000000E+00
  0.00000000E+00  0.00000000E+00  0.00000000E+00
  0.00000000E+00  0.00000000E+00  0.00000000E+00
  0.00000000E+00  0.00000000E+00  0.00000000E+00
  0.00000000E+00  0.00000000E+00  0.00000000E+00
  0.00000000E+00  0.00000000E+00  0.00000000E+00
  0.00000000E+00  0.00000000E+00  0.00000000E+00
  0.00000000E+00  0.00000000E+00  0.00000000E+00
  0.00000000E+00  0.00000000E+00  0.00000000E+00
  0.00000000E+00  0.00000000E+00  0.00000000E+00
  0.00000000E+00  0.00000000E+00  0.00000000E+00
  0.00000000E+00  0.00000000E+00  0.00000000E+00
  0.00000000E+00  0.00000000E+00  0.00000000E+00
  0.00000000E+00  0.00000000E+00  0.00000000E+00
  0.00000000E+00  0.00000000E+00  0.00000000E+00
  0.00000000E+00  0.00000000E+00  0.00000000E+00
  0.00000000E+00  0.00000000E+00  0.00000000E+00
  0.00000000E+00  0.00000000E+00  0.00000000E+00
  0.00000000E+00  0.00000000E+00  0.00000000E+00
  0.00000000E+00  0.00000000E+00  0.00000000E+00
  0.00000000E+00  0.00000000E+00  0.00000000E+00
  0.00000000E+00  0.00000000E+00  0.00000000E+00
  0.00000000E+00  0.00000000E+00  0.00000000E+00
  0.00000000E+00  0.00000000E+00  0.00000000E+00
  0.00000000E+00  0.00000000E+00  0.00000000E+00
  0.00000000E+00  0.00000000E+00  0.00000000E+00
  0.00000000E+00  0.00000000E+00  0.00000000E+00
  0.00000000E+00  0.00000000E+00  0.00000000E+00
  0.00000000E+00  0.00000000E+00  0.00000000E+00
  0.00000000E+00  0.00000000E+00  0.00000000E+00
  0.00000000E+00  0.00000000E+00  0.00000000E+00
  0.00000000E+00  0.00000000E+00  0.00000000E+00
  0.00000000E+00  0.00000000E+00  0.00000000E+00
  0.00000000E+00  0.00000000E+00  0.00000000E+00
  0.00000000E+00  0.00000000E+00  0.00000000E+00
  0.00000000E+00  0.00000000E+00  0.00000000E+00
  0.00000000E+00  0.00000000E+00  0.00000000E+00
  0.00000000E+00  0.00000000E+00  0.00000000E+00
  0.00000000E+00  0.00000000E+00  0.00000000E+00
  0.00000000E+00  0.00000000E+00  0.00000000E+00
  0.00000000E+00  0.00000000E+00  0.00000000E+00
  0.00000000E+00  0.00000000E+00  0.00000000E+00
  0.00000000E+00  0.00000000E+00  0.00000000E+00
  0.00000000E+00  0.00000000E+00  0.00000000E+00
  0.00000000E+00  0.00000000E+00  0.00000000E+00
  0.00000000E+00  0.00000000E+00  0.00000000E+00
  0.00000000E+00  0.00000000E+00  0.00000000E+00
  0.00000000E+00  0.00000000E+00  0.00000000E+00
  0.00000000E+00  0.00000000E+00  0.00000000E+00
  0.00000000E+00  0.00000000E+00  0.00000000E+00
  0.00000000E+00  0.00000000E+00  0.00000000E+00
  0.00000000E+00  0.00000000E+00  0.00000000E+00
  0.00000000E+00  0.00000000E+00  0.00000000E+00
  0.00000000E+00  0.00000000E+00  0.00000000E+00
  0.00000000E+00  0.00000000E+00  0.00000000E+00
  0.00000000E+00  0.00000000E+00  0.00000000E+00
  0.00000000E+00  0.00000000E+00  0.00000000E+00
  0.00000000E+00  0.00000000E+00  0.00000000E+00
  0.00000000E+00  0.00000000E+00  0.00000000E+00
  0.00000000E+00  0.00000000E+00  0.00000000E+00
  0.00000000E+00  0.00000000E+00  0.00000000E+00
  0.00000000E+00  0.00000000E+00  0.00000000E+00
  0.00000000E+00  0.00000000E+00  0.00000000E+00
  0.00000000E+00  0.00000000E+00  0.00000000E+00
  0.00000000E+00  0.00000000E+00  0.00000000E+00
  0.00000000E+00  0.00000000E+00  0.00000000E+00
  0.00000000E+00  0.00000000E+00  0.00000000E+00
  0.00000000E+00  0.00000000E+00  0.00000000E+00
  0.00000000E+00  0.00000000E+00  0.00000000E+00
  0.00000000E+00  0.00000000E+00  0.00000000E+00
  0.00000000E+00  0.00000000E+00  0.00000000E+00
  0.00000000E+00  0.00000000E+00  0.00000000E+00
  0.00000000E+00  0.00000000E+00  0.00000000E+00
  0.00000000E+00  0.00000000E+00  0.00000000E+00
  0.00000000E+00  0.00000000E+00  0.00000000E+00
  0.00000000E+00  0.00000000E+00  0.00000000E+00
  0.00000000E+00  0.00000000E+00  0.00000000E+00
  0.00000000E+00  0.00000000E+00  0.00000000E+00
