Ba Rb F                                 
   1.00000000000000     
    10.2482970000000009  -10.2482970000000009    0.0000000000000000
    10.2482970000000009   10.2482970000000009    0.0000000000000000
     0.0000000000000000    0.0000000000000000   20.4965940000000018
   Ba   F    Rb
    32    96    32
Direct
  0.9984449999766514  0.2412243476099914  0.1242894273286552
  0.9932742929580557  0.2417403626630250  0.3702149462350512
  0.9942405177686653  0.2404500630626972  0.6249118205298498
  0.0022871928618056  0.2421482367382797  0.8675324113613874
  0.4900363925280967  0.2515162154254953  0.1268581683968410
  0.4943163758558763  0.2634870323975036  0.3793781841315537
  0.4962614775811315  0.2505024026805466  0.6269369327878668
  0.5019907496794350  0.2578243267135245  0.8791369660058677
  0.2445582712265937  0.4992905613239005  0.1281477837754299
  0.2474108553969543  0.5068625848534952  0.3799206798536269
  0.2431937792840539  0.4925759234886662  0.6284054358923422
  0.2535747766141516  0.4973487365077250  0.8806271633695686
  0.9948788635020031  0.7524645895117827  0.1280128013607167
  0.9967000681843551  0.7630720333922242  0.3787734274980717
  0.9908140169626839  0.7532144363632730  0.6281848167793260
  0.9957660563257515  0.7603289001240220  0.8798328562482344
  0.7606503486695696  0.4985600538545057  0.1225982496540755
  0.7570660349043000  0.5058636432291808  0.3671592013461357
  0.7573245463263647  0.4969932420042334  0.6232530444794920
  0.7584249856152924  0.4993189984394308  0.8691160685361448
  0.4990247516844585  0.7417636850364323  0.1250531623893984
  0.4960058301141924  0.7422401274788614  0.3680300705444494
  0.4949313800736367  0.7402480253559790  0.6250498473032924
  0.5016580893554049  0.7422001171642865  0.8688292090683442
  0.2594083740188188  0.9961565657490672  0.1234664194215170
  0.2576959508743108  0.0021378478030433  0.3692070415389063
  0.2539877076319755  0.9967334330285123  0.6237246108461083
  0.2574840595008588  0.9966408347932334  0.8712019530448021
  0.7466169737068287  0.9954157406505122  0.1295957355835448
  0.7470662931341875  0.0066825885577497  0.3809478719211685
  0.7390931348640131  0.9961933008019337  0.6274065739320580
  0.7526283682787179  0.0013535156021242  0.8798888850176719
  0.0141993750754345  0.1999683748890736  0.9958347414608282
  0.0238440847177538  0.2911525329372995  0.2474374457149227
  0.0111067505721432  0.2001549849200523  0.4960193272018414
  0.0204976056403293  0.2954854012151092  0.7452199496755414
  0.5461468995015224  0.2727686364384697  0.0043578324386610
  0.4779755051375749  0.2898070660669458  0.2527106549113173
  0.5469687405879572  0.2812727042244589  0.5038713552759781
  0.4558795189981813  0.2732176126343479  0.7530222393831856
  0.2246207639809758  0.5476148849949638  0.0039177284095043
  0.2301785607144385  0.4541638693417784  0.2549371148257515
  0.2149573843560064  0.5446155627036601  0.5046770674351618
  0.2291901780368543  0.4774726957153679  0.7551478240281914
  0.0461541823336060  0.7748073467242365  0.0041783269583632
  0.9519506753959192  0.7802777141439918  0.2535341335627115
  0.0422649858866694  0.7766651451283605  0.5044105867503896
  0.9594482031361992  0.7802648392749865  0.7539778419950073
  0.7124556693473599  0.5112166872026914  0.9946024844754915
  0.8157114108853809  0.5034688633838416  0.2454764168837018
  0.7118944539226161  0.5041081177131140  0.4950892655749344
  0.8096144582307840  0.5239221023240479  0.7454773765485199
  0.5162204351909425  0.7021528979372706  0.9962240571339340
  0.5293460586999629  0.7936067543327504  0.2465544470515093
  0.5130564162312253  0.7039705366729110  0.4952913249901200
  0.5120291668146224  0.7952780068292880  0.7460947305069200
  0.2113773446150141  0.0087491201630419  0.9959803172777379
  0.3115820824521306  0.0128475050706265  0.2462332002563169
  0.2111524516301696  0.0139614299826500  0.4960310638836317
  0.3081834151734949  0.0208246002688893  0.7465462184795424
  0.7231428606715501  0.0449425482511851  0.0047473103360274
  0.7297234355843470  0.9612752145071647  0.2558604535539645
  0.7108482544771753  0.0381869658140936  0.5040338654816077
  0.7547202753876938  0.9497887764910428  0.7541503935434907
  0.1014902639501048  0.0919608810722859  0.1370661616260711
  0.1167353668721424  0.1143401127693535  0.3386871669030329
  0.0970567497236994  0.0900883604386543  0.6360509155463544
  0.1281005872434193  0.1175624663468243  0.8404036274937499
  0.6047193754122311  0.1126262572644186  0.1542935639421029
  0.5998275945776508  0.1153684161339388  0.3512488676112617
  0.6010023062079348  0.1068037845864890  0.6646301100072223
  0.6105325061373773  0.1129567492922603  0.8497329536179277
  0.4047766043375282  0.4125105225061090  0.1170931260668406
  0.4015178842699442  0.4170912125746130  0.4009466436554075
  0.4048622315833328  0.4096518985220639  0.6184639590904558
  0.4107499245516159  0.4133385299529077  0.8992317954052630
  0.1053720937780174  0.6117534467693386  0.1611392622047791
  0.1005284988520181  0.6142722845519257  0.3521384302618415
  0.1004483017455847  0.6096866133681764  0.6571368289161442
  0.1050936261368442  0.6124614795569547  0.8605612379176298
  0.8863362028673485  0.3764780354184643  0.0838660197120022
  0.8963888200407730  0.3929091379331009  0.3996524408165104
  0.8848008291584638  0.3772785129972801  0.5849571194593554
  0.9133826650451942  0.4033318666379967  0.8824999486674544
  0.6015881293316980  0.5895353211415136  0.1334508936396649
  0.6177493763797156  0.6145368839668224  0.3351917985592000
  0.5989600944155390  0.5903428937293174  0.6338946650466462
  0.6200886759439012  0.6121169882706555  0.8339568399597036
  0.3949282942406054  0.8829886063123706  0.0902578630872841
  0.4122824565346593  0.9051140683681065  0.3848313363049128
  0.3844537530740624  0.8778296056294199  0.5863313986809671
  0.4121084392975370  0.9015154057651955  0.8889861973179496
  0.9075503681970895  0.9131613487007108  0.1176361931214841
  0.9045543528746345  0.9199996848398934  0.3988984547773876
  0.9011143359483851  0.9119239292826428  0.6164796366406754
  0.9100525457950449  0.9169463017053088  0.9003189811201107
  0.8388199507215445  0.1540505473507396  0.1411090180736242
  0.8311513939242312  0.1650729576023248  0.3624820062111896
  0.8532277670386519  0.1338820296628329  0.6583248984604259
  0.8599674534664684  0.1372771334585060  0.8389670868064909
  0.3448454906649985  0.1533115915458552  0.0994670890105676
  0.3363133214795771  0.1697666012864650  0.3855978674096710
  0.3427682882761401  0.1561091945534008  0.6064388883528110
  0.3482732821111399  0.1582988956510726  0.8843140258544492
  0.1318446204752370  0.3609996711745136  0.0941508088222427
  0.1359447932566111  0.3567672374727321  0.3944499147348136
  0.1331404400143077  0.3545921899749868  0.5909189719805771
  0.1421332995777164  0.3556342554767511  0.9041472729541048
  0.8520081880279334  0.6506922727029837  0.0974168916035539
  0.8389301724967184  0.6685771917542084  0.3882510748211251
  0.8402705122296698  0.6575792230723588  0.6053654561921156
  0.8401772527839388  0.6643724688167107  0.8847256576401348
  0.6493715083605925  0.3517650666223032  0.1408836193735494
  0.6547160667357983  0.3542517533984295  0.3608270232446246
  0.6418739480462842  0.3596596300925292  0.6579536509057748
  0.6427467542281777  0.3640931227952617  0.8392435733156145
  0.3594930175575433  0.6345964200846615  0.1602381348225232
  0.3441419363822757  0.6518264399315273  0.3476928153879471
  0.3364878972878802  0.6502982329504937  0.6381162404808447
  0.3401192394007886  0.6579875924917291  0.8645607899097345
  0.1418467410828171  0.8605783331405383  0.1581966744635983
  0.1395008150383461  0.8679343270212362  0.3401929693126794
  0.1535732929775596  0.8433228082191759  0.6411063921112368
  0.1601904240349118  0.8423276389856270  0.8607699439546361
  0.6386178246001009  0.8555122176823046  0.0946650233479432
  0.6437001752613453  0.8525391489787092  0.3965843534920502
  0.6315692226311260  0.8547942612546301  0.5933051820773314
  0.6419166345771243  0.8559546963033481  0.9008091010791124
  0.0152962719190776  0.9910120729911951  0.0127925544439977
  0.0295699487121925  0.9706758783444728  0.2421788552455214
  0.0136753765915452  0.9901050153021068  0.5116986704724258
  0.9592712953163033  0.9989239439104742  0.7399899341697349
  0.5289100512905358  0.9516572398431528  0.9980790994881625
  0.5135692776765416  0.9907502762436456  0.2612754508619811
  0.5245833753568808  0.9469045374058735  0.4953276417842598
  0.5068137948380398  0.9936221881269868  0.7646752025823691
  0.2216818364441168  0.2178050090529227  0.9964258758162612
  0.2281762052603616  0.2561163357722977  0.2769197777288815
  0.2195449260014640  0.2199802388456883  0.4995655818966488
  0.2629835620297661  0.2174298417377840  0.7612255954599813
  0.0251419056497955  0.4535411016773001  0.9946119133303819
  0.0196476570209334  0.4921641614219351  0.2578345989532508
  0.0243927915350982  0.4518859625499292  0.4971550942123742
  0.0161082666244059  0.4921544264146755  0.7647257073719544
  0.7362120762752975  0.2426901078078928  0.0393761720569415
  0.7071593966449252  0.2303229799926203  0.2527716781737080
  0.7466370173812719  0.2804305553871067  0.4752305543152278
  0.7223628965148958  0.2221733556947459  0.7507585655092185
  0.5177899902503078  0.4896444710153077  0.0119304594764055
  0.4963993971436623  0.4922014723708478  0.2308032978884721
  0.5139724007913424  0.4893302408101979  0.5127133556559470
  0.5296618729259268  0.4677728216082334  0.7430496578667656
  0.2348424369586086  0.7409334976144258  0.9719676450637582
  0.2210107293212853  0.7281916422059247  0.2508206828681247
  0.2347493247305309  0.7418352958974671  0.5362362434743413
  0.2163957917648102  0.7147164925550356  0.7525975450780144
  0.7231915466272354  0.7201801774955490  0.9987906119890131
  0.7407393394737180  0.7630058526011526  0.2780527304454620
  0.7202982646332545  0.7230174846659482  0.5000293691317497
  0.7584198781790241  0.7345145940200855  0.7637271616178671
 
  0.00000000E+00  0.00000000E+00  0.00000000E+00
  0.00000000E+00  0.00000000E+00  0.00000000E+00
  0.00000000E+00  0.00000000E+00  0.00000000E+00
  0.00000000E+00  0.00000000E+00  0.00000000E+00
  0.00000000E+00  0.00000000E+00  0.00000000E+00
  0.00000000E+00  0.00000000E+00  0.00000000E+00
  0.00000000E+00  0.00000000E+00  0.00000000E+00
  0.00000000E+00  0.00000000E+00  0.00000000E+00
  0.00000000E+00  0.00000000E+00  0.00000000E+00
  0.00000000E+00  0.00000000E+00  0.00000000E+00
  0.00000000E+00  0.00000000E+00  0.00000000E+00
  0.00000000E+00  0.00000000E+00  0.00000000E+00
  0.00000000E+00  0.00000000E+00  0.00000000E+00
  0.00000000E+00  0.00000000E+00  0.00000000E+00
  0.00000000E+00  0.00000000E+00  0.00000000E+00
  0.00000000E+00  0.00000000E+00  0.00000000E+00
  0.00000000E+00  0.00000000E+00  0.00000000E+00
  0.00000000E+00  0.00000000E+00  0.00000000E+00
  0.00000000E+00  0.00000000E+00  0.00000000E+00
  0.00000000E+00  0.00000000E+00  0.00000000E+00
  0.00000000E+00  0.00000000E+00  0.00000000E+00
  0.00000000E+00  0.00000000E+00  0.00000000E+00
  0.00000000E+00  0.00000000E+00  0.00000000E+00
  0.00000000E+00  0.00000000E+00  0.00000000E+00
  0.00000000E+00  0.00000000E+00  0.00000000E+00
  0.00000000E+00  0.00000000E+00  0.00000000E+00
  0.00000000E+00  0.00000000E+00  0.00000000E+00
  0.00000000E+00  0.00000000E+00  0.00000000E+00
  0.00000000E+00  0.00000000E+00  0.00000000E+00
  0.00000000E+00  0.00000000E+00  0.00000000E+00
  0.00000000E+00  0.00000000E+00  0.00000000E+00
  0.00000000E+00  0.00000000E+00  0.00000000E+00
  0.00000000E+00  0.00000000E+00  0.00000000E+00
  0.00000000E+00  0.00000000E+00  0.00000000E+00
  0.00000000E+00  0.00000000E+00  0.00000000E+00
  0.00000000E+00  0.00000000E+00  0.00000000E+00
  0.00000000E+00  0.00000000E+00  0.00000000E+00
  0.00000000E+00  0.00000000E+00  0.00000000E+00
  0.00000000E+00  0.00000000E+00  0.00000000E+00
  0.00000000E+00  0.00000000E+00  0.00000000E+00
  0.00000000E+00  0.00000000E+00  0.00000000E+00
  0.00000000E+00  0.00000000E+00  0.00000000E+00
  0.00000000E+00  0.00000000E+00  0.00000000E+00
  0.00000000E+00  0.00000000E+00  0.00000000E+00
  0.00000000E+00  0.00000000E+00  0.00000000E+00
  0.00000000E+00  0.00000000E+00  0.00000000E+00
  0.00000000E+00  0.00000000E+00  0.00000000E+00
  0.00000000E+00  0.00000000E+00  0.00000000E+00
  0.00000000E+00  0.00000000E+00  0.00000000E+00
  0.00000000E+00  0.00000000E+00  0.00000000E+00
  0.00000000E+00  0.00000000E+00  0.00000000E+00
  0.00000000E+00  0.00000000E+00  0.00000000E+00
  0.00000000E+00  0.00000000E+00  0.00000000E+00
  0.00000000E+00  0.00000000E+00  0.00000000E+00
  0.00000000E+00  0.00000000E+00  0.00000000E+00
  0.00000000E+00  0.00000000E+00  0.00000000E+00
  0.00000000E+00  0.00000000E+00  0.00000000E+00
  0.00000000E+00  0.00000000E+00  0.00000000E+00
  0.00000000E+00  0.00000000E+00  0.00000000E+00
  0.00000000E+00  0.00000000E+00  0.00000000E+00
  0.00000000E+00  0.00000000E+00  0.00000000E+00
  0.00000000E+00  0.00000000E+00  0.00000000E+00
  0.00000000E+00  0.00000000E+00  0.00000000E+00
  0.00000000E+00  0.00000000E+00  0.00000000E+00
  0.00000000E+00  0.00000000E+00  0.00000000E+00
  0.00000000E+00  0.00000000E+00  0.00000000E+00
  0.00000000E+00  0.00000000E+00  0.00000000E+00
  0.00000000E+00  0.00000000E+00  0.00000000E+00
  0.00000000E+00  0.00000000E+00  0.00000000E+00
  0.00000000E+00  0.00000000E+00  0.00000000E+00
  0.00000000E+00  0.00000000E+00  0.00000000E+00
  0.00000000E+00  0.00000000E+00  0.00000000E+00
  0.00000000E+00  0.00000000E+00  0.00000000E+00
  0.00000000E+00  0.00000000E+00  0.00000000E+00
  0.00000000E+00  0.00000000E+00  0.00000000E+00
  0.00000000E+00  0.00000000E+00  0.00000000E+00
  0.00000000E+00  0.00000000E+00  0.00000000E+00
  0.00000000E+00  0.00000000E+00  0.00000000E+00
  0.00000000E+00  0.00000000E+00  0.00000000E+00
  0.00000000E+00  0.00000000E+00  0.00000000E+00
  0.00000000E+00  0.00000000E+00  0.00000000E+00
  0.00000000E+00  0.00000000E+00  0.00000000E+00
  0.00000000E+00  0.00000000E+00  0.00000000E+00
  0.00000000E+00  0.00000000E+00  0.00000000E+00
  0.00000000E+00  0.00000000E+00  0.00000000E+00
  0.00000000E+00  0.00000000E+00  0.00000000E+00
  0.00000000E+00  0.00000000E+00  0.00000000E+00
  0.00000000E+00  0.00000000E+00  0.00000000E+00
  0.00000000E+00  0.00000000E+00  0.00000000E+00
  0.00000000E+00  0.00000000E+00  0.00000000E+00
  0.00000000E+00  0.00000000E+00  0.00000000E+00
  0.00000000E+00  0.00000000E+00  0.00000000E+00
  0.00000000E+00  0.00000000E+00  0.00000000E+00
  0.00000000E+00  0.00000000E+00  0.00000000E+00
  0.00000000E+00  0.00000000E+00  0.00000000E+00
  0.00000000E+00  0.00000000E+00  0.00000000E+00
  0.00000000E+00  0.00000000E+00  0.00000000E+00
  0.00000000E+00  0.00000000E+00  0.00000000E+00
  0.00000000E+00  0.00000000E+00  0.00000000E+00
  0.00000000E+00  0.00000000E+00  0.00000000E+00
  0.00000000E+00  0.00000000E+00  0.00000000E+00
  0.00000000E+00  0.00000000E+00  0.00000000E+00
  0.00000000E+00  0.00000000E+00  0.00000000E+00
  0.00000000E+00  0.00000000E+00  0.00000000E+00
  0.00000000E+00  0.00000000E+00  0.00000000E+00
  0.00000000E+00  0.00000000E+00  0.00000000E+00
  0.00000000E+00  0.00000000E+00  0.00000000E+00
  0.00000000E+00  0.00000000E+00  0.00000000E+00
  0.00000000E+00  0.00000000E+00  0.00000000E+00
  0.00000000E+00  0.00000000E+00  0.00000000E+00
  0.00000000E+00  0.00000000E+00  0.00000000E+00
  0.00000000E+00  0.00000000E+00  0.00000000E+00
  0.00000000E+00  0.00000000E+00  0.00000000E+00
  0.00000000E+00  0.00000000E+00  0.00000000E+00
  0.00000000E+00  0.00000000E+00  0.00000000E+00
  0.00000000E+00  0.00000000E+00  0.00000000E+00
  0.00000000E+00  0.00000000E+00  0.00000000E+00
  0.00000000E+00  0.00000000E+00  0.00000000E+00
  0.00000000E+00  0.00000000E+00  0.00000000E+00
  0.00000000E+00  0.00000000E+00  0.00000000E+00
  0.00000000E+00  0.00000000E+00  0.00000000E+00
  0.00000000E+00  0.00000000E+00  0.00000000E+00
  0.00000000E+00  0.00000000E+00  0.00000000E+00
  0.00000000E+00  0.00000000E+00  0.00000000E+00
  0.00000000E+00  0.00000000E+00  0.00000000E+00
  0.00000000E+00  0.00000000E+00  0.00000000E+00
  0.00000000E+00  0.00000000E+00  0.00000000E+00
  0.00000000E+00  0.00000000E+00  0.00000000E+00
  0.00000000E+00  0.00000000E+00  0.00000000E+00
  0.00000000E+00  0.00000000E+00  0.00000000E+00
  0.00000000E+00  0.00000000E+00  0.00000000E+00
  0.00000000E+00  0.00000000E+00  0.00000000E+00
  0.00000000E+00  0.00000000E+00  0.00000000E+00
  0.00000000E+00  0.00000000E+00  0.00000000E+00
  0.00000000E+00  0.00000000E+00  0.00000000E+00
  0.00000000E+00  0.00000000E+00  0.00000000E+00
  0.00000000E+00  0.00000000E+00  0.00000000E+00
  0.00000000E+00  0.00000000E+00  0.00000000E+00
  0.00000000E+00  0.00000000E+00  0.00000000E+00
  0.00000000E+00  0.00000000E+00  0.00000000E+00
  0.00000000E+00  0.00000000E+00  0.00000000E+00
  0.00000000E+00  0.00000000E+00  0.00000000E+00
  0.00000000E+00  0.00000000E+00  0.00000000E+00
  0.00000000E+00  0.00000000E+00  0.00000000E+00
  0.00000000E+00  0.00000000E+00  0.00000000E+00
  0.00000000E+00  0.00000000E+00  0.00000000E+00
  0.00000000E+00  0.00000000E+00  0.00000000E+00
  0.00000000E+00  0.00000000E+00  0.00000000E+00
  0.00000000E+00  0.00000000E+00  0.00000000E+00
  0.00000000E+00  0.00000000E+00  0.00000000E+00
  0.00000000E+00  0.00000000E+00  0.00000000E+00
  0.00000000E+00  0.00000000E+00  0.00000000E+00
  0.00000000E+00  0.00000000E+00  0.00000000E+00
  0.00000000E+00  0.00000000E+00  0.00000000E+00
  0.00000000E+00  0.00000000E+00  0.00000000E+00
  0.00000000E+00  0.00000000E+00  0.00000000E+00
  0.00000000E+00  0.00000000E+00  0.00000000E+00
  0.00000000E+00  0.00000000E+00  0.00000000E+00
  0.00000000E+00  0.00000000E+00  0.00000000E+00
  0.00000000E+00  0.00000000E+00  0.00000000E+00
