Ba Rb Cl                                
   1.00000000000000     
    12.0748780000000000  -12.0748780000000000    0.0000000000000000
    12.0748780000000000   12.0748780000000000    0.0000000000000000
     0.0000000000000000    0.0000000000000000   24.1497570000000010
   Ba   Cl   Rb
    32    96    32
Direct
  0.0054227235146928  0.9898871423267366  0.9961956105119633
  0.0034183333228297  0.0048337490883795  0.2397498837616768
  0.0034788172280001  0.9970642189919220  0.4946123352034051
  0.0029551746847500  0.9977545738569074  0.7489965377829755
  0.5065257354272110  0.9992520991783039  0.9923043209692947
  0.4918939157987840  0.0089076474124463  0.2448644093021058
  0.4987982866507883  0.0035597675603315  0.5003629431192719
  0.4892221658759475  0.0045876016312254  0.7505640183958558
  0.2475911087950449  0.2460709286912231  0.0012618110960359
  0.2421893552505211  0.2539589355031311  0.2516704329766655
  0.2515080757352644  0.2531638598573012  0.4995399496969652
  0.2484374927416330  0.2469402554311639  0.7504939757084984
  0.0018675685154793  0.5006706012642166  0.0043842870010210
  0.9953076278526739  0.5057200975124209  0.2547743838102925
  0.9990203873902143  0.5025308353736307  0.5041144637167762
  0.0079422061352098  0.4973591633701048  0.7579147522970021
  0.7531937863296186  0.2437868384615605  0.0006640263696765
  0.7541737981266038  0.2509832142523500  0.2467911988646122
  0.7614233398270412  0.2464206073577448  0.5025806267839069
  0.7535968201704494  0.2511234835915994  0.7560630545796873
  0.4985437345597576  0.4985760456055450  0.9999528556647976
  0.4984579036582326  0.4981645674641779  0.2480924415265445
  0.5029171991469147  0.5013230958411706  0.5047820085048849
  0.4995929869775960  0.4965765261286918  0.7491449168316340
  0.2541509944289281  0.7472890259412619  0.9972146758210182
  0.2546147700620362  0.7543571617717625  0.2516439106712050
  0.2567761205019927  0.7484096035323028  0.5023672518724872
  0.2496074401352281  0.7442967695127511  0.7515811589075515
  0.7439769226945373  0.7484859166251919  0.9935913060036731
  0.7405871622764378  0.7488544344017617  0.2399825034695306
  0.7473027697950986  0.7520761781432940  0.4953316176716278
  0.7510791251226866  0.7471995596000767  0.7496777860726329
  0.1602402153286744  0.0842236413997556  0.0161684901318950
  0.0888931216911910  0.1624583447919929  0.2245402820775856
  0.1590677897029141  0.0972164237461498  0.5134530144389219
  0.0874506446906251  0.1614297191815186  0.7343021866994083
  0.6666142967238428  0.0817732352178403  0.0153512380350766
  0.6047315332235160  0.1475378390039990  0.2172248125011286
  0.6477810193867036  0.1063428445193767  0.5207115849420845
  0.5941548186290529  0.1557225009001919  0.7322536117424464
  0.3430667920817900  0.4013051427253996  0.9811800132762064
  0.4019024025280296  0.3429645688720466  0.2655540783292322
  0.3499914489913090  0.4044547306047618  0.4830005086670385
  0.3929992901295642  0.3531668650590138  0.7810285624774808
  0.1569382136890922  0.5955555775367873  0.0116234032341469
  0.1069646757327999  0.6495359518095505  0.2807024803639543
  0.1568424997653556  0.5940968855227311  0.4873128257035458
  0.0920170553974783  0.6579856867883755  0.7665625359461753
  0.8422011381061875  0.4065805848300210  0.9927399595699028
  0.9109954248752241  0.3446499797233480  0.2490543036500499
  0.8416079570818630  0.4095191451256073  0.5173734669529243
  0.8932697142156667  0.3586001849922933  0.7860328135243955
  0.6469181494491451  0.5995604362759068  0.0235124908131134
  0.5810686323747071  0.6626812540795948  0.2344660796916540
  0.6607381393217469  0.5899376637472135  0.4951277970208567
  0.5900305129813125  0.6559157602908531  0.7458639322369395
  0.3492797186971215  0.9048486492894030  0.9825341925878845
  0.4095362922203949  0.8472506432389998  0.2509896906673559
  0.3408398063969545  0.9115499782155071  0.5139793353128245
  0.4078591738858301  0.8395296473197825  0.7494026848408325
  0.8651197336046422  0.8814445537652814  0.9597517383970451
  0.8960133640813606  0.8507937593939142  0.2576102900964912
  0.8597027181669393  0.8905621547130865  0.4761871318806500
  0.9100234875919834  0.8380116741702787  0.7527159064617273
  0.8972826754769127  0.1358079569368838  0.9862813011170503
  0.8376128104114527  0.0856244258331647  0.2415413275980350
  0.9180478962833062  0.1565836306384858  0.5049722695376376
  0.8394337972899925  0.0876244126402492  0.7541411956432936
  0.3947703129354498  0.1402069395088698  0.0303794785630694
  0.3510747912148239  0.1128765220026091  0.2125058137860827
  0.4143898548404799  0.1688697467383410  0.5083947457911422
  0.3377049295456935  0.0939838325294847  0.7197862098383131
  0.0862800557485348  0.3347738049849054  0.9934896658159557
  0.1369845308888110  0.3953088350440932  0.2925055806296158
  0.0897476287236257  0.3421588312996540  0.4902668562368722
  0.1450741550463035  0.3889399964350539  0.7919872985047647
  0.9024590519881105  0.6572950303467840  0.0169826849421862
  0.8624676282905751  0.6201091329876595  0.2152697494010106
  0.8943291673322341  0.6477477857256582  0.5323104204393241
  0.8579749519364562  0.5988460684181708  0.7229588507861378
  0.6083775299010098  0.3535193855652119  0.0053797071677029
  0.6586338421954238  0.4072053673573039  0.2400191182499309
  0.6054505288613722  0.3456179623624260  0.4866682544944175
  0.6431633970585579  0.3922603952455747  0.7853692647727181
  0.3935759889535833  0.6398620230300206  0.0347808049194987
  0.3387906155372231  0.5914182741515037  0.2361291767410548
  0.3894454525049496  0.6341712111078234  0.5414192133971918
  0.3371540046587598  0.5825086292559011  0.7292762252109863
  0.1121058382304134  0.8501244824286526  0.9589415383150616
  0.1475819209072444  0.8986541630990503  0.2765794877123486
  0.1233227496588782  0.8648804866602752  0.4650284136359384
  0.1637846238114758  0.9083527796239809  0.7614698988398723
  0.5954720803202087  0.8446869121015531  0.9587466911402616
  0.6459302927688243  0.9076297154529102  0.2607113243871239
  0.5898663895422503  0.8456453673505780  0.4878615551331962
  0.6435644308325755  0.8968898276109524  0.7477853513216260
  0.9954483040443916  0.9457938077348818  0.1195121105098180
  0.9865169490374092  0.0056557786685735  0.3672138605884869
  0.0254777064376346  0.9945531629278817  0.6219832853024959
  0.0209203394248437  0.0386131254443402  0.8720712964604935
  0.5041656945397869  0.9568812328862584  0.1198828382452090
  0.4661784991705155  0.9959902586949410  0.3728577905907970
  0.5204747611360264  0.9790729604527542  0.6257286084190934
  0.4892477471316591  0.0577644728818189  0.8720078518429785
  0.2560457895117035  0.3004878941559903  0.1262459911820816
  0.2697444603253182  0.2042728778235739  0.3754584865169126
  0.2292705379956650  0.2951477816799914  0.6246674951757313
  0.2313766750932806  0.1991509744110409  0.8759826127845666
  0.0252104001691183  0.4736089661996077  0.1305658536966639
  0.9474276864376879  0.4930143485773502  0.3800889230858427
  0.0467742141278606  0.5116681140261524  0.6304385924480833
  0.9740649619310958  0.5388659045480680  0.8801678930328056
  0.7914657198621655  0.2716513100259679  0.1230995072323231
  0.7791476648084644  0.2697391774824511  0.3751092092120946
  0.7435321863969749  0.2442338322324061  0.6296320045270755
  0.7184837965035072  0.2114594875066358  0.8773620103923694
  0.4774436330809799  0.4550643450259833  0.1244844429433852
  0.5182248472207375  0.4882413765696924  0.3760121648275030
  0.5278543928958667  0.4490345748445045  0.6265110730896492
  0.4818552543240924  0.5400241493294939  0.8748791140764810
  0.2654798535570808  0.7928852462313406  0.1245701562818117
  0.2956316984991539  0.7299676272201512  0.3772092377890310
  0.2027886084257851  0.7653970880703368  0.6261147260004675
  0.2949028867126564  0.7073016229858125  0.8741672724332089
  0.7522991577206520  0.8063230517576651  0.1176505171277588
  0.7303884219717903  0.7563603524204782  0.3671576513798238
  0.7213432975938227  0.7433938627963591  0.6224441315387687
  0.7685019739198401  0.6938710928569187  0.8714450477132040
  0.9961054068124385  0.2816197672677068  0.1291376839887003
  0.9852961040327163  0.2965118345942011  0.3722853295934943
  0.0465967756664093  0.2108365803567112  0.6030065112922536
  0.0356772474006740  0.2432141538859932  0.8673323784494743
  0.4580420890641790  0.2546129111643281  0.1396521097010911
  0.4580903425211190  0.2928962523249590  0.3940745735146661
  0.5433065787097259  0.2476496133651345  0.6040937893218806
  0.5286444997831429  0.2502360647471516  0.8526823209861901
  0.2777795193937182  0.4980677000760212  0.1021625501550919
  0.2359398698483171  0.5393273002926248  0.3603779017288077
  0.2499776244423092  0.5075707099615591  0.6036837491079714
  0.2865893511156064  0.4983721629065900  0.8602757816179673
  0.9440831655069918  0.7582947472402156  0.1307319370242418
  0.0247146685068266  0.7983201864274490  0.3568514871995453
  0.9992854636091599  0.7119486799977118  0.6508049428633322
  0.9715824783050890  0.7384452971172403  0.8843128411672024
  0.7247228049923730  0.4596643700647574  0.1051359669044453
  0.7285693314161747  0.4610041531060525  0.3981253827161815
  0.7629283337340466  0.5413890158010292  0.6073236834555776
  0.7842523604190349  0.4915239359594958  0.8690695546501398
  0.4685806488272226  0.7573702988407872  0.1344194231093792
  0.5288311957845816  0.7975059324718808  0.3560230565788280
  0.5313429057087352  0.7837726682154810  0.6431939512359778
  0.4922056141970133  0.7372528994344713  0.8592678621978816
  0.2926044554658933  0.9976157101354260  0.1011397225648589
  0.2533661615295963  0.9968719650332324  0.4015705087557054
  0.2281235404958516  0.9732741727430437  0.6304845748128319
  0.2188634329117367  0.9982288110680980  0.8894229283064826
  0.7118430811662297  0.0042894408048133  0.1427239218476357
  0.7946655957969259  0.9561319380031649  0.3508057535558053
  0.7072229707773396  0.0378158349629870  0.6507304651682947
  0.7865157088805622  0.0311015665553097  0.8912572286753560
 
  0.00000000E+00  0.00000000E+00  0.00000000E+00
  0.00000000E+00  0.00000000E+00  0.00000000E+00
  0.00000000E+00  0.00000000E+00  0.00000000E+00
  0.00000000E+00  0.00000000E+00  0.00000000E+00
  0.00000000E+00  0.00000000E+00  0.00000000E+00
  0.00000000E+00  0.00000000E+00  0.00000000E+00
  0.00000000E+00  0.00000000E+00  0.00000000E+00
  0.00000000E+00  0.00000000E+00  0.00000000E+00
  0.00000000E+00  0.00000000E+00  0.00000000E+00
  0.00000000E+00  0.00000000E+00  0.00000000E+00
  0.00000000E+00  0.00000000E+00  0.00000000E+00
  0.00000000E+00  0.00000000E+00  0.00000000E+00
  0.00000000E+00  0.00000000E+00  0.00000000E+00
  0.00000000E+00  0.00000000E+00  0.00000000E+00
  0.00000000E+00  0.00000000E+00  0.00000000E+00
  0.00000000E+00  0.00000000E+00  0.00000000E+00
  0.00000000E+00  0.00000000E+00  0.00000000E+00
  0.00000000E+00  0.00000000E+00  0.00000000E+00
  0.00000000E+00  0.00000000E+00  0.00000000E+00
  0.00000000E+00  0.00000000E+00  0.00000000E+00
  0.00000000E+00  0.00000000E+00  0.00000000E+00
  0.00000000E+00  0.00000000E+00  0.00000000E+00
  0.00000000E+00  0.00000000E+00  0.00000000E+00
  0.00000000E+00  0.00000000E+00  0.00000000E+00
  0.00000000E+00  0.00000000E+00  0.00000000E+00
  0.00000000E+00  0.00000000E+00  0.00000000E+00
  0.00000000E+00  0.00000000E+00  0.00000000E+00
  0.00000000E+00  0.00000000E+00  0.00000000E+00
  0.00000000E+00  0.00000000E+00  0.00000000E+00
  0.00000000E+00  0.00000000E+00  0.00000000E+00
  0.00000000E+00  0.00000000E+00  0.00000000E+00
  0.00000000E+00  0.00000000E+00  0.00000000E+00
  0.00000000E+00  0.00000000E+00  0.00000000E+00
  0.00000000E+00  0.00000000E+00  0.00000000E+00
  0.00000000E+00  0.00000000E+00  0.00000000E+00
  0.00000000E+00  0.00000000E+00  0.00000000E+00
  0.00000000E+00  0.00000000E+00  0.00000000E+00
  0.00000000E+00  0.00000000E+00  0.00000000E+00
  0.00000000E+00  0.00000000E+00  0.00000000E+00
  0.00000000E+00  0.00000000E+00  0.00000000E+00
  0.00000000E+00  0.00000000E+00  0.00000000E+00
  0.00000000E+00  0.00000000E+00  0.00000000E+00
  0.00000000E+00  0.00000000E+00  0.00000000E+00
  0.00000000E+00  0.00000000E+00  0.00000000E+00
  0.00000000E+00  0.00000000E+00  0.00000000E+00
  0.00000000E+00  0.00000000E+00  0.00000000E+00
  0.00000000E+00  0.00000000E+00  0.00000000E+00
  0.00000000E+00  0.00000000E+00  0.00000000E+00
  0.00000000E+00  0.00000000E+00  0.00000000E+00
  0.00000000E+00  0.00000000E+00  0.00000000E+00
  0.00000000E+00  0.00000000E+00  0.00000000E+00
  0.00000000E+00  0.00000000E+00  0.00000000E+00
  0.00000000E+00  0.00000000E+00  0.00000000E+00
  0.00000000E+00  0.00000000E+00  0.00000000E+00
  0.00000000E+00  0.00000000E+00  0.00000000E+00
  0.00000000E+00  0.00000000E+00  0.00000000E+00
  0.00000000E+00  0.00000000E+00  0.00000000E+00
  0.00000000E+00  0.00000000E+00  0.00000000E+00
  0.00000000E+00  0.00000000E+00  0.00000000E+00
  0.00000000E+00  0.00000000E+00  0.00000000E+00
  0.00000000E+00  0.00000000E+00  0.00000000E+00
  0.00000000E+00  0.00000000E+00  0.00000000E+00
  0.00000000E+00  0.00000000E+00  0.00000000E+00
  0.00000000E+00  0.00000000E+00  0.00000000E+00
  0.00000000E+00  0.00000000E+00  0.00000000E+00
  0.00000000E+00  0.00000000E+00  0.00000000E+00
  0.00000000E+00  0.00000000E+00  0.00000000E+00
  0.00000000E+00  0.00000000E+00  0.00000000E+00
  0.00000000E+00  0.00000000E+00  0.00000000E+00
  0.00000000E+00  0.00000000E+00  0.00000000E+00
  0.00000000E+00  0.00000000E+00  0.00000000E+00
  0.00000000E+00  0.00000000E+00  0.00000000E+00
  0.00000000E+00  0.00000000E+00  0.00000000E+00
  0.00000000E+00  0.00000000E+00  0.00000000E+00
  0.00000000E+00  0.00000000E+00  0.00000000E+00
  0.00000000E+00  0.00000000E+00  0.00000000E+00
  0.00000000E+00  0.00000000E+00  0.00000000E+00
  0.00000000E+00  0.00000000E+00  0.00000000E+00
  0.00000000E+00  0.00000000E+00  0.00000000E+00
  0.00000000E+00  0.00000000E+00  0.00000000E+00
  0.00000000E+00  0.00000000E+00  0.00000000E+00
  0.00000000E+00  0.00000000E+00  0.00000000E+00
  0.00000000E+00  0.00000000E+00  0.00000000E+00
  0.00000000E+00  0.00000000E+00  0.00000000E+00
  0.00000000E+00  0.00000000E+00  0.00000000E+00
  0.00000000E+00  0.00000000E+00  0.00000000E+00
  0.00000000E+00  0.00000000E+00  0.00000000E+00
  0.00000000E+00  0.00000000E+00  0.00000000E+00
  0.00000000E+00  0.00000000E+00  0.00000000E+00
  0.00000000E+00  0.00000000E+00  0.00000000E+00
  0.00000000E+00  0.00000000E+00  0.00000000E+00
  0.00000000E+00  0.00000000E+00  0.00000000E+00
  0.00000000E+00  0.00000000E+00  0.00000000E+00
  0.00000000E+00  0.00000000E+00  0.00000000E+00
  0.00000000E+00  0.00000000E+00  0.00000000E+00
  0.00000000E+00  0.00000000E+00  0.00000000E+00
  0.00000000E+00  0.00000000E+00  0.00000000E+00
  0.00000000E+00  0.00000000E+00  0.00000000E+00
  0.00000000E+00  0.00000000E+00  0.00000000E+00
  0.00000000E+00  0.00000000E+00  0.00000000E+00
  0.00000000E+00  0.00000000E+00  0.00000000E+00
  0.00000000E+00  0.00000000E+00  0.00000000E+00
  0.00000000E+00  0.00000000E+00  0.00000000E+00
  0.00000000E+00  0.00000000E+00  0.00000000E+00
  0.00000000E+00  0.00000000E+00  0.00000000E+00
  0.00000000E+00  0.00000000E+00  0.00000000E+00
  0.00000000E+00  0.00000000E+00  0.00000000E+00
  0.00000000E+00  0.00000000E+00  0.00000000E+00
  0.00000000E+00  0.00000000E+00  0.00000000E+00
  0.00000000E+00  0.00000000E+00  0.00000000E+00
  0.00000000E+00  0.00000000E+00  0.00000000E+00
  0.00000000E+00  0.00000000E+00  0.00000000E+00
  0.00000000E+00  0.00000000E+00  0.00000000E+00
  0.00000000E+00  0.00000000E+00  0.00000000E+00
  0.00000000E+00  0.00000000E+00  0.00000000E+00
  0.00000000E+00  0.00000000E+00  0.00000000E+00
  0.00000000E+00  0.00000000E+00  0.00000000E+00
  0.00000000E+00  0.00000000E+00  0.00000000E+00
  0.00000000E+00  0.00000000E+00  0.00000000E+00
  0.00000000E+00  0.00000000E+00  0.00000000E+00
  0.00000000E+00  0.00000000E+00  0.00000000E+00
  0.00000000E+00  0.00000000E+00  0.00000000E+00
  0.00000000E+00  0.00000000E+00  0.00000000E+00
  0.00000000E+00  0.00000000E+00  0.00000000E+00
  0.00000000E+00  0.00000000E+00  0.00000000E+00
  0.00000000E+00  0.00000000E+00  0.00000000E+00
  0.00000000E+00  0.00000000E+00  0.00000000E+00
  0.00000000E+00  0.00000000E+00  0.00000000E+00
  0.00000000E+00  0.00000000E+00  0.00000000E+00
  0.00000000E+00  0.00000000E+00  0.00000000E+00
  0.00000000E+00  0.00000000E+00  0.00000000E+00
  0.00000000E+00  0.00000000E+00  0.00000000E+00
  0.00000000E+00  0.00000000E+00  0.00000000E+00
  0.00000000E+00  0.00000000E+00  0.00000000E+00
  0.00000000E+00  0.00000000E+00  0.00000000E+00
  0.00000000E+00  0.00000000E+00  0.00000000E+00
  0.00000000E+00  0.00000000E+00  0.00000000E+00
  0.00000000E+00  0.00000000E+00  0.00000000E+00
  0.00000000E+00  0.00000000E+00  0.00000000E+00
  0.00000000E+00  0.00000000E+00  0.00000000E+00
  0.00000000E+00  0.00000000E+00  0.00000000E+00
  0.00000000E+00  0.00000000E+00  0.00000000E+00
  0.00000000E+00  0.00000000E+00  0.00000000E+00
  0.00000000E+00  0.00000000E+00  0.00000000E+00
  0.00000000E+00  0.00000000E+00  0.00000000E+00
  0.00000000E+00  0.00000000E+00  0.00000000E+00
  0.00000000E+00  0.00000000E+00  0.00000000E+00
  0.00000000E+00  0.00000000E+00  0.00000000E+00
  0.00000000E+00  0.00000000E+00  0.00000000E+00
  0.00000000E+00  0.00000000E+00  0.00000000E+00
  0.00000000E+00  0.00000000E+00  0.00000000E+00
  0.00000000E+00  0.00000000E+00  0.00000000E+00
  0.00000000E+00  0.00000000E+00  0.00000000E+00
  0.00000000E+00  0.00000000E+00  0.00000000E+00
  0.00000000E+00  0.00000000E+00  0.00000000E+00
  0.00000000E+00  0.00000000E+00  0.00000000E+00
  0.00000000E+00  0.00000000E+00  0.00000000E+00
  0.00000000E+00  0.00000000E+00  0.00000000E+00
  0.00000000E+00  0.00000000E+00  0.00000000E+00
  0.00000000E+00  0.00000000E+00  0.00000000E+00
