Sr Rb Br                                
   1.00000000000000     
    12.0149200000000000  -12.0149200000000000    0.0000000000000000
    12.0149200000000000   12.0149200000000000    0.0000000000000000
     0.0000000000000000    0.0000000000000000   24.0298400000000001
   Br   Rb   Sr
    96    32    32
Direct
  0.9697305381453735  0.2649294827910617  0.0002896258079896
  0.0529113773200890  0.2419042142272659  0.2504220392819229
  0.9519634842344719  0.2472684652720388  0.5000518797450859
  0.0502841994015793  0.2402211844735447  0.7499040340773784
  0.5241231616792809  0.3013429688731899  0.0001466202974599
  0.4976644413851388  0.2052833414132875  0.2491787247884818
  0.4862775187757405  0.2917644573110183  0.5001886030308221
  0.5010193406316060  0.2041590060144814  0.7513499712882644
  0.2989932935698602  0.5208187050408515  0.0000294042664912
  0.2058460080815448  0.5064295489863012  0.2493308867937965
  0.2891624176655919  0.4937801931987603  0.5003650283598062
  0.2026821512112352  0.5049248641435974  0.7512855279799859
  0.0222691005602766  0.8015288924966066 -0.0002945403288309
  0.9983792076284461  0.7034014497295255  0.2485990415769715
  0.9932205548928890  0.7915003880524007  0.4994148871437687
 -0.0016897456613038  0.7054925374423744  0.7501223860061716
  0.7649659573891000  0.4645374612739978 -0.0002789326291942
  0.7451918682928197  0.5486471237690668  0.2508803720221296
  0.7499896174425339  0.4444788114547240  0.4998002774577881
  0.7480259514140051  0.5495491356260337  0.7486479673675668
  0.4702844827198830  0.7650400084932233 -0.0008184615316666
  0.5492520328568337  0.7368021156949226  0.2497869951231569
  0.4493419197847791  0.7476899950616076  0.4995448082259900
  0.5526862684759235  0.7426436759536260  0.7485035198153053
  0.2662912788958400  0.9632604986683050  0.9996894335426172
  0.2454901712271043  0.0486807283163018  0.2501044073971358
  0.2510805635756070  0.9463142058879872  0.4999301855786636
  0.2454106793037684  0.0502336769362804  0.7491115661956879
  0.7990344314035533  0.0203247159328915  0.9996992048327954
  0.7038804164513730  0.0017854462246986  0.2487638427405747
  0.7916277378771264  0.0081842871367582  0.4993497125442187
  0.7064117439701822  0.0059188659947247  0.7498844337009910
  0.1069937319240751  0.1051174202054243  0.1045791054216408
  0.1322301727556544  0.1297351572502368  0.4098477530572586
  0.1399059333113077  0.1377184251054201  0.5921423517720356
  0.1065329063755575  0.1052509479915693  0.8955640558900502
  0.6136265686643010  0.1137110535142441  0.0953430946235358
  0.6478682725109746  0.1492156621839189  0.3867836869499920
  0.6486519622857961  0.1496077931716427  0.6128036360359468
  0.6126932866557467  0.1127419729627254  0.9044088606517890
  0.3992109501273645  0.4006313423603026  0.1503099288149233
  0.3347214774425370  0.3353776158725361  0.3601186990794947
  0.3350529590579718  0.3355716539021200  0.6402795832282173
  0.3988044947715099  0.3991261004127026  0.8498281810126789
  0.1088498282266710  0.6102543930234942  0.0951231203886961
  0.1486520583249202  0.6488861782876770  0.3870410515479872
  0.1486191349001080  0.6495615689013096  0.6129572899045279
  0.1157929311198015  0.6170641204781458  0.9053849205426050
  0.9149710007244327  0.4145040198649404  0.1425347674365596
  0.8585410100676403  0.3568687119732409  0.3463474129599550
  0.8570476971874271  0.3549887075206201  0.6536694154420319
  0.9157584800996282  0.4149466851661083  0.8575164019300014
  0.6038196751712218  0.6030143084269736  0.1046645746721314
  0.6372959823485973  0.6348763194947441  0.4080299035009536
  0.6329438687277474  0.6303348769391035  0.5894229416847591
  0.6069085429692509  0.6055080781284727  0.8939303978414732
  0.4157091476914181  0.9147919431786334  0.1425716558684864
  0.3569260762365651  0.8547275009699076  0.3458723347689241
  0.3568357157981134  0.8553411636472086  0.6536499679806570
  0.4159038164466647  0.9150033732470555  0.8568073873130008
  0.8978460533572554  0.8976252623333433  0.1507693609883512
  0.8355222700471306  0.8358837217403096  0.3618616769861441
  0.8354957548153050  0.8357408337809680  0.6362884225035194
  0.8986166158822556  0.8991402768829966  0.8465494363077375
  0.8607419611074393  0.1488014001916345  0.1497553164855970
  0.8896777060620784  0.1032616822023917  0.3457892886286845
  0.9003881149522130  0.0945396652222755  0.6447665248369481
  0.8545350226983961  0.1551208462540727  0.8535241134251645
  0.3544201065231111  0.1547973150932927  0.1041668346745327
  0.3948474729984520  0.0956257371299783  0.3954302161608810
  0.3984312622451219  0.0951496767604542  0.6052334741521785
  0.3533049953738351  0.1550180562476317  0.8954912419191416
  0.1583993378972717  0.3510068876419250  0.1079781500143831
  0.0947825994829037  0.3970447577623494  0.3924049028642106
  0.0931221335642316  0.3993291372926290  0.6082353515539271
  0.1573842714087674  0.3519990559074336  0.8922967500876743
  0.8509873095454903  0.6549046022673775  0.1042707720760811
  0.8942332565978709  0.5979759090658960  0.3980373160501773
  0.8934280435872226  0.5979345034234267  0.6016801718571104
  0.8549230188217607  0.6547105877862424  0.8957432899616692
  0.6513402155900001  0.3574603072277881  0.1540422971095330
  0.5958069413186258  0.3966404301455556  0.3544477836814618
  0.6004276482539117  0.3918179546248822  0.6529758675540761
  0.6511835614752883  0.3582747415017605  0.8502548286847182
  0.3491314385143241  0.6592537947159598  0.1437824889548200
  0.3993046698702143  0.5942259048286233  0.3562278356669913
  0.3927192551514713  0.6004818712838761  0.6501129763692833
  0.3615521127271579  0.6492155069268005  0.8484579136900672
  0.1517860268753768  0.8559140403219417  0.1469576263028649
  0.1023174011555234  0.8897909301049148  0.3447747726292450
  0.0954029014946205  0.8993035491923926  0.6437407453900358
  0.1488124484049732  0.8618440216425557  0.8453786829971847
  0.6554685787491863  0.8513790543069865  0.1065674668937372
  0.5928774586264112  0.8991611170297286  0.3910713261546053
  0.5944703153142300  0.8985030108211769  0.6068862154277727
  0.6583241155335808  0.8513646683165451  0.8915054135404619
  0.0021650874379396  0.0044898238457389  0.0006154186876574
  0.0207586649554620  0.0233670802125142  0.2377495454089347
  0.0083773834767684  0.0132507378771777  0.5141131528919405
  0.0267707286353726  0.0194050614728722  0.7606429714468533
  0.4866205975560590  0.9905882265114020  0.0006865211366524
  0.4909532525013299  0.9946657459357799  0.2724802274439958
  0.4676329126836848  0.9655822889790390  0.4994196668369024
  0.4941491860439539  0.9929905295661358  0.7267154000515866
  0.2213438246089013  0.2232981602473909 -0.0001348649811537
  0.2661271328732372  0.2604706901832483  0.2272793224256845
  0.2681464569690654  0.2551572999624573  0.4988147444666204
  0.2633772817373783  0.2615610719146335  0.7723287190238856
  0.9835196510304102  0.4942386326174281 -0.0014581983185849
  0.9934964480350077  0.4921850988965393  0.2716723476095180
 -0.0330375097508999  0.4635443745776218  0.4995697316793140
  0.9902064351063126  0.4940304460569088  0.7274243876025697
  0.7344119304782645  0.2313512860168905  0.9950925776625013
  0.7354892570801914  0.2240546665390026  0.2603962113306628
  0.7464184578035621  0.2323587912510607  0.4995968710120909
  0.7247701184110282  0.2318084764851506  0.7406567927015872
  0.5017767511112127  0.5036174721910432  0.9977658072465384
  0.5265163705391591  0.5176252628720037  0.2401806130590194
  0.5060026751629602  0.5134006306276410  0.4902144521380755
  0.5206881151021306  0.5233087538029203  0.7612551667732947
  0.2345854421717408  0.7330325781315151  0.0097203139625099
  0.2244685534427922  0.7336574720875176  0.2595036662647923
  0.2420909459552443  0.7383656911156535  0.4999792295875749
  0.2340189451442295  0.7255708126005092  0.7402540237714956
  0.7195533820700819  0.7220016955698718 -0.0005485979024144
  0.7627025617986362  0.7620456360398371  0.2284458160657168
  0.7782697521407721  0.7330203748792349  0.5002188255527062
  0.7658734696379891  0.7617778699964151  0.7706613667910464
  0.0032659292810748  0.2574164539476145  0.1269798294873688
 -0.0005577933429016  0.2429410132426185  0.3737394650045143
  0.0000027917758117  0.2447770406477938  0.6263874862372769
  0.0026732549986524  0.2571387924940962  0.8734356770210925
  0.5058415627763992  0.2545605659564076  0.1245328252757084
  0.4935650692687762  0.2480639020549503  0.3746395084435030
  0.4942481553858871  0.2489840046574066  0.6258620604397824
  0.5046780053928371  0.2538056106000540  0.8758543341600399
  0.2527536499806405  0.5055161131430125  0.1245586994443924
  0.2481967978290739  0.4944338132050810  0.3744822272248692
  0.2480542737172411  0.4943938080909185  0.6262276597199992
  0.2534315535737408  0.5059500602816012  0.8754720209649544
  0.0031447108646130  0.7528768435936313  0.1236676145587860
  0.9947305020435214  0.7490746841142774  0.3736738025466159
  0.9948746019805691  0.7490002306341659  0.6250486679183759
  0.0059075455231261  0.7552124586463231  0.8750985769032691
  0.7566978370017946  0.5004853874432750  0.1266293790815546
  0.7453024988409080  0.4960554939719418  0.3744909713768998
  0.7438580844594620  0.4952792659449182  0.6252188705855025
  0.7580944061146255  0.5018969543858736  0.8727958417823894
  0.5012841444403022  0.7562543711456107  0.1263397894335351
  0.4994136845021309  0.7445864051601152  0.3737339733888317
  0.4995405259581836  0.7441622540367682  0.6251529011837450
  0.5033930366158262  0.7577972462776955  0.8720489621676253
  0.2581323260974204  0.0012695216299745  0.1261619240990705
  0.2441219393446006  0.9958517188033348  0.3740768621820635
  0.2468976191423234  0.9978100924650879  0.6254207638598259
  0.2580887686650514  0.0013179201091167  0.8731166954703442
  0.7530181527853088  0.0043491374389313  0.1243103528632471
  0.7479402367499842  0.9945318145700613  0.3744217574080360
  0.7484905997617041  0.9950096822624785  0.6243924441059184
  0.7539290179730536  0.0052212359316184  0.8745920408307344
 
  0.00000000E+00  0.00000000E+00  0.00000000E+00
  0.00000000E+00  0.00000000E+00  0.00000000E+00
  0.00000000E+00  0.00000000E+00  0.00000000E+00
  0.00000000E+00  0.00000000E+00  0.00000000E+00
  0.00000000E+00  0.00000000E+00  0.00000000E+00
  0.00000000E+00  0.00000000E+00  0.00000000E+00
  0.00000000E+00  0.00000000E+00  0.00000000E+00
  0.00000000E+00  0.00000000E+00  0.00000000E+00
  0.00000000E+00  0.00000000E+00  0.00000000E+00
  0.00000000E+00  0.00000000E+00  0.00000000E+00
  0.00000000E+00  0.00000000E+00  0.00000000E+00
  0.00000000E+00  0.00000000E+00  0.00000000E+00
  0.00000000E+00  0.00000000E+00  0.00000000E+00
  0.00000000E+00  0.00000000E+00  0.00000000E+00
  0.00000000E+00  0.00000000E+00  0.00000000E+00
  0.00000000E+00  0.00000000E+00  0.00000000E+00
  0.00000000E+00  0.00000000E+00  0.00000000E+00
  0.00000000E+00  0.00000000E+00  0.00000000E+00
  0.00000000E+00  0.00000000E+00  0.00000000E+00
  0.00000000E+00  0.00000000E+00  0.00000000E+00
  0.00000000E+00  0.00000000E+00  0.00000000E+00
  0.00000000E+00  0.00000000E+00  0.00000000E+00
  0.00000000E+00  0.00000000E+00  0.00000000E+00
  0.00000000E+00  0.00000000E+00  0.00000000E+00
  0.00000000E+00  0.00000000E+00  0.00000000E+00
  0.00000000E+00  0.00000000E+00  0.00000000E+00
  0.00000000E+00  0.00000000E+00  0.00000000E+00
  0.00000000E+00  0.00000000E+00  0.00000000E+00
  0.00000000E+00  0.00000000E+00  0.00000000E+00
  0.00000000E+00  0.00000000E+00  0.00000000E+00
  0.00000000E+00  0.00000000E+00  0.00000000E+00
  0.00000000E+00  0.00000000E+00  0.00000000E+00
  0.00000000E+00  0.00000000E+00  0.00000000E+00
  0.00000000E+00  0.00000000E+00  0.00000000E+00
  0.00000000E+00  0.00000000E+00  0.00000000E+00
  0.00000000E+00  0.00000000E+00  0.00000000E+00
  0.00000000E+00  0.00000000E+00  0.00000000E+00
  0.00000000E+00  0.00000000E+00  0.00000000E+00
  0.00000000E+00  0.00000000E+00  0.00000000E+00
  0.00000000E+00  0.00000000E+00  0.00000000E+00
  0.00000000E+00  0.00000000E+00  0.00000000E+00
  0.00000000E+00  0.00000000E+00  0.00000000E+00
  0.00000000E+00  0.00000000E+00  0.00000000E+00
  0.00000000E+00  0.00000000E+00  0.00000000E+00
  0.00000000E+00  0.00000000E+00  0.00000000E+00
  0.00000000E+00  0.00000000E+00  0.00000000E+00
  0.00000000E+00  0.00000000E+00  0.00000000E+00
  0.00000000E+00  0.00000000E+00  0.00000000E+00
  0.00000000E+00  0.00000000E+00  0.00000000E+00
  0.00000000E+00  0.00000000E+00  0.00000000E+00
  0.00000000E+00  0.00000000E+00  0.00000000E+00
  0.00000000E+00  0.00000000E+00  0.00000000E+00
  0.00000000E+00  0.00000000E+00  0.00000000E+00
  0.00000000E+00  0.00000000E+00  0.00000000E+00
  0.00000000E+00  0.00000000E+00  0.00000000E+00
  0.00000000E+00  0.00000000E+00  0.00000000E+00
  0.00000000E+00  0.00000000E+00  0.00000000E+00
  0.00000000E+00  0.00000000E+00  0.00000000E+00
  0.00000000E+00  0.00000000E+00  0.00000000E+00
  0.00000000E+00  0.00000000E+00  0.00000000E+00
  0.00000000E+00  0.00000000E+00  0.00000000E+00
  0.00000000E+00  0.00000000E+00  0.00000000E+00
  0.00000000E+00  0.00000000E+00  0.00000000E+00
  0.00000000E+00  0.00000000E+00  0.00000000E+00
  0.00000000E+00  0.00000000E+00  0.00000000E+00
  0.00000000E+00  0.00000000E+00  0.00000000E+00
  0.00000000E+00  0.00000000E+00  0.00000000E+00
  0.00000000E+00  0.00000000E+00  0.00000000E+00
  0.00000000E+00  0.00000000E+00  0.00000000E+00
  0.00000000E+00  0.00000000E+00  0.00000000E+00
  0.00000000E+00  0.00000000E+00  0.00000000E+00
  0.00000000E+00  0.00000000E+00  0.00000000E+00
  0.00000000E+00  0.00000000E+00  0.00000000E+00
  0.00000000E+00  0.00000000E+00  0.00000000E+00
  0.00000000E+00  0.00000000E+00  0.00000000E+00
  0.00000000E+00  0.00000000E+00  0.00000000E+00
  0.00000000E+00  0.00000000E+00  0.00000000E+00
  0.00000000E+00  0.00000000E+00  0.00000000E+00
  0.00000000E+00  0.00000000E+00  0.00000000E+00
  0.00000000E+00  0.00000000E+00  0.00000000E+00
  0.00000000E+00  0.00000000E+00  0.00000000E+00
  0.00000000E+00  0.00000000E+00  0.00000000E+00
  0.00000000E+00  0.00000000E+00  0.00000000E+00
  0.00000000E+00  0.00000000E+00  0.00000000E+00
  0.00000000E+00  0.00000000E+00  0.00000000E+00
  0.00000000E+00  0.00000000E+00  0.00000000E+00
  0.00000000E+00  0.00000000E+00  0.00000000E+00
  0.00000000E+00  0.00000000E+00  0.00000000E+00
  0.00000000E+00  0.00000000E+00  0.00000000E+00
  0.00000000E+00  0.00000000E+00  0.00000000E+00
  0.00000000E+00  0.00000000E+00  0.00000000E+00
  0.00000000E+00  0.00000000E+00  0.00000000E+00
  0.00000000E+00  0.00000000E+00  0.00000000E+00
  0.00000000E+00  0.00000000E+00  0.00000000E+00
  0.00000000E+00  0.00000000E+00  0.00000000E+00
  0.00000000E+00  0.00000000E+00  0.00000000E+00
  0.00000000E+00  0.00000000E+00  0.00000000E+00
  0.00000000E+00  0.00000000E+00  0.00000000E+00
  0.00000000E+00  0.00000000E+00  0.00000000E+00
  0.00000000E+00  0.00000000E+00  0.00000000E+00
  0.00000000E+00  0.00000000E+00  0.00000000E+00
  0.00000000E+00  0.00000000E+00  0.00000000E+00
  0.00000000E+00  0.00000000E+00  0.00000000E+00
  0.00000000E+00  0.00000000E+00  0.00000000E+00
  0.00000000E+00  0.00000000E+00  0.00000000E+00
  0.00000000E+00  0.00000000E+00  0.00000000E+00
  0.00000000E+00  0.00000000E+00  0.00000000E+00
  0.00000000E+00  0.00000000E+00  0.00000000E+00
  0.00000000E+00  0.00000000E+00  0.00000000E+00
  0.00000000E+00  0.00000000E+00  0.00000000E+00
  0.00000000E+00  0.00000000E+00  0.00000000E+00
  0.00000000E+00  0.00000000E+00  0.00000000E+00
  0.00000000E+00  0.00000000E+00  0.00000000E+00
  0.00000000E+00  0.00000000E+00  0.00000000E+00
  0.00000000E+00  0.00000000E+00  0.00000000E+00
  0.00000000E+00  0.00000000E+00  0.00000000E+00
  0.00000000E+00  0.00000000E+00  0.00000000E+00
  0.00000000E+00  0.00000000E+00  0.00000000E+00
  0.00000000E+00  0.00000000E+00  0.00000000E+00
  0.00000000E+00  0.00000000E+00  0.00000000E+00
  0.00000000E+00  0.00000000E+00  0.00000000E+00
  0.00000000E+00  0.00000000E+00  0.00000000E+00
  0.00000000E+00  0.00000000E+00  0.00000000E+00
  0.00000000E+00  0.00000000E+00  0.00000000E+00
  0.00000000E+00  0.00000000E+00  0.00000000E+00
  0.00000000E+00  0.00000000E+00  0.00000000E+00
  0.00000000E+00  0.00000000E+00  0.00000000E+00
  0.00000000E+00  0.00000000E+00  0.00000000E+00
  0.00000000E+00  0.00000000E+00  0.00000000E+00
  0.00000000E+00  0.00000000E+00  0.00000000E+00
  0.00000000E+00  0.00000000E+00  0.00000000E+00
  0.00000000E+00  0.00000000E+00  0.00000000E+00
  0.00000000E+00  0.00000000E+00  0.00000000E+00
  0.00000000E+00  0.00000000E+00  0.00000000E+00
  0.00000000E+00  0.00000000E+00  0.00000000E+00
  0.00000000E+00  0.00000000E+00  0.00000000E+00
  0.00000000E+00  0.00000000E+00  0.00000000E+00
  0.00000000E+00  0.00000000E+00  0.00000000E+00
  0.00000000E+00  0.00000000E+00  0.00000000E+00
  0.00000000E+00  0.00000000E+00  0.00000000E+00
  0.00000000E+00  0.00000000E+00  0.00000000E+00
  0.00000000E+00  0.00000000E+00  0.00000000E+00
  0.00000000E+00  0.00000000E+00  0.00000000E+00
  0.00000000E+00  0.00000000E+00  0.00000000E+00
  0.00000000E+00  0.00000000E+00  0.00000000E+00
  0.00000000E+00  0.00000000E+00  0.00000000E+00
  0.00000000E+00  0.00000000E+00  0.00000000E+00
  0.00000000E+00  0.00000000E+00  0.00000000E+00
  0.00000000E+00  0.00000000E+00  0.00000000E+00
  0.00000000E+00  0.00000000E+00  0.00000000E+00
  0.00000000E+00  0.00000000E+00  0.00000000E+00
  0.00000000E+00  0.00000000E+00  0.00000000E+00
  0.00000000E+00  0.00000000E+00  0.00000000E+00
  0.00000000E+00  0.00000000E+00  0.00000000E+00
  0.00000000E+00  0.00000000E+00  0.00000000E+00
  0.00000000E+00  0.00000000E+00  0.00000000E+00
  0.00000000E+00  0.00000000E+00  0.00000000E+00
  0.00000000E+00  0.00000000E+00  0.00000000E+00
  0.00000000E+00  0.00000000E+00  0.00000000E+00
  0.00000000E+00  0.00000000E+00  0.00000000E+00
