Tl Sn F                                 
   1.00000000000000     
     9.3940450000000002   -9.3940450000000002    0.0000000000000000
     9.3940450000000002    9.3940450000000002    0.0000000000000000
     0.0000000000000000    0.0000000000000000   18.7880889999999994
   F    Sn   Tl
    96    32    32
Direct
  0.1349918930366475  0.1646139095613702  0.0241789566925657
  0.0988449394857221  0.1030976632587944  0.2877269530168474
  0.0834702863954788  0.0873856255317995  0.5549947908891685
  0.1615825697317481  0.0374422683147745  0.7335863509112897
  0.6667763290509275  0.1452823843841979  0.0602149305029746
  0.5835048956813338  0.0886915509736459  0.3172053213624343
  0.6429262687074985  0.1726488672806347  0.5038050603014308
  0.5462007297634923  0.1593935330867542  0.7443930042273671
  0.4314084643468271  0.3660067097985245  0.0027540846523455
  0.3591652579493295  0.3511298545791361  0.2575925148386933
  0.3507329512152815  0.3835879663663896  0.4569392168723406
  0.3376718312944232  0.3433453134130690  0.8080701961531418
  0.1549092827147785  0.6611159747122652  0.0339760488694977
  0.1369587420200341  0.5623343085444719  0.2373636680302228
  0.2184572109977046  0.5916646142213188  0.4847701860524281
  0.0737555128695078  0.6224579642241698  0.7440196332731560
  0.9139223658768260  0.3814890854293304  0.9824039231834809
  0.8037620110703030  0.4014242630100460  0.2419347831824185
  0.9218866188488237  0.3928476861371287  0.5009031618750415
  0.8694492633537141  0.3198307642283060  0.7519961848002371
  0.6200310183245367  0.7117711569148893  0.9950736455911738
  0.6244746982188335  0.5799649657798990  0.2133663299037704
  0.6447606902613502  0.5987965285060631  0.5462579677281670
  0.6063075928873908  0.5927955838764576  0.7734822997950396
  0.4539858583325893  0.8800991034318221  0.9920565174299120
  0.2826045868719662  0.9015539018206353  0.2463298765367452
  0.3803669378526586  0.9227472475532547  0.5388192144456417
  0.3352143793181862  0.8403645744172460  0.8057626254505013
  0.9215424007029350  0.8925337047607289  0.0563004934459295
  0.8254214060515563  0.8744680507816567  0.2871641398887479
  0.8624935405869414  0.8463077966428940  0.4603808710727583
  0.8345692356946481  0.8472832102346345  0.7509336496183141
  0.8947715807339732  0.1082902308367896  0.0496553607611269
  0.8992000534767685  0.2108402121717378  0.2538889727806568
  0.8676897346251956  0.0623602073166449  0.5135068676949094
  0.9633985970084797  0.1318534641645234  0.7319607720439723
  0.3516278590792843  0.1431030170200447  0.0248396020449362
  0.3600991439913389  0.1352771362227252  0.3033956457757168
  0.4065058468953536  0.1791509897806844  0.4959019053190706
  0.3437271666835081  0.1327502217831738  0.8029461700495916
  0.1206071073610401  0.4279614437935774  0.0172763481804777
  0.0764563886213701  0.3569398284151096  0.2526050553027189
  0.1385493232395621  0.3948776514008465  0.5284551565365698
  0.1402935793222422  0.4069555785065182  0.7524629255226207
  0.7938213512591652  0.5913121842349855  0.9523342921402186
  0.8779623395442181  0.6784670339712203  0.2354223384723705
  0.8450707271751240  0.6250514877704321  0.4731218871281939
  0.8304195886614631  0.6349566498829421  0.7670900938520026
  0.6456927830985350  0.3531285737938005  0.0266148436537959
  0.5842261777878941  0.3660891242581561  0.2420339181675099
  0.6934254776866483  0.3819921709715735  0.4979569433865176
  0.6697143917839719  0.3610723231872084  0.7048023469975344
  0.3778874242791003  0.5764364353634857  0.9892940727557646
  0.3700554557878274  0.6965237096790897  0.2529138222306086
  0.4443816433275652  0.6516868199346391  0.5060517037381924
  0.3855926311015716  0.5918326680859468  0.8007343546573888
  0.1725894794295341  0.8842892610552054  0.0256279016845115
  0.0576241584590255  0.8966489217177339  0.2943431462278305
  0.1027225862299491  0.7786910206462436  0.4941978390543841
  0.1231092010271161  0.8345354540802847  0.7717315594699569
  0.6731643040407934  0.9415286887237806  0.9870926408930532
  0.5918755085419816  0.8749589451137606  0.2811384007966634
  0.6031799066333335  0.8931842195970494  0.5511553649570574
  0.6315495598762284  0.9508283212342941  0.7294989828988788
  0.0692572529905258  0.0183839810125767  0.1236764500829424
  0.9190954239748176  0.0492473473312801  0.3593407912919148
  0.9718093445686299  0.9131681999657849  0.5897981648602743
  0.0117259648496340  0.0013476977450984  0.8452068537577022
  0.5465847609607618  0.9717000686268208  0.1061736916906173
  0.4285542598947959  0.9365504000438579  0.3629364770726243
  0.5002235807049162  0.0662263552440002  0.6098935880491858
  0.5352954728806223  0.0022249554463345  0.8529478444674397
  0.2651959037760604  0.3055591390307610  0.1019038675229643
  0.2163586954742109  0.2775387983200210  0.3576056645626154
  0.3208211582550917  0.3173633041987730  0.5993670489624163
  0.1571269092467262  0.2185563599059794  0.8470660443655894
  0.9793716547382196  0.4803722514696268  0.1453195944643794
  0.0622800772460255  0.4687948069113334  0.3940502430909072
  0.9996458173909074  0.4737952614826600  0.6427161785328452
  0.0326473030164078  0.5263142056313633  0.8925354597947506
  0.8109355160030119  0.2948787785824710  0.1095762945749769
  0.7267588696589755  0.2786973456430017  0.3524675794559912
  0.8017439949548366  0.2627653516941436  0.5994232709012774
  0.7020261707153846  0.2596672412411298  0.8391665971483987
  0.4657336531117773  0.4711784755353556  0.1374912687508087
  0.5582400246693761  0.5313121636995927  0.4074335476052818
  0.4534382466905622  0.5606768301512310  0.6558282532511542
  0.5339044843212108  0.4652150762732611  0.8887398280488820
  0.3196569079814175  0.7682532807709627  0.1040604222371189
  0.2028998292009165  0.7439262449867833  0.3439856238722573
  0.2638587710191377  0.7331567602968488  0.5946780278079332
  0.1959622325593914  0.6894023644279327  0.8635349164482401
  0.7998091482496712  0.7064822101760235  0.0825061618081703
  0.7143012082279191  0.7004097250142381  0.3386787683235413
  0.7996277761532709  0.7546393475622036  0.5932484320367626
  0.6848946920366243  0.7793366479845846  0.8423817437380164
  0.0183492875960267  0.0096796689800839  0.0175002547969966
  0.9692219650624770  0.0176335982818287  0.2539691424850110
  0.9985510982435304  0.9794106824079877  0.4903229414691052
  0.0118744309018937  0.9760877459646395  0.7339793424561460
  0.5332545521670939  0.0195428150532711  0.9981850245346391
  0.4801097767584969  0.9939298886107822  0.2648239904797440
  0.5079061927716378  0.0080913187770272  0.5041240939005511
  0.4846590639857730  0.0131999723288917  0.7444433972017950
  0.2541875439640925  0.2623395763542634  0.9944794527934443
  0.2515737021446004  0.2332087794399091  0.2530136339498664
  0.2655633843567914  0.2663954111872217  0.4987853417501971
  0.2423530454510226  0.2427086188208181  0.7552270143592008
  0.9900065171818837  0.5162625640846953  0.0017999472822121
  0.9948416641932778  0.4949330014886751  0.2577706312691155
  0.0312303948369309  0.5081920982971606  0.5013523927661353
  0.9980218650772846  0.4806212515443355  0.7568093299335329
  0.7669011780234039  0.2482254150583512  0.0072600248277265
  0.7438706865012037  0.2553559753780079  0.2399443998374112
  0.7820792861874557  0.2471922518757683  0.4842800695926517
  0.7425039051970964  0.2262188204643384  0.7322276508626377
  0.5208383403030608  0.4981448189547173  0.0015615720245364
  0.4955187497922441  0.4973280305028707  0.2463785500175342
  0.5187468603528351  0.5101877686025216  0.5151313099525344
  0.4890246516370944  0.4874359229753123  0.7568069916247745
  0.2676036170679812  0.7590399542882680  0.9971539475028607
  0.2254708975566522  0.7521432822937739  0.2320736500709803
  0.2584834110661048  0.7457312460365022  0.4825700246992565
  0.2433821458790582  0.7259381604194147  0.7597495972150149
  0.7709750186168188  0.7453655431978220  0.9749983266108332
  0.7378338171316384  0.7594043050688301  0.2369337882955675
  0.7381531427244979  0.7397952621522920  0.4896725449717980
  0.7182738897420626  0.7371584256725755  0.7340842177747664
  0.0114375500101376  0.2668721332816465  0.1276004094762540
  0.0114887162613260  0.2499355632709376  0.3680272947369337
  0.0024305741144635  0.2522603437277179  0.6213794379400737
  0.9673396713307696  0.2021359913077189  0.8624381658964817
  0.4905862491900035  0.2653507893608698  0.1155669965544191
  0.5137964557408082  0.2532650004288009  0.3763669959888833
  0.5233181306955036  0.2615394196419381  0.6040055724564896
  0.5007627003621398  0.2459322254103594  0.8721618222283610
  0.2505430433635283  0.5053918603449401  0.1143011724487545
  0.2569932682762840  0.4920358969060010  0.3579990196464856
  0.2537826676563443  0.5085732848175829  0.6236859169109051
  0.2468184397175915  0.4937170314671172  0.8902623977118087
  0.9924147127689704  0.7346120012784941  0.1219742323282409
  0.9824608933648690  0.7460903234791052  0.3664458961531888
  0.9968751471821706  0.7256459701585640  0.6104705368448793
  0.9896277886322773  0.7267531483778282  0.8480437866855238
  0.7595500444933507  0.5038424482595075  0.1212029686394958
  0.7502627396078381  0.4979685823831095  0.3731607797320418
  0.7840554698986558  0.4700408276035123  0.6093160591803305
  0.7449964744318113  0.4709077976841921  0.8466892140866913
  0.5176723636464112  0.7744563967497028  0.1119400229754168
  0.4948228192598708  0.7384681167885513  0.3633505587619217
  0.4643329372623784  0.7609843424739139  0.6222315727347008
  0.4908043156202810  0.7497991489837099  0.8834135760445736
  0.2640015105685319  0.0096729891226102  0.1182534991383617
  0.2244902309175964  0.9732025656652484  0.3654034097267783
  0.2604995929499738  0.0485968561790387  0.6120107223581877
  0.2268428334154340  0.9923719208866046  0.8635629368378541
  0.7587110365121061  0.9897034930778752  0.1152875872262569
  0.7397716022277383  0.9826746581546812  0.3877537715433079
  0.7667828444476835  0.9653159714010326  0.6219242946878927
  0.7369681417961295  0.9722476238675841  0.8469282406633998
 
  0.00000000E+00  0.00000000E+00  0.00000000E+00
  0.00000000E+00  0.00000000E+00  0.00000000E+00
  0.00000000E+00  0.00000000E+00  0.00000000E+00
  0.00000000E+00  0.00000000E+00  0.00000000E+00
  0.00000000E+00  0.00000000E+00  0.00000000E+00
  0.00000000E+00  0.00000000E+00  0.00000000E+00
  0.00000000E+00  0.00000000E+00  0.00000000E+00
  0.00000000E+00  0.00000000E+00  0.00000000E+00
  0.00000000E+00  0.00000000E+00  0.00000000E+00
  0.00000000E+00  0.00000000E+00  0.00000000E+00
  0.00000000E+00  0.00000000E+00  0.00000000E+00
  0.00000000E+00  0.00000000E+00  0.00000000E+00
  0.00000000E+00  0.00000000E+00  0.00000000E+00
  0.00000000E+00  0.00000000E+00  0.00000000E+00
  0.00000000E+00  0.00000000E+00  0.00000000E+00
  0.00000000E+00  0.00000000E+00  0.00000000E+00
  0.00000000E+00  0.00000000E+00  0.00000000E+00
  0.00000000E+00  0.00000000E+00  0.00000000E+00
  0.00000000E+00  0.00000000E+00  0.00000000E+00
  0.00000000E+00  0.00000000E+00  0.00000000E+00
  0.00000000E+00  0.00000000E+00  0.00000000E+00
  0.00000000E+00  0.00000000E+00  0.00000000E+00
  0.00000000E+00  0.00000000E+00  0.00000000E+00
  0.00000000E+00  0.00000000E+00  0.00000000E+00
  0.00000000E+00  0.00000000E+00  0.00000000E+00
  0.00000000E+00  0.00000000E+00  0.00000000E+00
  0.00000000E+00  0.00000000E+00  0.00000000E+00
  0.00000000E+00  0.00000000E+00  0.00000000E+00
  0.00000000E+00  0.00000000E+00  0.00000000E+00
  0.00000000E+00  0.00000000E+00  0.00000000E+00
  0.00000000E+00  0.00000000E+00  0.00000000E+00
  0.00000000E+00  0.00000000E+00  0.00000000E+00
  0.00000000E+00  0.00000000E+00  0.00000000E+00
  0.00000000E+00  0.00000000E+00  0.00000000E+00
  0.00000000E+00  0.00000000E+00  0.00000000E+00
  0.00000000E+00  0.00000000E+00  0.00000000E+00
  0.00000000E+00  0.00000000E+00  0.00000000E+00
  0.00000000E+00  0.00000000E+00  0.00000000E+00
  0.00000000E+00  0.00000000E+00  0.00000000E+00
  0.00000000E+00  0.00000000E+00  0.00000000E+00
  0.00000000E+00  0.00000000E+00  0.00000000E+00
  0.00000000E+00  0.00000000E+00  0.00000000E+00
  0.00000000E+00  0.00000000E+00  0.00000000E+00
  0.00000000E+00  0.00000000E+00  0.00000000E+00
  0.00000000E+00  0.00000000E+00  0.00000000E+00
  0.00000000E+00  0.00000000E+00  0.00000000E+00
  0.00000000E+00  0.00000000E+00  0.00000000E+00
  0.00000000E+00  0.00000000E+00  0.00000000E+00
  0.00000000E+00  0.00000000E+00  0.00000000E+00
  0.00000000E+00  0.00000000E+00  0.00000000E+00
  0.00000000E+00  0.00000000E+00  0.00000000E+00
  0.00000000E+00  0.00000000E+00  0.00000000E+00
  0.00000000E+00  0.00000000E+00  0.00000000E+00
  0.00000000E+00  0.00000000E+00  0.00000000E+00
  0.00000000E+00  0.00000000E+00  0.00000000E+00
  0.00000000E+00  0.00000000E+00  0.00000000E+00
  0.00000000E+00  0.00000000E+00  0.00000000E+00
  0.00000000E+00  0.00000000E+00  0.00000000E+00
  0.00000000E+00  0.00000000E+00  0.00000000E+00
  0.00000000E+00  0.00000000E+00  0.00000000E+00
  0.00000000E+00  0.00000000E+00  0.00000000E+00
  0.00000000E+00  0.00000000E+00  0.00000000E+00
  0.00000000E+00  0.00000000E+00  0.00000000E+00
  0.00000000E+00  0.00000000E+00  0.00000000E+00
  0.00000000E+00  0.00000000E+00  0.00000000E+00
  0.00000000E+00  0.00000000E+00  0.00000000E+00
  0.00000000E+00  0.00000000E+00  0.00000000E+00
  0.00000000E+00  0.00000000E+00  0.00000000E+00
  0.00000000E+00  0.00000000E+00  0.00000000E+00
  0.00000000E+00  0.00000000E+00  0.00000000E+00
  0.00000000E+00  0.00000000E+00  0.00000000E+00
  0.00000000E+00  0.00000000E+00  0.00000000E+00
  0.00000000E+00  0.00000000E+00  0.00000000E+00
  0.00000000E+00  0.00000000E+00  0.00000000E+00
  0.00000000E+00  0.00000000E+00  0.00000000E+00
  0.00000000E+00  0.00000000E+00  0.00000000E+00
  0.00000000E+00  0.00000000E+00  0.00000000E+00
  0.00000000E+00  0.00000000E+00  0.00000000E+00
  0.00000000E+00  0.00000000E+00  0.00000000E+00
  0.00000000E+00  0.00000000E+00  0.00000000E+00
  0.00000000E+00  0.00000000E+00  0.00000000E+00
  0.00000000E+00  0.00000000E+00  0.00000000E+00
  0.00000000E+00  0.00000000E+00  0.00000000E+00
  0.00000000E+00  0.00000000E+00  0.00000000E+00
  0.00000000E+00  0.00000000E+00  0.00000000E+00
  0.00000000E+00  0.00000000E+00  0.00000000E+00
  0.00000000E+00  0.00000000E+00  0.00000000E+00
  0.00000000E+00  0.00000000E+00  0.00000000E+00
  0.00000000E+00  0.00000000E+00  0.00000000E+00
  0.00000000E+00  0.00000000E+00  0.00000000E+00
  0.00000000E+00  0.00000000E+00  0.00000000E+00
  0.00000000E+00  0.00000000E+00  0.00000000E+00
  0.00000000E+00  0.00000000E+00  0.00000000E+00
  0.00000000E+00  0.00000000E+00  0.00000000E+00
  0.00000000E+00  0.00000000E+00  0.00000000E+00
  0.00000000E+00  0.00000000E+00  0.00000000E+00
  0.00000000E+00  0.00000000E+00  0.00000000E+00
  0.00000000E+00  0.00000000E+00  0.00000000E+00
  0.00000000E+00  0.00000000E+00  0.00000000E+00
  0.00000000E+00  0.00000000E+00  0.00000000E+00
  0.00000000E+00  0.00000000E+00  0.00000000E+00
  0.00000000E+00  0.00000000E+00  0.00000000E+00
  0.00000000E+00  0.00000000E+00  0.00000000E+00
  0.00000000E+00  0.00000000E+00  0.00000000E+00
  0.00000000E+00  0.00000000E+00  0.00000000E+00
  0.00000000E+00  0.00000000E+00  0.00000000E+00
  0.00000000E+00  0.00000000E+00  0.00000000E+00
  0.00000000E+00  0.00000000E+00  0.00000000E+00
  0.00000000E+00  0.00000000E+00  0.00000000E+00
  0.00000000E+00  0.00000000E+00  0.00000000E+00
  0.00000000E+00  0.00000000E+00  0.00000000E+00
  0.00000000E+00  0.00000000E+00  0.00000000E+00
  0.00000000E+00  0.00000000E+00  0.00000000E+00
  0.00000000E+00  0.00000000E+00  0.00000000E+00
  0.00000000E+00  0.00000000E+00  0.00000000E+00
  0.00000000E+00  0.00000000E+00  0.00000000E+00
  0.00000000E+00  0.00000000E+00  0.00000000E+00
  0.00000000E+00  0.00000000E+00  0.00000000E+00
  0.00000000E+00  0.00000000E+00  0.00000000E+00
  0.00000000E+00  0.00000000E+00  0.00000000E+00
  0.00000000E+00  0.00000000E+00  0.00000000E+00
  0.00000000E+00  0.00000000E+00  0.00000000E+00
  0.00000000E+00  0.00000000E+00  0.00000000E+00
  0.00000000E+00  0.00000000E+00  0.00000000E+00
  0.00000000E+00  0.00000000E+00  0.00000000E+00
  0.00000000E+00  0.00000000E+00  0.00000000E+00
  0.00000000E+00  0.00000000E+00  0.00000000E+00
  0.00000000E+00  0.00000000E+00  0.00000000E+00
  0.00000000E+00  0.00000000E+00  0.00000000E+00
  0.00000000E+00  0.00000000E+00  0.00000000E+00
  0.00000000E+00  0.00000000E+00  0.00000000E+00
  0.00000000E+00  0.00000000E+00  0.00000000E+00
  0.00000000E+00  0.00000000E+00  0.00000000E+00
  0.00000000E+00  0.00000000E+00  0.00000000E+00
  0.00000000E+00  0.00000000E+00  0.00000000E+00
  0.00000000E+00  0.00000000E+00  0.00000000E+00
  0.00000000E+00  0.00000000E+00  0.00000000E+00
  0.00000000E+00  0.00000000E+00  0.00000000E+00
  0.00000000E+00  0.00000000E+00  0.00000000E+00
  0.00000000E+00  0.00000000E+00  0.00000000E+00
  0.00000000E+00  0.00000000E+00  0.00000000E+00
  0.00000000E+00  0.00000000E+00  0.00000000E+00
  0.00000000E+00  0.00000000E+00  0.00000000E+00
  0.00000000E+00  0.00000000E+00  0.00000000E+00
  0.00000000E+00  0.00000000E+00  0.00000000E+00
  0.00000000E+00  0.00000000E+00  0.00000000E+00
  0.00000000E+00  0.00000000E+00  0.00000000E+00
  0.00000000E+00  0.00000000E+00  0.00000000E+00
  0.00000000E+00  0.00000000E+00  0.00000000E+00
  0.00000000E+00  0.00000000E+00  0.00000000E+00
  0.00000000E+00  0.00000000E+00  0.00000000E+00
  0.00000000E+00  0.00000000E+00  0.00000000E+00
  0.00000000E+00  0.00000000E+00  0.00000000E+00
  0.00000000E+00  0.00000000E+00  0.00000000E+00
  0.00000000E+00  0.00000000E+00  0.00000000E+00
  0.00000000E+00  0.00000000E+00  0.00000000E+00
  0.00000000E+00  0.00000000E+00  0.00000000E+00
  0.00000000E+00  0.00000000E+00  0.00000000E+00
  0.00000000E+00  0.00000000E+00  0.00000000E+00
  0.00000000E+00  0.00000000E+00  0.00000000E+00
