Pb In Cl                                
   1.00000000000000     
    11.3307590000000005  -11.3307590000000005    0.0000000000000000
    11.3307590000000005   11.3307590000000005    0.0000000000000000
     0.0000000000000000    0.0000000000000000   22.6615180000000009
   Cl   In   Pb
    96    32    32
Direct
  0.9782873885074000  0.2098311323366353  0.9963767038499070
  0.0193146741076664  0.2890658612016500  0.2474318898038450
  0.0130994517884978  0.2415161471881928  0.4977961651993365
  0.9830133625902299  0.2954661597269299  0.7468431132940355
  0.5444520764847871  0.2270056658032548  0.0010991911184155
  0.4607150679165510  0.2259573957506765  0.2497787006140402
  0.5335934917923243  0.2692953920440085  0.5004258590929540
  0.4628662404962888  0.2600182407342957  0.7517156539288405
  0.2171074988366911  0.5507427468585854  0.9949423139150755
  0.2351976285271911  0.4812881896389992  0.2441295996785536
  0.2557621016425273  0.5010260653991762  0.4966436610793066
  0.2397936599843641  0.4558440323485603  0.7480703287558478
  0.0278513176423548  0.7185422522298002  0.0001421565768225
  0.9643437377509424  0.7290350840474806  0.2497242589548234
  0.0181514559293546  0.7535099790837826  0.5018181096704019
  0.0059497398886610  0.7964340797617838  0.7524554716731563
  0.7055911744938237  0.4879231952685401  0.0004900160944020
  0.7956365612042295  0.4824108867201006  0.2499411098622647
  0.7552567268557665  0.5050778525376993  0.5034927999201132
  0.8045531601091842  0.4863035739568903  0.7531473473365198
  0.5014763294913415  0.7024201604764434  0.9950617318498060
  0.4948508041908765  0.7510512188752883  0.2470233707480674
  0.5355440274505369  0.7083805852491580  0.4999033346296414
  0.5262220533403466  0.7927005993588334  0.7474667163873928
  0.2248755803359641  0.0058070563622938  0.9989586251048803
  0.2936588225791433  0.9876148794251510  0.2487986820548495
  0.2549717924254684  0.0044425108159902  0.4993771971993002
  0.2388251540113501  0.9586747007560511  0.7493943674892527
  0.7183173650296385  0.0276790864108914  0.9975813418622771
  0.7776723089145493  0.9651606760649017  0.2489625714594991
  0.7733058224480304  0.0434712603432155  0.4995615527098798
  0.7097940398113443  0.9683059767859281  0.7480546801349536
  0.1366935158533825  0.1360489323228339  0.1175012504613127
  0.1535894903837422  0.1548489006472418  0.3625855915561008
  0.1433124321581503  0.1321544601494517  0.6543564845324981
  0.1231919696824862  0.1198338547417351  0.8679850108677547
  0.6340645325072496  0.1353601179901094  0.1582023920339649
  0.6549146390187066  0.1595202034548723  0.3690698187369019
  0.6598899313207668  0.1622175553513198  0.6259365292881541
  0.5902549208075181  0.0916339803051741  0.8647663862535551
  0.3664022326276521  0.3667438979915108  0.0965966705067393
  0.3423938107502891  0.3494186776800913  0.3804464073632932
  0.3605744842305728  0.3596345364573146  0.6014273704160598
  0.3813842774558219  0.3877084734469823  0.8729640940475552
  0.1554459453456769  0.6605975972548696  0.1338167782245075
  0.1627656471911645  0.6678308566544147  0.3696596749912791
  0.1390579236015695  0.6401707422969578  0.6529383688051090
  0.1002531243536226  0.6118834726252589  0.8391508912161292
  0.8453334665178932  0.3419289393876939  0.1012465844656828
  0.8402774547350055  0.3412212604873135  0.3851142159691818
  0.8557274800910705  0.3490893085843866  0.6089961286767570
  0.8854457537176974  0.3882473766832012  0.9084143642724281
  0.6263483245520752  0.6253777392767671  0.1334063894318337
  0.6426917342553223  0.6383734263785712  0.3435347226676955
  0.6699544703810907  0.6617976956123036  0.6373861907173946
  0.6134389038523289  0.6136305383903097  0.8337977122899211
  0.3394159978108297  0.8375684826317544  0.1164142237833289
  0.3607302483490663  0.8575127686880356  0.3980608326692191
  0.3651147609964470  0.8533553326428548  0.5964973088960757
  0.4155712238548859  0.9066161386673862  0.8760775616322650
  0.8686540933797431  0.8713589177813788  0.0963377084536239
  0.8665339910516899  0.8664655626121471  0.3986320772590337
  0.8608133136177065  0.8633254925450117  0.6013613184305791
  0.8856109073704779  0.8913501027320138  0.9070923863842243
  0.9090307534931815  0.0959922740593583  0.1461004971354450
  0.9023908136585451  0.0978951956623037  0.3476054335430431
  0.8896555629406364  0.1114183973135540  0.6595375769700045
  0.8423114260157605  0.1558230953270316  0.8524629337204763
  0.4101023796825938  0.0903218604127922  0.1151121287386890
  0.4098688385116213  0.0974411059332748  0.3896708375919141
  0.4128586542821407  0.0883086140346727  0.6167114482695919
  0.3522647888172935  0.1488283323029289  0.8915383978318903
  0.1010654713873921  0.3973475050018640  0.0960713472637429
  0.1189158246949092  0.3848106193731152  0.3797224943807825
  0.0970972913169751  0.4008141468755117  0.6121722909559910
  0.1429368730386830  0.3554559568176773  0.8884509151297617
  0.9168738397599626  0.5826548615130693  0.1151733743730213
  0.9186205047269128  0.5819253304455924  0.3788513383643745
  0.9100724595189934  0.5848420487940327  0.6178978322008817
  0.8425486122173508  0.6590291134341171  0.8844289344863934
  0.6064095810906520  0.3953158593693549  0.1435097444744220
  0.6148703004156687  0.3915177085003599  0.3417888771382304
  0.5903648089844790  0.4073457810776161  0.6395099343607282
  0.6273172449497003  0.3724161721267529  0.8437983951737021
  0.3886438415908082  0.6110528053769997  0.1407377155688968
  0.4094678729005933  0.5932502308323736  0.3576425693466653
  0.4075784030456702  0.5916623263000621  0.6309394954111704
  0.3472250450827921  0.6504704009122104  0.8455981436628331
  0.1018069270010478  0.8957790087305721  0.1331862091453183
  0.1114571121389713  0.8925125051993269  0.3877883274034133
  0.1011874179628715  0.8990569699943561  0.6183952435647665
  0.1589341220701003  0.8380598294748155  0.8840181685236218
  0.6143545466578714  0.8893424239500207  0.1351071985939431
  0.6217503214780886  0.8782467524931622  0.3601853472032914
  0.6181491835252495  0.8842937467109849  0.5905678541145029
  0.6523329234752785  0.8457230678302564  0.8846221333389099
  0.0111297038732344  0.0079527670502998  0.0475587484590082
  0.9608968454891517  0.9874550321279543  0.2501811220503311
  0.9713540338991687  0.9407353439151488  0.4953804069652650
  0.0515417993168556  0.0001416052519675  0.7274218201746661
  0.5283074477182179  0.0423141117109105  0.9887419335818494
  0.4932783600488641  0.0431695111389181  0.2302784464299640
  0.4436005119593208  0.9777258014512068  0.5030699660503779
  0.5151180383006836  0.9804996107569214  0.7652738639740062
  0.2048036880301344  0.1942992015965344  0.9795236892998457
  0.2176301602732619  0.2912596815691925  0.2771740360785626
  0.2186810483670331  0.3131642303909281  0.4820575431317149
  0.2634940978550219  0.2743339671245430  0.7951018312731141
  0.0184373985949491  0.5112377013806770  0.0084911423433447
  0.9755865674553530  0.5326491927402605  0.2501584327448816
  0.9402826564049245  0.4588717193417149  0.5136123126777363
  0.0151825195254135  0.4936645173598565  0.7189054270832637
  0.7918328502966757  0.2691515993385358  0.9847396120969507
  0.7339459625344471  0.2802786227694572  0.2800461247099275
  0.7217126603150631  0.2304742426477707  0.5012969470559973
  0.7990343227329771  0.2499598728581371  0.7286006713847434
  0.5271665694386829  0.5101232321776170  0.0476544148301769
  0.5294873353261963  0.5446045569304532  0.2570849278974733
  0.4783419620551214  0.4746555143690174  0.5388090162372398
  0.4975630475899311  0.4531401710119755  0.7645391819276612
  0.2156685938725099  0.7378379561129655  0.0147469491586255
  0.2862584958752213  0.7300384258606195  0.2184011524966952
  0.2164101724200169  0.7947161587443167  0.4738312433873803
  0.2062531375038161  0.7462470873680315  0.7686358403273866
  0.7746578413136096  0.7816516061481663  0.9765820153198442
  0.6863845568539396  0.7867076360803060  0.2524038847115612
  0.7221764595651554  0.7565747773572445  0.5289100667223247
  0.7090179612011135  0.7519611484271185  0.7698296570014881
  0.0017596724289388  0.2523830271514009  0.1259612961777949
  0.9990249150129200  0.2465986017848499  0.3721253533241874
  0.0081260096794950  0.2434574718227127  0.6234883168306533
  0.9950290732630365  0.2516308780158649  0.8729833463614751
  0.5006919315912672  0.2505313171581134  0.1250054551919034
  0.4946535919446428  0.2500067989622573  0.3736572656633964
  0.4997573974621574  0.2454230310430409  0.6249565316495831
  0.4997583593819404  0.2517775505558753  0.8767904091613470
  0.2508235474652338  0.4927609178963480  0.1191922303304392
  0.2535025035453739  0.5136146004270133  0.3703105634846784
  0.2500489687773141  0.5011928273983873  0.6253810955176505
  0.2411233103397446  0.5095595698499082  0.8705388371356660
  0.9960454234203898  0.7482852429766310  0.1260761031941229
  0.0014434778740658  0.7422605732789483  0.3744626104709839
  0.0014790839220816  0.7502210333904104  0.6284797466354840
  0.9970453579764532  0.7533850017060625  0.8752895724709935
  0.7562321147841227  0.4902725025975648  0.1215604135530908
  0.7562146243800287  0.4997648251690203  0.3746076453314623
  0.7514710803835589  0.5009644292763451  0.6319984926545790
  0.7473891219926212  0.5025259195116265  0.8706850297144761
  0.5008728814778396  0.7501357350026483  0.1163678136525032
  0.5015356678984747  0.7459277303614622  0.3778189166200942
  0.5030292106202624  0.7473455875520436  0.6204422332124103
  0.4944806020438397  0.7437351170944818  0.8729644778911549
  0.2556569321582029  0.9972478227096812  0.1270395708142898
  0.2565760138197545  0.0078710423369458  0.3704813404411393
  0.2583818683090738  0.9974609941537016  0.6248665573836609
  0.2554034939094305  0.9892615740911723  0.8754653522810372
  0.7471918071510161  0.0033358130773900  0.1245173655080511
  0.7544063652079467  0.0021150997372507  0.3758717648772044
  0.7497864101852958  0.0038262400500263  0.6247986682569289
  0.7499740107554922  0.0049024885394213  0.8723669912952131
 
  0.00000000E+00  0.00000000E+00  0.00000000E+00
  0.00000000E+00  0.00000000E+00  0.00000000E+00
  0.00000000E+00  0.00000000E+00  0.00000000E+00
  0.00000000E+00  0.00000000E+00  0.00000000E+00
  0.00000000E+00  0.00000000E+00  0.00000000E+00
  0.00000000E+00  0.00000000E+00  0.00000000E+00
  0.00000000E+00  0.00000000E+00  0.00000000E+00
  0.00000000E+00  0.00000000E+00  0.00000000E+00
  0.00000000E+00  0.00000000E+00  0.00000000E+00
  0.00000000E+00  0.00000000E+00  0.00000000E+00
  0.00000000E+00  0.00000000E+00  0.00000000E+00
  0.00000000E+00  0.00000000E+00  0.00000000E+00
  0.00000000E+00  0.00000000E+00  0.00000000E+00
  0.00000000E+00  0.00000000E+00  0.00000000E+00
  0.00000000E+00  0.00000000E+00  0.00000000E+00
  0.00000000E+00  0.00000000E+00  0.00000000E+00
  0.00000000E+00  0.00000000E+00  0.00000000E+00
  0.00000000E+00  0.00000000E+00  0.00000000E+00
  0.00000000E+00  0.00000000E+00  0.00000000E+00
  0.00000000E+00  0.00000000E+00  0.00000000E+00
  0.00000000E+00  0.00000000E+00  0.00000000E+00
  0.00000000E+00  0.00000000E+00  0.00000000E+00
  0.00000000E+00  0.00000000E+00  0.00000000E+00
  0.00000000E+00  0.00000000E+00  0.00000000E+00
  0.00000000E+00  0.00000000E+00  0.00000000E+00
  0.00000000E+00  0.00000000E+00  0.00000000E+00
  0.00000000E+00  0.00000000E+00  0.00000000E+00
  0.00000000E+00  0.00000000E+00  0.00000000E+00
  0.00000000E+00  0.00000000E+00  0.00000000E+00
  0.00000000E+00  0.00000000E+00  0.00000000E+00
  0.00000000E+00  0.00000000E+00  0.00000000E+00
  0.00000000E+00  0.00000000E+00  0.00000000E+00
  0.00000000E+00  0.00000000E+00  0.00000000E+00
  0.00000000E+00  0.00000000E+00  0.00000000E+00
  0.00000000E+00  0.00000000E+00  0.00000000E+00
  0.00000000E+00  0.00000000E+00  0.00000000E+00
  0.00000000E+00  0.00000000E+00  0.00000000E+00
  0.00000000E+00  0.00000000E+00  0.00000000E+00
  0.00000000E+00  0.00000000E+00  0.00000000E+00
  0.00000000E+00  0.00000000E+00  0.00000000E+00
  0.00000000E+00  0.00000000E+00  0.00000000E+00
  0.00000000E+00  0.00000000E+00  0.00000000E+00
  0.00000000E+00  0.00000000E+00  0.00000000E+00
  0.00000000E+00  0.00000000E+00  0.00000000E+00
  0.00000000E+00  0.00000000E+00  0.00000000E+00
  0.00000000E+00  0.00000000E+00  0.00000000E+00
  0.00000000E+00  0.00000000E+00  0.00000000E+00
  0.00000000E+00  0.00000000E+00  0.00000000E+00
  0.00000000E+00  0.00000000E+00  0.00000000E+00
  0.00000000E+00  0.00000000E+00  0.00000000E+00
  0.00000000E+00  0.00000000E+00  0.00000000E+00
  0.00000000E+00  0.00000000E+00  0.00000000E+00
  0.00000000E+00  0.00000000E+00  0.00000000E+00
  0.00000000E+00  0.00000000E+00  0.00000000E+00
  0.00000000E+00  0.00000000E+00  0.00000000E+00
  0.00000000E+00  0.00000000E+00  0.00000000E+00
  0.00000000E+00  0.00000000E+00  0.00000000E+00
  0.00000000E+00  0.00000000E+00  0.00000000E+00
  0.00000000E+00  0.00000000E+00  0.00000000E+00
  0.00000000E+00  0.00000000E+00  0.00000000E+00
  0.00000000E+00  0.00000000E+00  0.00000000E+00
  0.00000000E+00  0.00000000E+00  0.00000000E+00
  0.00000000E+00  0.00000000E+00  0.00000000E+00
  0.00000000E+00  0.00000000E+00  0.00000000E+00
  0.00000000E+00  0.00000000E+00  0.00000000E+00
  0.00000000E+00  0.00000000E+00  0.00000000E+00
  0.00000000E+00  0.00000000E+00  0.00000000E+00
  0.00000000E+00  0.00000000E+00  0.00000000E+00
  0.00000000E+00  0.00000000E+00  0.00000000E+00
  0.00000000E+00  0.00000000E+00  0.00000000E+00
  0.00000000E+00  0.00000000E+00  0.00000000E+00
  0.00000000E+00  0.00000000E+00  0.00000000E+00
  0.00000000E+00  0.00000000E+00  0.00000000E+00
  0.00000000E+00  0.00000000E+00  0.00000000E+00
  0.00000000E+00  0.00000000E+00  0.00000000E+00
  0.00000000E+00  0.00000000E+00  0.00000000E+00
  0.00000000E+00  0.00000000E+00  0.00000000E+00
  0.00000000E+00  0.00000000E+00  0.00000000E+00
  0.00000000E+00  0.00000000E+00  0.00000000E+00
  0.00000000E+00  0.00000000E+00  0.00000000E+00
  0.00000000E+00  0.00000000E+00  0.00000000E+00
  0.00000000E+00  0.00000000E+00  0.00000000E+00
  0.00000000E+00  0.00000000E+00  0.00000000E+00
  0.00000000E+00  0.00000000E+00  0.00000000E+00
  0.00000000E+00  0.00000000E+00  0.00000000E+00
  0.00000000E+00  0.00000000E+00  0.00000000E+00
  0.00000000E+00  0.00000000E+00  0.00000000E+00
  0.00000000E+00  0.00000000E+00  0.00000000E+00
  0.00000000E+00  0.00000000E+00  0.00000000E+00
  0.00000000E+00  0.00000000E+00  0.00000000E+00
  0.00000000E+00  0.00000000E+00  0.00000000E+00
  0.00000000E+00  0.00000000E+00  0.00000000E+00
  0.00000000E+00  0.00000000E+00  0.00000000E+00
  0.00000000E+00  0.00000000E+00  0.00000000E+00
  0.00000000E+00  0.00000000E+00  0.00000000E+00
  0.00000000E+00  0.00000000E+00  0.00000000E+00
  0.00000000E+00  0.00000000E+00  0.00000000E+00
  0.00000000E+00  0.00000000E+00  0.00000000E+00
  0.00000000E+00  0.00000000E+00  0.00000000E+00
  0.00000000E+00  0.00000000E+00  0.00000000E+00
  0.00000000E+00  0.00000000E+00  0.00000000E+00
  0.00000000E+00  0.00000000E+00  0.00000000E+00
  0.00000000E+00  0.00000000E+00  0.00000000E+00
  0.00000000E+00  0.00000000E+00  0.00000000E+00
  0.00000000E+00  0.00000000E+00  0.00000000E+00
  0.00000000E+00  0.00000000E+00  0.00000000E+00
  0.00000000E+00  0.00000000E+00  0.00000000E+00
  0.00000000E+00  0.00000000E+00  0.00000000E+00
  0.00000000E+00  0.00000000E+00  0.00000000E+00
  0.00000000E+00  0.00000000E+00  0.00000000E+00
  0.00000000E+00  0.00000000E+00  0.00000000E+00
  0.00000000E+00  0.00000000E+00  0.00000000E+00
  0.00000000E+00  0.00000000E+00  0.00000000E+00
  0.00000000E+00  0.00000000E+00  0.00000000E+00
  0.00000000E+00  0.00000000E+00  0.00000000E+00
  0.00000000E+00  0.00000000E+00  0.00000000E+00
  0.00000000E+00  0.00000000E+00  0.00000000E+00
  0.00000000E+00  0.00000000E+00  0.00000000E+00
  0.00000000E+00  0.00000000E+00  0.00000000E+00
  0.00000000E+00  0.00000000E+00  0.00000000E+00
  0.00000000E+00  0.00000000E+00  0.00000000E+00
  0.00000000E+00  0.00000000E+00  0.00000000E+00
  0.00000000E+00  0.00000000E+00  0.00000000E+00
  0.00000000E+00  0.00000000E+00  0.00000000E+00
  0.00000000E+00  0.00000000E+00  0.00000000E+00
  0.00000000E+00  0.00000000E+00  0.00000000E+00
  0.00000000E+00  0.00000000E+00  0.00000000E+00
  0.00000000E+00  0.00000000E+00  0.00000000E+00
  0.00000000E+00  0.00000000E+00  0.00000000E+00
  0.00000000E+00  0.00000000E+00  0.00000000E+00
  0.00000000E+00  0.00000000E+00  0.00000000E+00
  0.00000000E+00  0.00000000E+00  0.00000000E+00
  0.00000000E+00  0.00000000E+00  0.00000000E+00
  0.00000000E+00  0.00000000E+00  0.00000000E+00
  0.00000000E+00  0.00000000E+00  0.00000000E+00
  0.00000000E+00  0.00000000E+00  0.00000000E+00
  0.00000000E+00  0.00000000E+00  0.00000000E+00
  0.00000000E+00  0.00000000E+00  0.00000000E+00
  0.00000000E+00  0.00000000E+00  0.00000000E+00
  0.00000000E+00  0.00000000E+00  0.00000000E+00
  0.00000000E+00  0.00000000E+00  0.00000000E+00
  0.00000000E+00  0.00000000E+00  0.00000000E+00
  0.00000000E+00  0.00000000E+00  0.00000000E+00
  0.00000000E+00  0.00000000E+00  0.00000000E+00
  0.00000000E+00  0.00000000E+00  0.00000000E+00
  0.00000000E+00  0.00000000E+00  0.00000000E+00
  0.00000000E+00  0.00000000E+00  0.00000000E+00
  0.00000000E+00  0.00000000E+00  0.00000000E+00
  0.00000000E+00  0.00000000E+00  0.00000000E+00
  0.00000000E+00  0.00000000E+00  0.00000000E+00
  0.00000000E+00  0.00000000E+00  0.00000000E+00
  0.00000000E+00  0.00000000E+00  0.00000000E+00
  0.00000000E+00  0.00000000E+00  0.00000000E+00
  0.00000000E+00  0.00000000E+00  0.00000000E+00
  0.00000000E+00  0.00000000E+00  0.00000000E+00
  0.00000000E+00  0.00000000E+00  0.00000000E+00
  0.00000000E+00  0.00000000E+00  0.00000000E+00
  0.00000000E+00  0.00000000E+00  0.00000000E+00
  0.00000000E+00  0.00000000E+00  0.00000000E+00
  0.00000000E+00  0.00000000E+00  0.00000000E+00
