Ga Br Rb                                
   1.00000000000000     
    10.9151080000000000  -10.9151080000000000    0.0000000000000000
    10.9151080000000000   10.9151080000000000    0.0000000000000000
     0.0000000000000000    0.0000000000000000   21.8302170000000011
   Br   Ga   Rb
    96    32    32
Direct
  0.1437232521737156  0.0910753949504381  0.0014432037453337
  0.1284952505447287  0.1332593476601388  0.2494437485107991
  0.1476627749005928  0.0910966055732464  0.5028076425793632
  0.1294581456540064  0.1303133228280157  0.7491054483306311
  0.6631417952943757  0.0883942262344418  0.0041347868422173
  0.6319428448668307  0.1377191988970068  0.2483935027197867
  0.6386287510031593  0.0908995728409527  0.5060970863285011
  0.6252789334752106  0.1359324568233871  0.7546578632354336
  0.3676363683419721  0.3971546755293145  0.0046419365054185
  0.3881449561530111  0.3751755617859649  0.2481382667465791
  0.3354225411050845  0.4150928142628754  0.4982218807046741
  0.3888851535759199  0.3784342953240724  0.7505793686350480
  0.1412879529433274  0.5843998135398460  0.9999516561627271
  0.1269452646349990  0.6189912844239075  0.2384859566808537
  0.1399467950047110  0.6403919231883858  0.5021534550402527
  0.1276559446877941  0.6176178870440540  0.7607587226027028
  0.8551803805945267  0.4070056366828925  0.9992478359080049
  0.8671875030022984  0.3733886819146214  0.2488547256172157
  0.8437248355641418  0.4084725512733487  0.5005691880851028
  0.8636076721102759  0.3696027917306162  0.7521251155432654
  0.6371401702699553  0.5948545473424508  0.9998332972488380
  0.6264527032977733  0.6145735548221857  0.2516393426787973
  0.6348586673721578  0.6291401549280932  0.4950156220388568
  0.6190240991042800  0.6120630146034182  0.7522903205928636
  0.3254003006532543  0.9192078203119584  0.9974660162966377
  0.3863922177481523  0.8731892994902534  0.2455738551171915
  0.2701633137839270  0.8907526168823365  0.4953031793783324
  0.3839042993155671  0.8771498350236629  0.7621984001125687
  0.8642764700117650  0.9087539211399036  0.0006936959673508
  0.8771093385805718  0.8709189802391621  0.2563710952518948
  0.7721246996290470  0.8928630379121154  0.4987043439602608
  0.8729319395939233  0.8709479439594406  0.7453355790127637
  0.9045334550622801  0.1553676313723433  0.0133885241756899
  0.8710891178633383  0.1342978303987641  0.2357566633857695
  0.8905729709480992  0.1108362749325106  0.5132875007164268
  0.8674166913700452  0.1293434494815696  0.7484241271300569
  0.4146894742974606  0.1350609559851148  0.9998963256773321
  0.3785704421221784  0.1293798040348487  0.2466390259539147
  0.3891082877960310  0.1029883941075942  0.5070908890247239
  0.3833616737654054  0.1294175591325831  0.7532093819833383
  0.0984038886579743  0.3483772008317785  0.9975303571513102
  0.1321830284034580  0.3753031157166666  0.2479297933941778
  0.0902409481841319  0.3364989145247362  0.5009965503707260
  0.1296156171592794  0.3712242900995632  0.7509149927642771
  0.9048716682512399  0.6398449118893490  0.0012073090970540
  0.8722498070001000  0.6205278809166601  0.2489261169181009
  0.8911371239416981  0.6588663498618396  0.5017875949724503
  0.8689130399048136  0.6171276196555681  0.7499180337554843
  0.5926343821423087  0.3686101046381950  0.9906330215223357
  0.6274809547453116  0.3781996566411329  0.2723222581766125
  0.5889079336520006  0.3391732995459070  0.4895456219327021
  0.6202843092262380  0.3799703192057393  0.7625080266336219
  0.4109353040393999  0.6192224581460051  0.0305449173805099
  0.3900112011561936  0.6093287203989375  0.2297864830338767
  0.3948025074536579  0.6593132151588023  0.5148651473304783
  0.3874275313559657  0.6103340567036338  0.7440452007782015
  0.0889292657718879  0.8343856645628964  0.9849860599138914
  0.1341138695973365  0.8745322445253603  0.2568442806283966
  0.0208748885538630  0.8587845325252446  0.4946343039080236
  0.1293537796995061  0.8719891899863593  0.7684976117005278
  0.5807684561639668  0.8553386897975060  0.0001479367207706
  0.6345971891545020  0.8728677154220170  0.2537992669034608
  0.5189457527422576  0.8607640576009865  0.5000749276819982
  0.6269414632181999  0.8786329946647627  0.7538234791187064
  0.0125468337386221  0.9873118322322419  0.1159148599232728
  0.9980029750036119  0.0256383592077604  0.3815420991866510
  0.0160689881230204  0.9961852080861897  0.6244159396533582
  0.9955853940126452  0.0146468496438887  0.8859862669603098
  0.5011364060421687  0.9968828618422877  0.1143587762560615
  0.5031095734968837  0.0153461242128907  0.3735081015291365
  0.5008223082057622  0.9977620800992293  0.6330715595278666
  0.5084000816501842  0.0025699296319069  0.8840641614380016
  0.2548918626975765  0.2515791342915099  0.1282325357888261
  0.2574004291646897  0.2490296219518049  0.3734707363165854
  0.2613440952982534  0.2486989526986120  0.6241787895405838
  0.2577122753310621  0.2510845894556178  0.8719154634234066
  0.9989312073186473  0.4889925905262668  0.1158564705111287
  0.0069796388121486  0.5009158640828698  0.3703943758763900
  0.0055854008527043  0.5005706593926392  0.6297042777113177
  0.9964644370972000  0.4910324416219058  0.8829150547897522
  0.7327085284394300  0.2717431286019207  0.1311464702544811
  0.7653505302054772  0.2384600703359947  0.3693760349680519
  0.7400815932585852  0.2540923476167746  0.6339241222072540
  0.7490964777157176  0.2480018703028089  0.8712867117353909
  0.5349234214148268  0.4708854079904610  0.1346306672296207
  0.4871790527132423  0.5119276225124169  0.3650239713081885
  0.5167614860818874  0.4872967441101069  0.6237938560674982
  0.4781622499348848  0.5188589920489057  0.8806563865276683
  0.2472706707080700  0.7467344446454227  0.1015098657474114
  0.2704162862551533  0.7256480830563712  0.3787797901198696
  0.2447611547507711  0.7552750625856828  0.6264632160833673
  0.2776779146135917  0.7234016067176539  0.9041809756418570
  0.7529547132115015  0.7508926035060033  0.1307912691015174
  0.7486810905657425  0.7400606063657448  0.3780394591469032
  0.7362250601519730  0.7402603849175537  0.6185058177798691
  0.7486777825891702  0.7467954390520092  0.8733521270443114
  0.9905162942926260  0.0208846796601269  0.0023321349844962
  0.0059945241756852  0.9966279815898875  0.2494874670850878
  0.0125499014932400  0.0128110203529401  0.5015372090024617
  0.0043479239610743  0.9930282830033619  0.7545900444209436
  0.5254341068498745  0.0119446269426401  0.9978081221333702
  0.5066469214012532  0.9971909727458271  0.2399415782725710
  0.5100320202858332  0.0117366035850072  0.4845861563749177
  0.5010781393324240  0.9983123803203835  0.7494019924858788
  0.2449059132971843  0.2454377181712070  0.9994359691482670
  0.2511839056699989  0.2482498745807767  0.2494719999969402
  0.2452715582704680  0.2682439898035304  0.4994993619530521
  0.2496419154420251  0.2476442357710920  0.7476677072623287
  0.0029902831564033  0.5017991208447576  0.9994555861517270
  0.0030054322533275  0.5011083837326852  0.2489119275027799
  0.9996981248456085  0.4960404295060900  0.5006235082693882
  0.0026105131701010  0.5001542540327292  0.7508288197384367
  0.7518097428951300  0.2649219763500714  0.0016334890080266
  0.7546327609242260  0.2503853056410753  0.2479461652816724
  0.7483273814207879  0.2602555833993155  0.4982859483320744
  0.7529471226712791  0.2457177799618039  0.7517644812065597
  0.4987951846874892  0.5016376782098327  0.9904003192365802
  0.5075136421367297  0.4955183417130911  0.2454862654005388
  0.4992448774286538  0.4908453164597496  0.4900668376099547
  0.5040543619693317  0.4950841837202714  0.7358042070732104
  0.2363463184148000  0.7933033925279820  0.9971316397325545
  0.2565183173511671  0.7480604765151296  0.2491348727963446
  0.2624917718002818  0.7374874901844752  0.5003411648385626
  0.2529404527443537  0.7482241571881867  0.7556750693561990
  0.7527847430861513  0.7560590757793024  0.0005107694508456
  0.7587763561449010  0.7513376339530872  0.2513536519059361
  0.7542914844108131  0.7373235416790059  0.5009935422123953
  0.7516729655224265  0.7495430713936014  0.7504684336513069
  0.0094223336898134  0.2589635289781700  0.1338624101017595
  0.9988782101194167  0.2563976325725529  0.3631564501710413
  0.9978497009070658  0.2463641102180033  0.6355432681942179
  0.9954252202988881  0.2533303330932339  0.8694965990559205
  0.4987721277269304  0.2491111533313993  0.1277309654115985
  0.4942316192847461  0.2486855711050521  0.3620577596460304
  0.5026605077604380  0.2415933077217892  0.6309629551469544
  0.4960914108254673  0.2510876419791897  0.8696159464776523
  0.2519165813486580  0.4925819951747899  0.1246738038563423
  0.2507540974830857  0.4982880322428905  0.3578583865721487
  0.2442024477287128  0.5057973004384071  0.6350844617689905
  0.2431763254936034  0.4838613982254142  0.8758370833081282
  0.0002307521777106  0.7439531440869135  0.1282378027070662
  0.0062254321018078  0.7360829895017718  0.3605219519705339
  0.0081886203186953  0.7472008807358549  0.6378056925209492
  0.9861877353336084  0.7333787239762131  0.8634559132021862
  0.7598669561655786  0.5070214959414981  0.1278332652011134
  0.7555865932220938  0.5061722038292509  0.3699341298056704
  0.7541420198642854  0.5016948384151541  0.6333965102186195
  0.7503460106934982  0.5013885184355832  0.8723925434454282
  0.5200887792430878  0.7462462696472217  0.1353585616844269
  0.5054823015177871  0.7412149110438931  0.3607960262999007
  0.5015282630559207  0.7557568972173734  0.6439408148388348
  0.5103322735194376  0.7471365869015657  0.8705617248452991
  0.2523883654751823  0.0096481657314951  0.1370705491860419
  0.2503521649641341  0.0106183792912877  0.3601804366345994
  0.2537689687350884  0.9964051951653721  0.6405918530393186
  0.2512554854939563  0.0181621416701463  0.8642490057697891
  0.7585569118773950  0.9929451777384848  0.1346486984821596
  0.7613266537796486  0.0084118129781583  0.3616630629157703
  0.7489794826670777  0.0005800318698818  0.6386821416313012
  0.7539224077752500  0.9975706864520545  0.8665997066037511
 
  0.00000000E+00  0.00000000E+00  0.00000000E+00
  0.00000000E+00  0.00000000E+00  0.00000000E+00
  0.00000000E+00  0.00000000E+00  0.00000000E+00
  0.00000000E+00  0.00000000E+00  0.00000000E+00
  0.00000000E+00  0.00000000E+00  0.00000000E+00
  0.00000000E+00  0.00000000E+00  0.00000000E+00
  0.00000000E+00  0.00000000E+00  0.00000000E+00
  0.00000000E+00  0.00000000E+00  0.00000000E+00
  0.00000000E+00  0.00000000E+00  0.00000000E+00
  0.00000000E+00  0.00000000E+00  0.00000000E+00
  0.00000000E+00  0.00000000E+00  0.00000000E+00
  0.00000000E+00  0.00000000E+00  0.00000000E+00
  0.00000000E+00  0.00000000E+00  0.00000000E+00
  0.00000000E+00  0.00000000E+00  0.00000000E+00
  0.00000000E+00  0.00000000E+00  0.00000000E+00
  0.00000000E+00  0.00000000E+00  0.00000000E+00
  0.00000000E+00  0.00000000E+00  0.00000000E+00
  0.00000000E+00  0.00000000E+00  0.00000000E+00
  0.00000000E+00  0.00000000E+00  0.00000000E+00
  0.00000000E+00  0.00000000E+00  0.00000000E+00
  0.00000000E+00  0.00000000E+00  0.00000000E+00
  0.00000000E+00  0.00000000E+00  0.00000000E+00
  0.00000000E+00  0.00000000E+00  0.00000000E+00
  0.00000000E+00  0.00000000E+00  0.00000000E+00
  0.00000000E+00  0.00000000E+00  0.00000000E+00
  0.00000000E+00  0.00000000E+00  0.00000000E+00
  0.00000000E+00  0.00000000E+00  0.00000000E+00
  0.00000000E+00  0.00000000E+00  0.00000000E+00
  0.00000000E+00  0.00000000E+00  0.00000000E+00
  0.00000000E+00  0.00000000E+00  0.00000000E+00
  0.00000000E+00  0.00000000E+00  0.00000000E+00
  0.00000000E+00  0.00000000E+00  0.00000000E+00
  0.00000000E+00  0.00000000E+00  0.00000000E+00
  0.00000000E+00  0.00000000E+00  0.00000000E+00
  0.00000000E+00  0.00000000E+00  0.00000000E+00
  0.00000000E+00  0.00000000E+00  0.00000000E+00
  0.00000000E+00  0.00000000E+00  0.00000000E+00
  0.00000000E+00  0.00000000E+00  0.00000000E+00
  0.00000000E+00  0.00000000E+00  0.00000000E+00
  0.00000000E+00  0.00000000E+00  0.00000000E+00
  0.00000000E+00  0.00000000E+00  0.00000000E+00
  0.00000000E+00  0.00000000E+00  0.00000000E+00
  0.00000000E+00  0.00000000E+00  0.00000000E+00
  0.00000000E+00  0.00000000E+00  0.00000000E+00
  0.00000000E+00  0.00000000E+00  0.00000000E+00
  0.00000000E+00  0.00000000E+00  0.00000000E+00
  0.00000000E+00  0.00000000E+00  0.00000000E+00
  0.00000000E+00  0.00000000E+00  0.00000000E+00
  0.00000000E+00  0.00000000E+00  0.00000000E+00
  0.00000000E+00  0.00000000E+00  0.00000000E+00
  0.00000000E+00  0.00000000E+00  0.00000000E+00
  0.00000000E+00  0.00000000E+00  0.00000000E+00
  0.00000000E+00  0.00000000E+00  0.00000000E+00
  0.00000000E+00  0.00000000E+00  0.00000000E+00
  0.00000000E+00  0.00000000E+00  0.00000000E+00
  0.00000000E+00  0.00000000E+00  0.00000000E+00
  0.00000000E+00  0.00000000E+00  0.00000000E+00
  0.00000000E+00  0.00000000E+00  0.00000000E+00
  0.00000000E+00  0.00000000E+00  0.00000000E+00
  0.00000000E+00  0.00000000E+00  0.00000000E+00
  0.00000000E+00  0.00000000E+00  0.00000000E+00
  0.00000000E+00  0.00000000E+00  0.00000000E+00
  0.00000000E+00  0.00000000E+00  0.00000000E+00
  0.00000000E+00  0.00000000E+00  0.00000000E+00
  0.00000000E+00  0.00000000E+00  0.00000000E+00
  0.00000000E+00  0.00000000E+00  0.00000000E+00
  0.00000000E+00  0.00000000E+00  0.00000000E+00
  0.00000000E+00  0.00000000E+00  0.00000000E+00
  0.00000000E+00  0.00000000E+00  0.00000000E+00
  0.00000000E+00  0.00000000E+00  0.00000000E+00
  0.00000000E+00  0.00000000E+00  0.00000000E+00
  0.00000000E+00  0.00000000E+00  0.00000000E+00
  0.00000000E+00  0.00000000E+00  0.00000000E+00
  0.00000000E+00  0.00000000E+00  0.00000000E+00
  0.00000000E+00  0.00000000E+00  0.00000000E+00
  0.00000000E+00  0.00000000E+00  0.00000000E+00
  0.00000000E+00  0.00000000E+00  0.00000000E+00
  0.00000000E+00  0.00000000E+00  0.00000000E+00
  0.00000000E+00  0.00000000E+00  0.00000000E+00
  0.00000000E+00  0.00000000E+00  0.00000000E+00
  0.00000000E+00  0.00000000E+00  0.00000000E+00
  0.00000000E+00  0.00000000E+00  0.00000000E+00
  0.00000000E+00  0.00000000E+00  0.00000000E+00
  0.00000000E+00  0.00000000E+00  0.00000000E+00
  0.00000000E+00  0.00000000E+00  0.00000000E+00
  0.00000000E+00  0.00000000E+00  0.00000000E+00
  0.00000000E+00  0.00000000E+00  0.00000000E+00
  0.00000000E+00  0.00000000E+00  0.00000000E+00
  0.00000000E+00  0.00000000E+00  0.00000000E+00
  0.00000000E+00  0.00000000E+00  0.00000000E+00
  0.00000000E+00  0.00000000E+00  0.00000000E+00
  0.00000000E+00  0.00000000E+00  0.00000000E+00
  0.00000000E+00  0.00000000E+00  0.00000000E+00
  0.00000000E+00  0.00000000E+00  0.00000000E+00
  0.00000000E+00  0.00000000E+00  0.00000000E+00
  0.00000000E+00  0.00000000E+00  0.00000000E+00
  0.00000000E+00  0.00000000E+00  0.00000000E+00
  0.00000000E+00  0.00000000E+00  0.00000000E+00
  0.00000000E+00  0.00000000E+00  0.00000000E+00
  0.00000000E+00  0.00000000E+00  0.00000000E+00
  0.00000000E+00  0.00000000E+00  0.00000000E+00
  0.00000000E+00  0.00000000E+00  0.00000000E+00
  0.00000000E+00  0.00000000E+00  0.00000000E+00
  0.00000000E+00  0.00000000E+00  0.00000000E+00
  0.00000000E+00  0.00000000E+00  0.00000000E+00
  0.00000000E+00  0.00000000E+00  0.00000000E+00
  0.00000000E+00  0.00000000E+00  0.00000000E+00
  0.00000000E+00  0.00000000E+00  0.00000000E+00
  0.00000000E+00  0.00000000E+00  0.00000000E+00
  0.00000000E+00  0.00000000E+00  0.00000000E+00
  0.00000000E+00  0.00000000E+00  0.00000000E+00
  0.00000000E+00  0.00000000E+00  0.00000000E+00
  0.00000000E+00  0.00000000E+00  0.00000000E+00
  0.00000000E+00  0.00000000E+00  0.00000000E+00
  0.00000000E+00  0.00000000E+00  0.00000000E+00
  0.00000000E+00  0.00000000E+00  0.00000000E+00
  0.00000000E+00  0.00000000E+00  0.00000000E+00
  0.00000000E+00  0.00000000E+00  0.00000000E+00
  0.00000000E+00  0.00000000E+00  0.00000000E+00
  0.00000000E+00  0.00000000E+00  0.00000000E+00
  0.00000000E+00  0.00000000E+00  0.00000000E+00
  0.00000000E+00  0.00000000E+00  0.00000000E+00
  0.00000000E+00  0.00000000E+00  0.00000000E+00
  0.00000000E+00  0.00000000E+00  0.00000000E+00
  0.00000000E+00  0.00000000E+00  0.00000000E+00
  0.00000000E+00  0.00000000E+00  0.00000000E+00
  0.00000000E+00  0.00000000E+00  0.00000000E+00
  0.00000000E+00  0.00000000E+00  0.00000000E+00
  0.00000000E+00  0.00000000E+00  0.00000000E+00
  0.00000000E+00  0.00000000E+00  0.00000000E+00
  0.00000000E+00  0.00000000E+00  0.00000000E+00
  0.00000000E+00  0.00000000E+00  0.00000000E+00
  0.00000000E+00  0.00000000E+00  0.00000000E+00
  0.00000000E+00  0.00000000E+00  0.00000000E+00
  0.00000000E+00  0.00000000E+00  0.00000000E+00
  0.00000000E+00  0.00000000E+00  0.00000000E+00
  0.00000000E+00  0.00000000E+00  0.00000000E+00
  0.00000000E+00  0.00000000E+00  0.00000000E+00
  0.00000000E+00  0.00000000E+00  0.00000000E+00
  0.00000000E+00  0.00000000E+00  0.00000000E+00
  0.00000000E+00  0.00000000E+00  0.00000000E+00
  0.00000000E+00  0.00000000E+00  0.00000000E+00
  0.00000000E+00  0.00000000E+00  0.00000000E+00
  0.00000000E+00  0.00000000E+00  0.00000000E+00
  0.00000000E+00  0.00000000E+00  0.00000000E+00
  0.00000000E+00  0.00000000E+00  0.00000000E+00
  0.00000000E+00  0.00000000E+00  0.00000000E+00
  0.00000000E+00  0.00000000E+00  0.00000000E+00
  0.00000000E+00  0.00000000E+00  0.00000000E+00
  0.00000000E+00  0.00000000E+00  0.00000000E+00
  0.00000000E+00  0.00000000E+00  0.00000000E+00
  0.00000000E+00  0.00000000E+00  0.00000000E+00
  0.00000000E+00  0.00000000E+00  0.00000000E+00
  0.00000000E+00  0.00000000E+00  0.00000000E+00
  0.00000000E+00  0.00000000E+00  0.00000000E+00
  0.00000000E+00  0.00000000E+00  0.00000000E+00
  0.00000000E+00  0.00000000E+00  0.00000000E+00
  0.00000000E+00  0.00000000E+00  0.00000000E+00
  0.00000000E+00  0.00000000E+00  0.00000000E+00
  0.00000000E+00  0.00000000E+00  0.00000000E+00
