Zn In Cl                                
   1.00000000000000     
     9.9139870000000005   -9.9139870000000005    0.0000000000000000
     9.9139870000000005    9.9139870000000005    0.0000000000000000
     0.0000000000000000    0.0000000000000000   19.8279740000000011
   Cl   In   Zn
    96    32    32
Direct
  0.9885616844094807  0.2912291309999356  0.0195706210170750
  0.0034997181228683  0.2352034229005645  0.2276640444628318
  0.9730110912907208  0.2887548150997477  0.5200482516087697
  0.9370586746416119  0.2226193389701356  0.7190255024225781
  0.4878645257178334  0.2848317351445243  0.0140129072075158
  0.4775009609056660  0.2512177821793574  0.2285178027112942
  0.4192471075674358  0.3360198546938375  0.5111414842704689
  0.4828186405209172  0.1814412203508197  0.7451982700716466
  0.2772096586680399  0.5033693530325679  0.9807318510136552
  0.1962276139064353  0.5409359009402530  0.2709180269147091
  0.2318366968438702  0.5052571360541011  0.4806945063244327
  0.2582480259671979  0.5480017198905912  0.7721706594486573
  0.9734138170882543  0.7433071842245014  0.0273409865512389
  0.0025877265188744  0.6998544500687826  0.2316592260021307
  0.9472768013228010  0.8091086340757990  0.5066722898582904
  0.0502800493593502  0.6607174034776407  0.7376883199506205
  0.7344707011395034  0.4682859962736857  0.9821133621736741
  0.7167014277020158  0.4833151059723300  0.2680263458723703
  0.7185732328242546  0.4760071113551843  0.4810666307798524
  0.7389844255814034  0.4691986574890227  0.7668758143719774
  0.5405793409475629  0.7818534382209388  0.9890317257578132
  0.4655271590337416  0.7145392639951319  0.2417580950282450
  0.5095289682070234  0.7618181749804859  0.5269743904997051
  0.5288925579350294  0.7361462597394300  0.7353865983126863
  0.2632736407264369  0.9565069141650275  0.9844050634335985
  0.2600525583043061  0.0341809477825089  0.2734441368408176
  0.2869456069866814  0.9715636967558977  0.4859174804200981
  0.2671642004492737  0.0909706284422222  0.7599275035374369
  0.7346018857681066  0.9393992506034445  0.0154614316891184
  0.7962919512829980  0.0578538494222544  0.2432219517007925
  0.7243622519154369  0.9171564827182302  0.4685096535409871
  0.7983399112407784  0.0295803610683773  0.7455694656384140
  0.1442117162401682  0.1213815772816065  0.0959948281244869
  0.1616285835537696  0.1651835951098111  0.4143546644742508
  0.1250128173003249  0.1454387105117213  0.6223193485457847
  0.1062616515550638  0.1573815496275403  0.8907491139442830
  0.6382425883515542  0.1213817416209411  0.1118694293192578
  0.6655570553330403  0.1126874626658291  0.3843520646026439
  0.6275935922852521  0.1056427109419487  0.6085663830721219
  0.6271844846378272  0.1058136652654289  0.8836531030008806
  0.3482022792422245  0.4092464723380200  0.1381054907883151
  0.3161622184882290  0.3482277032904441  0.3388497747735151
  0.3205240243477317  0.3497935857402553  0.6768181140570610
  0.3134342629699440  0.3444013169275381  0.8530935701444424
  0.1821534451117658  0.6515204021064490  0.1148048558320363
  0.1055117632877438  0.6718064365758548  0.3940030440381036
  0.1392228339527464  0.6833241186695882  0.5817049453525902
  0.1384118726099049  0.6728415749532061  0.9064302867425702
  0.8013218360404984  0.3064740354894330  0.1342305489822177
  0.8336941527818621  0.3164216043058605  0.3699660655006022
  0.8145124142320231  0.3657676688265891  0.6264829063638235
  0.8549704747948709  0.3096180354535751  0.8663303606969179
  0.6743095367468953  0.6535158830485283  0.1255270092294895
  0.6264441183951662  0.6613758869108508  0.3824782355265985
  0.6391200536424988  0.5947930582685305  0.6303413921113887
  0.6342409720661556  0.6276637396898769  0.8652797240724046
  0.3363145987540589  0.8797067114777698  0.1430202526152136
  0.4239007690573238  0.8704652241159766  0.3745166438892356
  0.4248613159677670  0.9251888991533695  0.6521504847330274
  0.4339259740634151  0.9091440809606687  0.8456437286525093
  0.8283075147008200  0.8510621123702412  0.1537588587397238
  0.8840977620827257  0.8638900579919165  0.3365199229845415
  0.9296898384055107  0.8568351465666718  0.6733181825661420
  0.9302816010688135  0.8407216980651292  0.8564044124032004
  0.9058822055464028  0.0760581167891378  0.0838678978229929
  0.9305466794017503  0.0973343528384708  0.3921144485306911
  0.8705625566216553  0.0692555508048272  0.5654974196496706
  0.8866903067336002  0.0631435371262246  0.9019191140815135
  0.3802018831657241  0.1140043573379097  0.1102075890034664
  0.4260500770409514  0.1291052386358595  0.3877639946582246
  0.3673795505938812  0.1373641560596338  0.5872377689623824
  0.3768530299937184  0.1298806052608182  0.9125334202677118
  0.1040390940617729  0.4054330263626043  0.1342550765360695
  0.0706316030898204  0.3773396879492849  0.3740612641469778
  0.1064917221676595  0.4443371294056125  0.6320178589651441
  0.0805749991380532  0.4161800588764387  0.8776484521516433
  0.8781618681198591  0.5479816904655838  0.1226585632675104
  0.8814788635658807  0.6017151339563613  0.3812751590254907
  0.8890405250503716  0.6077170948504725  0.6192750195352338
  0.9004912991789972  0.5890216460932088  0.8840800295112377
  0.5957025990869316  0.4217436089799597  0.1234703862746106
  0.5762964219533563  0.3585814195528939  0.3757849456812386
  0.5764822256219845  0.3532523004035978  0.6358298648334361
  0.5722147813289568  0.3467034500603672  0.8624349567215409
  0.4283673982360507  0.6269714286141961  0.0948212420941461
  0.3930970191453408  0.6047888701475367  0.3765497009088224
  0.3653088573222850  0.5984698666563762  0.6222487915848085
  0.3977938451776215  0.6633398871130859  0.8689880379104858
  0.0987366708750176  0.8956264657915054  0.1399528699412250
  0.1219909032949705  0.9080620981021392  0.3706472967703842
  0.1781389511736815  0.9106909594514849  0.6420476160492250
  0.1750201047596242  0.8952993947963069  0.8384380931621321
  0.5765138197376609  0.8909258646629690  0.1353345827111757
  0.6508664877916922  0.8842438494790997  0.2919697921969590
  0.6969740290170796  0.8553983872424175  0.6318359779698605
  0.6840698904945266  0.8579979819021709  0.8525816668753915
  0.0432234660748025  0.9400178680933142  0.9748259444789028
  0.0150879851701133  0.0218100239642179  0.2590288024911426
  0.0766548312723177  0.9978033298485687  0.5077092375983694
  0.0281515788886214  0.0062562984332839  0.7581841552176507
  0.5081450591242601  0.9916102220731908  0.0117550199982574
  0.4706892004581489  0.0127221930967788  0.2391047417848620
  0.5190792716109394  0.9874239776047868  0.4910619520804341
  0.5806786538244356  0.9923229191035169  0.7541325283327234
  0.2451081552826819  0.2824307599445933  0.9965373817127195
  0.2311287175391919  0.2402128990747617  0.2076166650839275
  0.2071373450311983  0.2999495683807279  0.5295520750749668
  0.1499389677065474  0.2787393611254577  0.7644270787134023
  0.0329815740497003  0.5293987840302761  0.0170232755640756
  0.9819191974868420  0.4679371653200355  0.2504983501692314
  0.0246467308230465  0.5299536140127210  0.4931196035276985
  0.9552251835092674  0.4493340207195805  0.7447354074689542
  0.7053824518577387  0.2581880915559484  0.9826791880033721
  0.6874021709290115  0.2417212330419786  0.2657087520099941
  0.7118359291393036  0.2489429804892394  0.5026108562976501
  0.7106038280620638  0.2504059045161211  0.7462255102757868
  0.5033578251892730  0.5069724637408893  0.9805465805517039
  0.4858965147249585  0.4815138916742698  0.2493571782512991
  0.5013973340034651  0.5391069251993961  0.5023097305403696
  0.5090625970588588  0.5125496100440818  0.7476397110817909
  0.3095446648385162  0.7369825609021563  0.0055248094862810
  0.2173975561252922  0.7750354367221259  0.2494190421675241
  0.2859643229381709  0.7467326713397539  0.4731515622313512
  0.2902153791468082  0.7630084935574044  0.7407361185208124
  0.7587732896011714  0.7196382515887116  0.9944364343546278
  0.7815019993264229  0.7023066544063538  0.2599823083768431
  0.7446448463892639  0.7206335469093209  0.4995289658249797
  0.7816969901426478  0.7222902161847949  0.7450434967231686
  0.9438415108023610  0.2253516187913736  0.1229355793326341
  0.9917807556744037  0.2439651913653356  0.4041969181055741
  0.9668602343065761  0.1873537845428560  0.6114984419667543
  0.9606726838861893  0.2147887037855421  0.9178918637559350
  0.5066717091478715  0.2318077138719709  0.1189576977339647
  0.4388095101899051  0.2890670467986691  0.4033110246247347
  0.4486869878355721  0.2599826170246034  0.6398487657928525
  0.4437023842301326  0.2509978863887511  0.8469260697871425
  0.2274600795342371  0.5093038463322662  0.1536436214903691
  0.2712373093251148  0.4996769841102053  0.3708138674840913
  0.2495649529443691  0.5026952580675546  0.6573460926141920
  0.2039662641659654  0.5194069075137172  0.8797550427734979
  0.9797604206466631  0.7836396326773519  0.1369659417171842
  0.0078076231053789  0.7988502256177997  0.3995043337204008
  0.0029412396183755  0.7400276279553675  0.6191451282441640
  0.0080410082391614  0.7053766524451018  0.8412810340034713
  0.7448548778345577  0.4692160566814035  0.1452508359818486
  0.7914041275123643  0.4719837672104701  0.3735711374172138
  0.7605165363820134  0.5062868378053565  0.5942681402479190
  0.7538934601857491  0.5095790727298521  0.8749772199840394
  0.5347792778573411  0.7353382081196762  0.1352094091578189
  0.5404183894962229  0.7771352445739331  0.3351179301797198
  0.5358325575352682  0.8038699176185836  0.6330298615618679
  0.5242084379932521  0.7656044566848684  0.8754713403944501
  0.2492675736025887  0.9992635026406627  0.0980363246374967
  0.2732354219923668  0.0519008751523083  0.3866198672656092
  0.2845978754227053  0.0279471874761628  0.6526736482342839
  0.2947803406374729  0.0004678077787667  0.8628388136222481
  0.7705405784733492  0.0073394269938371  0.1320754067314854
  0.7516749769187574  0.9762435375788892  0.3619166208151000
  0.7546695131045772  0.0142404090379918  0.6376088328499251
  0.7372447606235520  0.9948541547533603  0.9074976806628334
 
  0.00000000E+00  0.00000000E+00  0.00000000E+00
  0.00000000E+00  0.00000000E+00  0.00000000E+00
  0.00000000E+00  0.00000000E+00  0.00000000E+00
  0.00000000E+00  0.00000000E+00  0.00000000E+00
  0.00000000E+00  0.00000000E+00  0.00000000E+00
  0.00000000E+00  0.00000000E+00  0.00000000E+00
  0.00000000E+00  0.00000000E+00  0.00000000E+00
  0.00000000E+00  0.00000000E+00  0.00000000E+00
  0.00000000E+00  0.00000000E+00  0.00000000E+00
  0.00000000E+00  0.00000000E+00  0.00000000E+00
  0.00000000E+00  0.00000000E+00  0.00000000E+00
  0.00000000E+00  0.00000000E+00  0.00000000E+00
  0.00000000E+00  0.00000000E+00  0.00000000E+00
  0.00000000E+00  0.00000000E+00  0.00000000E+00
  0.00000000E+00  0.00000000E+00  0.00000000E+00
  0.00000000E+00  0.00000000E+00  0.00000000E+00
  0.00000000E+00  0.00000000E+00  0.00000000E+00
  0.00000000E+00  0.00000000E+00  0.00000000E+00
  0.00000000E+00  0.00000000E+00  0.00000000E+00
  0.00000000E+00  0.00000000E+00  0.00000000E+00
  0.00000000E+00  0.00000000E+00  0.00000000E+00
  0.00000000E+00  0.00000000E+00  0.00000000E+00
  0.00000000E+00  0.00000000E+00  0.00000000E+00
  0.00000000E+00  0.00000000E+00  0.00000000E+00
  0.00000000E+00  0.00000000E+00  0.00000000E+00
  0.00000000E+00  0.00000000E+00  0.00000000E+00
  0.00000000E+00  0.00000000E+00  0.00000000E+00
  0.00000000E+00  0.00000000E+00  0.00000000E+00
  0.00000000E+00  0.00000000E+00  0.00000000E+00
  0.00000000E+00  0.00000000E+00  0.00000000E+00
  0.00000000E+00  0.00000000E+00  0.00000000E+00
  0.00000000E+00  0.00000000E+00  0.00000000E+00
  0.00000000E+00  0.00000000E+00  0.00000000E+00
  0.00000000E+00  0.00000000E+00  0.00000000E+00
  0.00000000E+00  0.00000000E+00  0.00000000E+00
  0.00000000E+00  0.00000000E+00  0.00000000E+00
  0.00000000E+00  0.00000000E+00  0.00000000E+00
  0.00000000E+00  0.00000000E+00  0.00000000E+00
  0.00000000E+00  0.00000000E+00  0.00000000E+00
  0.00000000E+00  0.00000000E+00  0.00000000E+00
  0.00000000E+00  0.00000000E+00  0.00000000E+00
  0.00000000E+00  0.00000000E+00  0.00000000E+00
  0.00000000E+00  0.00000000E+00  0.00000000E+00
  0.00000000E+00  0.00000000E+00  0.00000000E+00
  0.00000000E+00  0.00000000E+00  0.00000000E+00
  0.00000000E+00  0.00000000E+00  0.00000000E+00
  0.00000000E+00  0.00000000E+00  0.00000000E+00
  0.00000000E+00  0.00000000E+00  0.00000000E+00
  0.00000000E+00  0.00000000E+00  0.00000000E+00
  0.00000000E+00  0.00000000E+00  0.00000000E+00
  0.00000000E+00  0.00000000E+00  0.00000000E+00
  0.00000000E+00  0.00000000E+00  0.00000000E+00
  0.00000000E+00  0.00000000E+00  0.00000000E+00
  0.00000000E+00  0.00000000E+00  0.00000000E+00
  0.00000000E+00  0.00000000E+00  0.00000000E+00
  0.00000000E+00  0.00000000E+00  0.00000000E+00
  0.00000000E+00  0.00000000E+00  0.00000000E+00
  0.00000000E+00  0.00000000E+00  0.00000000E+00
  0.00000000E+00  0.00000000E+00  0.00000000E+00
  0.00000000E+00  0.00000000E+00  0.00000000E+00
  0.00000000E+00  0.00000000E+00  0.00000000E+00
  0.00000000E+00  0.00000000E+00  0.00000000E+00
  0.00000000E+00  0.00000000E+00  0.00000000E+00
  0.00000000E+00  0.00000000E+00  0.00000000E+00
  0.00000000E+00  0.00000000E+00  0.00000000E+00
  0.00000000E+00  0.00000000E+00  0.00000000E+00
  0.00000000E+00  0.00000000E+00  0.00000000E+00
  0.00000000E+00  0.00000000E+00  0.00000000E+00
  0.00000000E+00  0.00000000E+00  0.00000000E+00
  0.00000000E+00  0.00000000E+00  0.00000000E+00
  0.00000000E+00  0.00000000E+00  0.00000000E+00
  0.00000000E+00  0.00000000E+00  0.00000000E+00
  0.00000000E+00  0.00000000E+00  0.00000000E+00
  0.00000000E+00  0.00000000E+00  0.00000000E+00
  0.00000000E+00  0.00000000E+00  0.00000000E+00
  0.00000000E+00  0.00000000E+00  0.00000000E+00
  0.00000000E+00  0.00000000E+00  0.00000000E+00
  0.00000000E+00  0.00000000E+00  0.00000000E+00
  0.00000000E+00  0.00000000E+00  0.00000000E+00
  0.00000000E+00  0.00000000E+00  0.00000000E+00
  0.00000000E+00  0.00000000E+00  0.00000000E+00
  0.00000000E+00  0.00000000E+00  0.00000000E+00
  0.00000000E+00  0.00000000E+00  0.00000000E+00
  0.00000000E+00  0.00000000E+00  0.00000000E+00
  0.00000000E+00  0.00000000E+00  0.00000000E+00
  0.00000000E+00  0.00000000E+00  0.00000000E+00
  0.00000000E+00  0.00000000E+00  0.00000000E+00
  0.00000000E+00  0.00000000E+00  0.00000000E+00
  0.00000000E+00  0.00000000E+00  0.00000000E+00
  0.00000000E+00  0.00000000E+00  0.00000000E+00
  0.00000000E+00  0.00000000E+00  0.00000000E+00
  0.00000000E+00  0.00000000E+00  0.00000000E+00
  0.00000000E+00  0.00000000E+00  0.00000000E+00
  0.00000000E+00  0.00000000E+00  0.00000000E+00
  0.00000000E+00  0.00000000E+00  0.00000000E+00
  0.00000000E+00  0.00000000E+00  0.00000000E+00
  0.00000000E+00  0.00000000E+00  0.00000000E+00
  0.00000000E+00  0.00000000E+00  0.00000000E+00
  0.00000000E+00  0.00000000E+00  0.00000000E+00
  0.00000000E+00  0.00000000E+00  0.00000000E+00
  0.00000000E+00  0.00000000E+00  0.00000000E+00
  0.00000000E+00  0.00000000E+00  0.00000000E+00
  0.00000000E+00  0.00000000E+00  0.00000000E+00
  0.00000000E+00  0.00000000E+00  0.00000000E+00
  0.00000000E+00  0.00000000E+00  0.00000000E+00
  0.00000000E+00  0.00000000E+00  0.00000000E+00
  0.00000000E+00  0.00000000E+00  0.00000000E+00
  0.00000000E+00  0.00000000E+00  0.00000000E+00
  0.00000000E+00  0.00000000E+00  0.00000000E+00
  0.00000000E+00  0.00000000E+00  0.00000000E+00
  0.00000000E+00  0.00000000E+00  0.00000000E+00
  0.00000000E+00  0.00000000E+00  0.00000000E+00
  0.00000000E+00  0.00000000E+00  0.00000000E+00
  0.00000000E+00  0.00000000E+00  0.00000000E+00
  0.00000000E+00  0.00000000E+00  0.00000000E+00
  0.00000000E+00  0.00000000E+00  0.00000000E+00
  0.00000000E+00  0.00000000E+00  0.00000000E+00
  0.00000000E+00  0.00000000E+00  0.00000000E+00
  0.00000000E+00  0.00000000E+00  0.00000000E+00
  0.00000000E+00  0.00000000E+00  0.00000000E+00
  0.00000000E+00  0.00000000E+00  0.00000000E+00
  0.00000000E+00  0.00000000E+00  0.00000000E+00
  0.00000000E+00  0.00000000E+00  0.00000000E+00
  0.00000000E+00  0.00000000E+00  0.00000000E+00
  0.00000000E+00  0.00000000E+00  0.00000000E+00
  0.00000000E+00  0.00000000E+00  0.00000000E+00
  0.00000000E+00  0.00000000E+00  0.00000000E+00
  0.00000000E+00  0.00000000E+00  0.00000000E+00
  0.00000000E+00  0.00000000E+00  0.00000000E+00
  0.00000000E+00  0.00000000E+00  0.00000000E+00
  0.00000000E+00  0.00000000E+00  0.00000000E+00
  0.00000000E+00  0.00000000E+00  0.00000000E+00
  0.00000000E+00  0.00000000E+00  0.00000000E+00
  0.00000000E+00  0.00000000E+00  0.00000000E+00
  0.00000000E+00  0.00000000E+00  0.00000000E+00
  0.00000000E+00  0.00000000E+00  0.00000000E+00
  0.00000000E+00  0.00000000E+00  0.00000000E+00
  0.00000000E+00  0.00000000E+00  0.00000000E+00
  0.00000000E+00  0.00000000E+00  0.00000000E+00
  0.00000000E+00  0.00000000E+00  0.00000000E+00
  0.00000000E+00  0.00000000E+00  0.00000000E+00
  0.00000000E+00  0.00000000E+00  0.00000000E+00
  0.00000000E+00  0.00000000E+00  0.00000000E+00
  0.00000000E+00  0.00000000E+00  0.00000000E+00
  0.00000000E+00  0.00000000E+00  0.00000000E+00
  0.00000000E+00  0.00000000E+00  0.00000000E+00
  0.00000000E+00  0.00000000E+00  0.00000000E+00
  0.00000000E+00  0.00000000E+00  0.00000000E+00
  0.00000000E+00  0.00000000E+00  0.00000000E+00
  0.00000000E+00  0.00000000E+00  0.00000000E+00
  0.00000000E+00  0.00000000E+00  0.00000000E+00
  0.00000000E+00  0.00000000E+00  0.00000000E+00
  0.00000000E+00  0.00000000E+00  0.00000000E+00
  0.00000000E+00  0.00000000E+00  0.00000000E+00
  0.00000000E+00  0.00000000E+00  0.00000000E+00
  0.00000000E+00  0.00000000E+00  0.00000000E+00
  0.00000000E+00  0.00000000E+00  0.00000000E+00
  0.00000000E+00  0.00000000E+00  0.00000000E+00
  0.00000000E+00  0.00000000E+00  0.00000000E+00
  0.00000000E+00  0.00000000E+00  0.00000000E+00
