Ca Ag Cl                                
   1.00000000000000     
    10.2729230000000005  -10.2729230000000005    0.0000000000000000
    10.2729230000000005   10.2729230000000005    0.0000000000000000
     0.0000000000000000    0.0000000000000000   20.5458469999999984
   Ca   Ag   Cl
    32    32    96
Direct
  0.9919555619080108  0.9992033178012247  0.0207733709333458
  0.8867786443252266  0.9510073227170648  0.2139368389431825
  0.8880417392991704  0.0521929112156124  0.4580897412974839
  0.0241051222357819  0.9710856045771457  0.8101094753966169
  0.3923759687395161  0.1136780401885107  0.0361734488188119
  0.3869449660316496  0.9840124968956757  0.2377879103568371
  0.4228906202532509  0.9208803652750439  0.5149974735650600
  0.5049064509625956  0.0449406259611243  0.7283405258757844
  0.3651203924710424  0.3478458929253390  0.9302310809712796
  0.2881745042923168  0.2645386676543602  0.2851163428205797
  0.1797452083150312  0.2622464307085643  0.4799008531481661
  0.2376066413074545  0.2364215081823486  0.7297389838384670
  0.9520918240058254  0.5124677078185369  0.9667296869032395
  0.0238700394217358  0.4450898318928098  0.1985525063340157
  0.9677275887252821  0.5451666877381074  0.5362679720451116
  0.9401878210964459  0.4643548652273513  0.7517048912132089
  0.8087571438066908  0.2240896550902343  0.0675819724735997
  0.7973528696984751  0.2734850540236641  0.2563045983919512
  0.6744828677986674  0.3527349620231915  0.4828878850610995
  0.7241676797216529  0.1820445990559847  0.7618813446093334
  0.5034987454550830  0.5891488072182063  0.9523071126633286
  0.4815908064601839  0.5102855998392775  0.3038867163124979
  0.4464148551515457  0.4102666387260920  0.5646710897207454
  0.4163758319726309  0.7053935761490907  0.7179103527892227
  0.2930064464103979  0.8672062364679326  0.0602504644706573
  0.3080252450710899  0.6912973122454629  0.2255537463757474
  0.1915710953400211  0.7670072777156084  0.5084041365894814
  0.1341806322977444  0.7409486320577845  0.7148089525754179
  0.7844016549369442  0.7603865382854472  0.0044854359276510
  0.8073178647109142  0.6902763969867800  0.2571006580767385
  0.7465831601838361  0.7968964508294607  0.4782871527597957
  0.7364081339581766  0.6917863317418965  0.7975370759542231
  0.1331664083743525  0.2577643946932333  0.0655101432072878
  0.9568451190318620  0.2928930336081699  0.3980125662662954
  0.9127386162384470  0.2595996141663423  0.5956810785386353
  0.0252183775130819  0.2159512843611408  0.8796475493968706
  0.5473629199041965  0.2144723996924097  0.1731578234350093
  0.4892550811823416  0.2838602507995351  0.3878353555056683
  0.6166127436490677  0.1534685545582144  0.5939194678171422
  0.5960613369018761  0.2042054351926735  0.9298931197040993
  0.1762058863067899  0.5691604176232177  0.0406276314743045
  0.1998461279090905  0.5007912170020105  0.3867483963834421
  0.2242736057816319  0.4659308714262459  0.6355529150176411
  0.2506917579498650  0.5450274204595589  0.8487810780552695
  0.0687869923059504  0.7053345034729638  0.1258655122825055
  0.0030359179775119  0.7774460370493819  0.3562075984135950
  0.9022222957418172  0.8113573252568461  0.6252001295664671
  0.0581609656047084  0.7612161657417303  0.9257800171329962
  0.7306826764775517  0.4929747074384636  0.1102813549820991
  0.7622737756138074  0.5052152669136775  0.3582168763942915
  0.6688446104868148  0.5923529953617135  0.6266101815528369
  0.7039577939640753  0.4412376381769149  0.9080801174999479
  0.5330254916545295  0.7162800204364487  0.1255583337791903
  0.4986262721809953  0.7859026120261661  0.3633866226709109
  0.5347571753493294  0.6752606897395440  0.5341572692465875
  0.4864055170323903  0.8330513767167026  0.8936286587800611
  0.1683070308019190  0.1216183893959037  0.1742044747402197
  0.1356813002941470  0.9858680953532385  0.3764080070215539
  0.1211508652463539  0.0349879977092393  0.5947275621167368
  0.2638496788012936  0.9905874977812719  0.8551288920246720
  0.6367630366177702  0.9948986824470636  0.1350073396982539
  0.6184956733554116  0.9484656504109250  0.3366973561400852
  0.8603651262691231  0.9890829037032189  0.6801842927400803
  0.7524962186997413  0.9782553765571422  0.8938279848669058
  0.9917288130094167  0.2039972583169636  0.0070132740587803
  0.9238570332636885  0.2929640405572750  0.1612799998001311
  0.0091445163808056  0.3490297341178374  0.5101762162807200
  0.0769596395452075  0.1586948438149536  0.7662460812383662
  0.5833481596201346  0.1507884572434834  0.0527725725511902
  0.4767498148993304  0.3256785712036959  0.2671032363754435
  0.5199502446863384  0.2485729293139130  0.5126069766347418
  0.5584568126914928  0.2275302139184467  0.7139431201312140
  0.3278881804033765  0.5187810765542894  0.9694479296254657
  0.2994192785241677  0.4534503063649836  0.2951774720785318
  0.2703366772016173  0.4248233073526247  0.5135597379486754
  0.2516637919592923  0.5920455103625714  0.7267234364821056
  0.1089426220949293  0.8426819075369359  0.0358416014717115
  0.9661130934548839  0.7780359568022599  0.2252099987796352
  0.9156262089901530  0.8737539338732432  0.5080231900357608
  0.0056941908880572  0.6354116612678200  0.7689486574971105
  0.8127181784040146  0.3989244191278157  0.0093665918288396
  0.8670565406905578  0.5530263816445874  0.1794512958707876
  0.8159941858105517  0.4715106913544395  0.4734799739081798
  0.7820043411996124  0.5412424180568070  0.7262815567287213
  0.4508993746051734  0.7502478562780561  0.0065937068247540
  0.4705822243085672  0.8118195588779398  0.2378474400374015
  0.3705163147010989  0.7483675066582310  0.4887071945316364
  0.4528110654741734  0.8760504572582580  0.7722979621114410
  0.2201510492233075  0.0481903351066098  0.0628326885564011
  0.2461217116838394  0.8674057490303749  0.1971183861931264
  0.2327147230431909  0.9499450028230225  0.5165445557350482
  0.3232278933227338  0.0817845339078241  0.7587394008181290
  0.8085193838879552  0.0692078373888892  0.9950707082993898
  0.7326021058705436  0.8579693411609725  0.2577209508297257
  0.7191938125292495  0.9726025921555139  0.4358468848868765
  0.6860734387443416  0.0343844396634866  0.6726507716771122
  0.0099179581141579  0.0535705292817227  0.1495569731519848
  0.0699179820233034  0.1130586906011766  0.4521530069587399
  0.1897819243515393  0.2003621741275197  0.6049253218699366
  0.1070940943861863  0.0455579558725328  0.9140546507382440
  0.5610181284944824  0.0617859924560795  0.2495564121324245
  0.6777527912812363  0.3251444758438053  0.3527124593606668
  0.7682914931833054  0.2003678221115557  0.5182106129292832
  0.6135656663535884  0.0601545561280316  0.8373117627272295
  0.3032200897589888  0.2837294499697483  0.0415116974066631
  0.3306401441771528  0.2075041554653538  0.4105312348320729
  0.3571746477538160  0.3592056290905415  0.6758901971449165
  0.5339583775802861  0.4010089433683335  0.9684190562142149
  0.1309644794851745  0.5977729608119988  0.2216933001994121
  0.1005685260101791  0.6017498453256930  0.4523239560206631
  0.0586945892397137  0.7023993790797766  0.5940476859252199
  0.1091316625297223  0.5954635781593712  0.9205655542612020
  0.0626976830017256  0.4438192620148630  0.0653474241092160
  0.9103414786663437  0.4155430077773956  0.3072191245969094
  0.8532068295559918  0.3015132123374774  0.7072227766471677
  0.9776275237269377  0.3893438126782311  0.8672322152580161
  0.6604567235515513  0.6107798416987199  0.0332575003556883
  0.6600521047181627  0.5719561080672843  0.2726698391086069
  0.6046224882830942  0.7165738799067367  0.7035101119628189
  0.6153200599879269  0.5626948743218571  0.8484881512858813
  0.4414350830069428  0.9609330530123980  0.1089638425984974
  0.4407345191858943  0.9558357463275654  0.3846183305329198
  0.2852457419809538  0.7951572251333389  0.6441517055572481
  0.3679031598422283  0.9547568647658101  0.9505134659094090
  0.8755537650606922  0.8834390886587511  0.0872925269408301
  0.9504228183508916  0.9568679978536695  0.3419516340081369
  0.8483945066623847  0.8273775101621674  0.7410822626162026
  0.9242394141415525  0.8792953994107819  0.9144692367765405
  0.7762767743532317  0.1062688837464359  0.1789598278105383
  0.8607300915662636  0.1654069660713753  0.3512736724474286
  0.9417789513136791  0.0805070174840797  0.5926259653466851
  0.8637734965046118  0.0662040466438221  0.8027366241825873
  0.3689889921050069  0.1629162137021966  0.1774669834987586
  0.2304703420272391  0.0753622407947952  0.2898912747838077
  0.4474138936413636  0.0502478704125203  0.6033009851542432
  0.4210036740872789  0.1774811250599104  0.9094188743471909
  0.1593740019941973  0.3064878361452195  0.1917098458797758
  0.1316521835127952  0.3231536160763988  0.3597366311288454
  0.0461756167650973  0.4631117903370247  0.6442146175384583
  0.2385282357272023  0.3550591188124852  0.8338500950739123
  0.9370245119058834  0.6624555626997519  0.0444225304826556
  0.8557509931584930  0.6913196042618655  0.3845195704316627
  0.8144882923925447  0.6653606320684970  0.5664265203470273
  0.8370582431361185  0.6293368982764360  0.9012458928693259
  0.6855857286139797  0.3300952877186727  0.1547038005896281
  0.5158575808073015  0.4631061538642837  0.4388239108557143
  0.6286057359225725  0.4266180438921898  0.5991125846876576
  0.7362550761991721  0.2724396490835848  0.8755406746693463
  0.4513189071155835  0.5794501796185469  0.1806851103095126
  0.3743581730211414  0.6509515139353027  0.3448072388567131
  0.4377714866969571  0.5847727834453341  0.6123584175365151
  0.4027965550056939  0.6630376804871029  0.8460922728946773
  0.2713564308639217  0.6856186547929594  0.0956409381629842
  0.1683479573322129  0.8117381388861373  0.3797836598842390
  0.0664470852597721  0.9172713864973722  0.6860482595021687
  0.1622945848949557  0.8365411792859742  0.8290235583127296
  0.6542963659802212  0.8336641917975371  0.0895558472378026
  0.6172875286121515  0.6880703164888495  0.4223671684195043
  0.5917661074902890  0.8473029522686719  0.5520504897348835
  0.6745420048529461  0.8137084439240242  0.8970160533945394
 
  0.00000000E+00  0.00000000E+00  0.00000000E+00
  0.00000000E+00  0.00000000E+00  0.00000000E+00
  0.00000000E+00  0.00000000E+00  0.00000000E+00
  0.00000000E+00  0.00000000E+00  0.00000000E+00
  0.00000000E+00  0.00000000E+00  0.00000000E+00
  0.00000000E+00  0.00000000E+00  0.00000000E+00
  0.00000000E+00  0.00000000E+00  0.00000000E+00
  0.00000000E+00  0.00000000E+00  0.00000000E+00
  0.00000000E+00  0.00000000E+00  0.00000000E+00
  0.00000000E+00  0.00000000E+00  0.00000000E+00
  0.00000000E+00  0.00000000E+00  0.00000000E+00
  0.00000000E+00  0.00000000E+00  0.00000000E+00
  0.00000000E+00  0.00000000E+00  0.00000000E+00
  0.00000000E+00  0.00000000E+00  0.00000000E+00
  0.00000000E+00  0.00000000E+00  0.00000000E+00
  0.00000000E+00  0.00000000E+00  0.00000000E+00
  0.00000000E+00  0.00000000E+00  0.00000000E+00
  0.00000000E+00  0.00000000E+00  0.00000000E+00
  0.00000000E+00  0.00000000E+00  0.00000000E+00
  0.00000000E+00  0.00000000E+00  0.00000000E+00
  0.00000000E+00  0.00000000E+00  0.00000000E+00
  0.00000000E+00  0.00000000E+00  0.00000000E+00
  0.00000000E+00  0.00000000E+00  0.00000000E+00
  0.00000000E+00  0.00000000E+00  0.00000000E+00
  0.00000000E+00  0.00000000E+00  0.00000000E+00
  0.00000000E+00  0.00000000E+00  0.00000000E+00
  0.00000000E+00  0.00000000E+00  0.00000000E+00
  0.00000000E+00  0.00000000E+00  0.00000000E+00
  0.00000000E+00  0.00000000E+00  0.00000000E+00
  0.00000000E+00  0.00000000E+00  0.00000000E+00
  0.00000000E+00  0.00000000E+00  0.00000000E+00
  0.00000000E+00  0.00000000E+00  0.00000000E+00
  0.00000000E+00  0.00000000E+00  0.00000000E+00
  0.00000000E+00  0.00000000E+00  0.00000000E+00
  0.00000000E+00  0.00000000E+00  0.00000000E+00
  0.00000000E+00  0.00000000E+00  0.00000000E+00
  0.00000000E+00  0.00000000E+00  0.00000000E+00
  0.00000000E+00  0.00000000E+00  0.00000000E+00
  0.00000000E+00  0.00000000E+00  0.00000000E+00
  0.00000000E+00  0.00000000E+00  0.00000000E+00
  0.00000000E+00  0.00000000E+00  0.00000000E+00
  0.00000000E+00  0.00000000E+00  0.00000000E+00
  0.00000000E+00  0.00000000E+00  0.00000000E+00
  0.00000000E+00  0.00000000E+00  0.00000000E+00
  0.00000000E+00  0.00000000E+00  0.00000000E+00
  0.00000000E+00  0.00000000E+00  0.00000000E+00
  0.00000000E+00  0.00000000E+00  0.00000000E+00
  0.00000000E+00  0.00000000E+00  0.00000000E+00
  0.00000000E+00  0.00000000E+00  0.00000000E+00
  0.00000000E+00  0.00000000E+00  0.00000000E+00
  0.00000000E+00  0.00000000E+00  0.00000000E+00
  0.00000000E+00  0.00000000E+00  0.00000000E+00
  0.00000000E+00  0.00000000E+00  0.00000000E+00
  0.00000000E+00  0.00000000E+00  0.00000000E+00
  0.00000000E+00  0.00000000E+00  0.00000000E+00
  0.00000000E+00  0.00000000E+00  0.00000000E+00
  0.00000000E+00  0.00000000E+00  0.00000000E+00
  0.00000000E+00  0.00000000E+00  0.00000000E+00
  0.00000000E+00  0.00000000E+00  0.00000000E+00
  0.00000000E+00  0.00000000E+00  0.00000000E+00
  0.00000000E+00  0.00000000E+00  0.00000000E+00
  0.00000000E+00  0.00000000E+00  0.00000000E+00
  0.00000000E+00  0.00000000E+00  0.00000000E+00
  0.00000000E+00  0.00000000E+00  0.00000000E+00
  0.00000000E+00  0.00000000E+00  0.00000000E+00
  0.00000000E+00  0.00000000E+00  0.00000000E+00
  0.00000000E+00  0.00000000E+00  0.00000000E+00
  0.00000000E+00  0.00000000E+00  0.00000000E+00
  0.00000000E+00  0.00000000E+00  0.00000000E+00
  0.00000000E+00  0.00000000E+00  0.00000000E+00
  0.00000000E+00  0.00000000E+00  0.00000000E+00
  0.00000000E+00  0.00000000E+00  0.00000000E+00
  0.00000000E+00  0.00000000E+00  0.00000000E+00
  0.00000000E+00  0.00000000E+00  0.00000000E+00
  0.00000000E+00  0.00000000E+00  0.00000000E+00
  0.00000000E+00  0.00000000E+00  0.00000000E+00
  0.00000000E+00  0.00000000E+00  0.00000000E+00
  0.00000000E+00  0.00000000E+00  0.00000000E+00
  0.00000000E+00  0.00000000E+00  0.00000000E+00
  0.00000000E+00  0.00000000E+00  0.00000000E+00
  0.00000000E+00  0.00000000E+00  0.00000000E+00
  0.00000000E+00  0.00000000E+00  0.00000000E+00
  0.00000000E+00  0.00000000E+00  0.00000000E+00
  0.00000000E+00  0.00000000E+00  0.00000000E+00
  0.00000000E+00  0.00000000E+00  0.00000000E+00
  0.00000000E+00  0.00000000E+00  0.00000000E+00
  0.00000000E+00  0.00000000E+00  0.00000000E+00
  0.00000000E+00  0.00000000E+00  0.00000000E+00
  0.00000000E+00  0.00000000E+00  0.00000000E+00
  0.00000000E+00  0.00000000E+00  0.00000000E+00
  0.00000000E+00  0.00000000E+00  0.00000000E+00
  0.00000000E+00  0.00000000E+00  0.00000000E+00
  0.00000000E+00  0.00000000E+00  0.00000000E+00
  0.00000000E+00  0.00000000E+00  0.00000000E+00
  0.00000000E+00  0.00000000E+00  0.00000000E+00
  0.00000000E+00  0.00000000E+00  0.00000000E+00
  0.00000000E+00  0.00000000E+00  0.00000000E+00
  0.00000000E+00  0.00000000E+00  0.00000000E+00
  0.00000000E+00  0.00000000E+00  0.00000000E+00
  0.00000000E+00  0.00000000E+00  0.00000000E+00
  0.00000000E+00  0.00000000E+00  0.00000000E+00
  0.00000000E+00  0.00000000E+00  0.00000000E+00
  0.00000000E+00  0.00000000E+00  0.00000000E+00
  0.00000000E+00  0.00000000E+00  0.00000000E+00
  0.00000000E+00  0.00000000E+00  0.00000000E+00
  0.00000000E+00  0.00000000E+00  0.00000000E+00
  0.00000000E+00  0.00000000E+00  0.00000000E+00
  0.00000000E+00  0.00000000E+00  0.00000000E+00
  0.00000000E+00  0.00000000E+00  0.00000000E+00
  0.00000000E+00  0.00000000E+00  0.00000000E+00
  0.00000000E+00  0.00000000E+00  0.00000000E+00
  0.00000000E+00  0.00000000E+00  0.00000000E+00
  0.00000000E+00  0.00000000E+00  0.00000000E+00
  0.00000000E+00  0.00000000E+00  0.00000000E+00
  0.00000000E+00  0.00000000E+00  0.00000000E+00
  0.00000000E+00  0.00000000E+00  0.00000000E+00
  0.00000000E+00  0.00000000E+00  0.00000000E+00
  0.00000000E+00  0.00000000E+00  0.00000000E+00
  0.00000000E+00  0.00000000E+00  0.00000000E+00
  0.00000000E+00  0.00000000E+00  0.00000000E+00
  0.00000000E+00  0.00000000E+00  0.00000000E+00
  0.00000000E+00  0.00000000E+00  0.00000000E+00
  0.00000000E+00  0.00000000E+00  0.00000000E+00
  0.00000000E+00  0.00000000E+00  0.00000000E+00
  0.00000000E+00  0.00000000E+00  0.00000000E+00
  0.00000000E+00  0.00000000E+00  0.00000000E+00
  0.00000000E+00  0.00000000E+00  0.00000000E+00
  0.00000000E+00  0.00000000E+00  0.00000000E+00
  0.00000000E+00  0.00000000E+00  0.00000000E+00
  0.00000000E+00  0.00000000E+00  0.00000000E+00
  0.00000000E+00  0.00000000E+00  0.00000000E+00
  0.00000000E+00  0.00000000E+00  0.00000000E+00
  0.00000000E+00  0.00000000E+00  0.00000000E+00
  0.00000000E+00  0.00000000E+00  0.00000000E+00
  0.00000000E+00  0.00000000E+00  0.00000000E+00
  0.00000000E+00  0.00000000E+00  0.00000000E+00
  0.00000000E+00  0.00000000E+00  0.00000000E+00
  0.00000000E+00  0.00000000E+00  0.00000000E+00
  0.00000000E+00  0.00000000E+00  0.00000000E+00
  0.00000000E+00  0.00000000E+00  0.00000000E+00
  0.00000000E+00  0.00000000E+00  0.00000000E+00
  0.00000000E+00  0.00000000E+00  0.00000000E+00
  0.00000000E+00  0.00000000E+00  0.00000000E+00
  0.00000000E+00  0.00000000E+00  0.00000000E+00
  0.00000000E+00  0.00000000E+00  0.00000000E+00
  0.00000000E+00  0.00000000E+00  0.00000000E+00
  0.00000000E+00  0.00000000E+00  0.00000000E+00
  0.00000000E+00  0.00000000E+00  0.00000000E+00
  0.00000000E+00  0.00000000E+00  0.00000000E+00
  0.00000000E+00  0.00000000E+00  0.00000000E+00
  0.00000000E+00  0.00000000E+00  0.00000000E+00
  0.00000000E+00  0.00000000E+00  0.00000000E+00
  0.00000000E+00  0.00000000E+00  0.00000000E+00
  0.00000000E+00  0.00000000E+00  0.00000000E+00
  0.00000000E+00  0.00000000E+00  0.00000000E+00
  0.00000000E+00  0.00000000E+00  0.00000000E+00
  0.00000000E+00  0.00000000E+00  0.00000000E+00
  0.00000000E+00  0.00000000E+00  0.00000000E+00
  0.00000000E+00  0.00000000E+00  0.00000000E+00
  0.00000000E+00  0.00000000E+00  0.00000000E+00
