I Ge Tl                                 
   1.00000000000000     
    11.7821990000000003  -11.7821990000000003    0.0000000000000000
    11.7821990000000003   11.7821990000000003    0.0000000000000000
     0.0000000000000000    0.0000000000000000   23.5643969999999996
   Ge   I    Tl
    32    96    32
Direct
  0.0130098935819721  0.0087367037952430  0.0127070122740186
  0.0116848660997398  0.0083985426307610  0.2575843164568384
  0.0113761158614982  0.9943050941397183  0.5100099035165987
  0.0081073600689519  0.9909767752034669  0.7557881782579315
  0.4971784290062286  0.0077951949032478  0.0100447534541818
  0.5230646638559038  0.0087998834117455  0.2532650978435647
  0.4953935612032547  0.9869020282763981  0.5040796006210317
  0.4825561298736610  0.0100069324661245  0.7553732272170089
  0.2470802317252286  0.2531251963527690  0.0009564587914871
  0.2647943543725174  0.2434366645007638  0.2639646348101791
  0.2667510934165776  0.2714433644100938  0.5051525312924373
  0.2364668134721077  0.2569357564012913  0.7601333136165552
  0.9964077494766412  0.5101305745351821  0.0066229618288813
  0.0185172669637459  0.5117648305476690  0.2514370002236965
  0.9953538797397683  0.4878063244735784  0.5022948575304661
  0.9843084323572697  0.5114395634836449  0.7549543073102033
  0.7514387959034540  0.2605426383264496  0.9975546845058348
  0.7687271935639267  0.2432092738027528  0.2522691631684525
  0.7540146367278839  0.2522192945689242  0.5144074452971935
  0.7576216662943600  0.2212587340533471  0.7537673879157182
  0.5150460363092880  0.4990815677712341  0.0096414585564374
  0.5138865402374535  0.5123131731557338  0.2540560948403114
  0.5118028194925377  0.4932001797393757  0.5089358749402333
  0.5084257158115872  0.4899257260084414  0.7552616883269014
  0.2478742185034349  0.7589699218653221  0.9950637182419159
  0.2612166047435772  0.7437521153041878  0.2537991678923773
  0.2543820472265902  0.7544099033866851  0.5126498531641370
  0.2585224296760971  0.7242998713443488  0.7519770125608387
  0.7462450357403545  0.7557952991745774  0.0069316751331998
  0.7608672311704375  0.7443852677094456  0.2637315282641889
  0.7669814603268266  0.7708317667424371  0.5040005664057782
  0.7342539110842594  0.7583916045629300  0.7611899018488214
  0.1664637791959174  0.0723992988536012  0.0221560688978842
  0.1037770159669584  0.1389147470188652  0.2214038517159417
  0.1452615009080704  0.0997416384486356  0.5314625379222182
  0.1397980720772305  0.0889052169809429  0.7271472461183376
  0.6474058876226145  0.0840689912655071  0.0268723171047962
  0.5908070332715697  0.1596074584659441  0.2314687587304970
  0.6532722604605077  0.1165598926056770  0.5265758499093035
  0.6567829467252270  0.0974953335020380  0.7194572292574239
  0.3467768541212085  0.3876393038091784  0.9739062076068048
  0.3974572339707584  0.3455357695393902  0.2847710294610081
  0.3358550139101320  0.4195411982675453  0.4781963312265468
  0.3337330391350658  0.3934761897058440  0.7792004486906088
  0.1454468044279233  0.5876578161089295  0.0267538675753304
  0.0858459545094811  0.6632784719329833  0.2304699320498709
  0.1539768302043861  0.6176473253055127  0.5226086295140427
  0.1576059773354506  0.5996712886358947  0.7184804935463364
  0.8489968886403837  0.3865871883168472  0.9607554864017938
  0.9108270399966458  0.3357522549916759  0.2576716755828839
  0.8489774711003755  0.4185800485178369  0.4709962563462592
  0.8458522124286225  0.4177319899620466  0.7692270384638052
  0.6633850111470726  0.5737994448611271  0.0205739748921117
  0.5999340225544583  0.6458266324938594  0.2150830772828869
  0.6458399221503240  0.5978100025421513  0.5303282594973595
  0.6405510227433167  0.5883071254801984  0.7275535282162622
  0.3494218903396540  0.8846568332809467  0.9621906826567048
  0.3993110933578856  0.8433896399544702  0.2636218277651720
  0.3492587305597316  0.9187939831923464  0.4706068529019283
  0.3436333007486669  0.9172621056781977  0.7691633545975406
  0.8419309976353839  0.8911998012628471  0.9760174001920555
  0.8948090367162802  0.8443544309351479  0.2886285046108039
  0.8357646779880166  0.9194235012532639  0.4787116472161367
  0.8306559733285704  0.8962679705373808  0.7791100982444664
  0.9241631793656886  0.1499554600195928  0.0314550339547738
  0.8466803474496798  0.1003020119400089  0.2230715552125873
  0.8989595583686485  0.1654431493832423  0.5299683585202436
  0.8995864192201671  0.1487551082901214  0.7176657053654867
  0.4098098573716259  0.1529703445702548  0.0026332734111622
  0.3465953326660420  0.0992989659760706  0.2818438612410800
  0.4078587884404659  0.1772772725299754  0.5040670367879234
  0.4002028456766231  0.1539587763098039  0.7265899480748562
  0.0992693227877260  0.3408745140617256  0.9870892833001632
  0.1535137045174224  0.4183779019499273  0.2224279037496954
  0.0840875949861284  0.3464498711779957  0.4966910294012898
  0.0889992143107676  0.3391351056191646  0.7757438630997285
  0.9078487362844947  0.6524802854129420  0.9970438949619139
  0.8424998016514111  0.5978212341810621  0.2788438676798572
  0.9088444971592556  0.6774362277509708  0.5012873715822060
  0.9015199357189332  0.6556678997895684  0.7285720226017108
  0.6045729721757722  0.3318959164248132  0.9669040160353111
  0.6495308813444043  0.4126397854097895  0.2729985923916807
  0.6024521369967833  0.3654080527450613  0.4675384348975291
  0.5968953941772583  0.3486474723211427  0.7770161748963185
  0.4103176941161905  0.6340877053657875  0.0234600807043171
  0.3462059293637165  0.6053870157697625  0.2197614145143312
  0.3994610172426625  0.6670052294963699  0.5280547245895364
  0.3997222546018277  0.6490495495545024  0.7173558704890813
  0.1026501944459313  0.8339861268368572  0.9681589220072225
  0.1483144615735698  0.9084288500886926  0.2774528769445929
  0.1032326362887560  0.8674746564311280  0.4675228556445582
  0.0969583462507773  0.8495470944732549  0.7779771270519202
  0.5939486314441543  0.8346046707781802  0.0028548652934663
  0.6554421128121040  0.9126414497457169  0.2257165296303720
  0.5849643197887863  0.8464300768433510  0.4968964440453092
  0.5859027062469782  0.8388325463681106  0.7751320504478676
  0.0002969315282209  0.9472249788812791  0.1249391384104589
  0.9925523734569760  0.0587820589714248  0.3727636065754458
  0.9915896083395696  0.9357949183489641  0.6212761217257394
  0.0017015805162943  0.0370358078386132  0.8721762225282830
  0.4540900641553462  0.9843799442122850  0.1234939037652666
  0.5562279033446837  0.0136360181084656  0.3710941928601001
  0.4834307018872224  0.9608370690688103  0.6219659779758032
  0.5066470729131797  0.0501162076356139  0.8692550472668034
  0.2590921668983325  0.2682245883927252  0.1190473396720557
  0.1984410291749342  0.2535114997392799  0.3710178470331417
  0.2549699192957958  0.3012977350687136  0.6230760622639719
  0.2460431607452987  0.1943512452607522  0.8705364957859389
  0.9528013462116633  0.4874535057623215  0.1204693684594288
  0.0540756095726669  0.5119070211619021  0.3687509849591861
  0.9851718512235037  0.4666186521891789  0.6209162431514544
  0.0115838620983527  0.5525534703213438  0.8681293333139135
  0.7422860771944030  0.3035353245151780  0.1134495416392511
  0.7533046017148858  0.2096208544134730  0.3691659644138648
  0.7361701014803046  0.3096177638109040  0.6248104780766393
  0.7688575659240401  0.1708244512862758  0.8688269270618049
  0.4992890149188620  0.4446675280975393  0.1232025764988219
  0.4924236551096788  0.5576093876402439  0.3701269463295681
  0.4913561082842602  0.4367120436550496  0.6205312401234051
  0.5019329178938485  0.5364723154868298  0.8713274976630170
  0.2448389920251538  0.7998298953151015  0.1138431207545902
  0.2515883386573139  0.7037342664480644  0.3695735314227985
  0.2349970535892917  0.8092422509300214  0.6236239954287138
  0.2694365567259968  0.6762463737440852  0.8681070710767912
  0.7841178993666352  0.7639875322869317  0.1226941411579549
  0.6937900365146751  0.7475446502291441  0.3714247550774248
  0.7562603093206625  0.7959012582495069  0.6225434158447168
  0.7411938185660104  0.6997613302985857  0.8722283676899171
  0.0332892244234914  0.2896330296226388  0.1305741630210155
  0.9593465120214629  0.2650449922719690  0.3928347591864615
  0.0471073115616674  0.2517000940525682  0.6280613311322585
  0.9681586763350065  0.2426340229370922  0.8873058456134977
  0.5423190278147062  0.2410225289964449  0.0980264096734763
  0.5220984857052730  0.2209882551608436  0.3700709581156889
  0.5393601271381233  0.2262998171439155  0.6241640258150587
  0.4494647873214323  0.2556060692571854  0.8672338442309180
  0.2885237403832748  0.4770319220151590  0.1054746313616210
  0.2676132459647397  0.4896375134908961  0.3431697725683049
  0.2946257877457210  0.5172830419236535  0.6144080491335112
  0.2025932740770052  0.4722715417730908  0.8805630465547807
  0.0318296592737970  0.7421958636601826  0.0962465097997662
  0.0245667692369078  0.7217486069938605  0.3713362870726751
  0.0386400909665596  0.7233829547077161  0.6220046379640027
  0.9473208065023083  0.7581982124648774  0.8658239069455002
  0.7413998421326213  0.5110089192398193  0.1555805913192437
  0.7039179222685827  0.5343976132831695  0.3902287222590682
  0.7838272337756460  0.5141978797173014  0.6349114484090709
  0.7051632376265066  0.4860523189390020  0.8705340285509617
  0.4660846397892461  0.7698491802246151  0.1319388039296762
  0.4610764855632283  0.7624604849548253  0.3937109323557078
  0.5479011057497968  0.7485427944133461  0.6270832267645889
  0.4706345061080980  0.7422036283320730  0.8909880562992278
  0.2420282230332724  0.0045161578933044  0.1594585419542814
  0.2035681541611252  0.0369792962962099  0.3914721175410978
  0.2831885278061485  0.0135501254019049  0.6348553984277365
  0.2041028558615824  0.9825977696626964  0.8727634834413746
  0.7853245461327194  0.9724454868707926  0.1106402503309194
  0.7673827536276722  0.9932708108343471  0.3433355374079513
  0.7947074376321098  0.0128856402699487  0.6161235217874136
  0.6986652696022971  0.9705464914562856  0.8815168761962699
 
  0.00000000E+00  0.00000000E+00  0.00000000E+00
  0.00000000E+00  0.00000000E+00  0.00000000E+00
  0.00000000E+00  0.00000000E+00  0.00000000E+00
  0.00000000E+00  0.00000000E+00  0.00000000E+00
  0.00000000E+00  0.00000000E+00  0.00000000E+00
  0.00000000E+00  0.00000000E+00  0.00000000E+00
  0.00000000E+00  0.00000000E+00  0.00000000E+00
  0.00000000E+00  0.00000000E+00  0.00000000E+00
  0.00000000E+00  0.00000000E+00  0.00000000E+00
  0.00000000E+00  0.00000000E+00  0.00000000E+00
  0.00000000E+00  0.00000000E+00  0.00000000E+00
  0.00000000E+00  0.00000000E+00  0.00000000E+00
  0.00000000E+00  0.00000000E+00  0.00000000E+00
  0.00000000E+00  0.00000000E+00  0.00000000E+00
  0.00000000E+00  0.00000000E+00  0.00000000E+00
  0.00000000E+00  0.00000000E+00  0.00000000E+00
  0.00000000E+00  0.00000000E+00  0.00000000E+00
  0.00000000E+00  0.00000000E+00  0.00000000E+00
  0.00000000E+00  0.00000000E+00  0.00000000E+00
  0.00000000E+00  0.00000000E+00  0.00000000E+00
  0.00000000E+00  0.00000000E+00  0.00000000E+00
  0.00000000E+00  0.00000000E+00  0.00000000E+00
  0.00000000E+00  0.00000000E+00  0.00000000E+00
  0.00000000E+00  0.00000000E+00  0.00000000E+00
  0.00000000E+00  0.00000000E+00  0.00000000E+00
  0.00000000E+00  0.00000000E+00  0.00000000E+00
  0.00000000E+00  0.00000000E+00  0.00000000E+00
  0.00000000E+00  0.00000000E+00  0.00000000E+00
  0.00000000E+00  0.00000000E+00  0.00000000E+00
  0.00000000E+00  0.00000000E+00  0.00000000E+00
  0.00000000E+00  0.00000000E+00  0.00000000E+00
  0.00000000E+00  0.00000000E+00  0.00000000E+00
  0.00000000E+00  0.00000000E+00  0.00000000E+00
  0.00000000E+00  0.00000000E+00  0.00000000E+00
  0.00000000E+00  0.00000000E+00  0.00000000E+00
  0.00000000E+00  0.00000000E+00  0.00000000E+00
  0.00000000E+00  0.00000000E+00  0.00000000E+00
  0.00000000E+00  0.00000000E+00  0.00000000E+00
  0.00000000E+00  0.00000000E+00  0.00000000E+00
  0.00000000E+00  0.00000000E+00  0.00000000E+00
  0.00000000E+00  0.00000000E+00  0.00000000E+00
  0.00000000E+00  0.00000000E+00  0.00000000E+00
  0.00000000E+00  0.00000000E+00  0.00000000E+00
  0.00000000E+00  0.00000000E+00  0.00000000E+00
  0.00000000E+00  0.00000000E+00  0.00000000E+00
  0.00000000E+00  0.00000000E+00  0.00000000E+00
  0.00000000E+00  0.00000000E+00  0.00000000E+00
  0.00000000E+00  0.00000000E+00  0.00000000E+00
  0.00000000E+00  0.00000000E+00  0.00000000E+00
  0.00000000E+00  0.00000000E+00  0.00000000E+00
  0.00000000E+00  0.00000000E+00  0.00000000E+00
  0.00000000E+00  0.00000000E+00  0.00000000E+00
  0.00000000E+00  0.00000000E+00  0.00000000E+00
  0.00000000E+00  0.00000000E+00  0.00000000E+00
  0.00000000E+00  0.00000000E+00  0.00000000E+00
  0.00000000E+00  0.00000000E+00  0.00000000E+00
  0.00000000E+00  0.00000000E+00  0.00000000E+00
  0.00000000E+00  0.00000000E+00  0.00000000E+00
  0.00000000E+00  0.00000000E+00  0.00000000E+00
  0.00000000E+00  0.00000000E+00  0.00000000E+00
  0.00000000E+00  0.00000000E+00  0.00000000E+00
  0.00000000E+00  0.00000000E+00  0.00000000E+00
  0.00000000E+00  0.00000000E+00  0.00000000E+00
  0.00000000E+00  0.00000000E+00  0.00000000E+00
  0.00000000E+00  0.00000000E+00  0.00000000E+00
  0.00000000E+00  0.00000000E+00  0.00000000E+00
  0.00000000E+00  0.00000000E+00  0.00000000E+00
  0.00000000E+00  0.00000000E+00  0.00000000E+00
  0.00000000E+00  0.00000000E+00  0.00000000E+00
  0.00000000E+00  0.00000000E+00  0.00000000E+00
  0.00000000E+00  0.00000000E+00  0.00000000E+00
  0.00000000E+00  0.00000000E+00  0.00000000E+00
  0.00000000E+00  0.00000000E+00  0.00000000E+00
  0.00000000E+00  0.00000000E+00  0.00000000E+00
  0.00000000E+00  0.00000000E+00  0.00000000E+00
  0.00000000E+00  0.00000000E+00  0.00000000E+00
  0.00000000E+00  0.00000000E+00  0.00000000E+00
  0.00000000E+00  0.00000000E+00  0.00000000E+00
  0.00000000E+00  0.00000000E+00  0.00000000E+00
  0.00000000E+00  0.00000000E+00  0.00000000E+00
  0.00000000E+00  0.00000000E+00  0.00000000E+00
  0.00000000E+00  0.00000000E+00  0.00000000E+00
  0.00000000E+00  0.00000000E+00  0.00000000E+00
  0.00000000E+00  0.00000000E+00  0.00000000E+00
  0.00000000E+00  0.00000000E+00  0.00000000E+00
  0.00000000E+00  0.00000000E+00  0.00000000E+00
  0.00000000E+00  0.00000000E+00  0.00000000E+00
  0.00000000E+00  0.00000000E+00  0.00000000E+00
  0.00000000E+00  0.00000000E+00  0.00000000E+00
  0.00000000E+00  0.00000000E+00  0.00000000E+00
  0.00000000E+00  0.00000000E+00  0.00000000E+00
  0.00000000E+00  0.00000000E+00  0.00000000E+00
  0.00000000E+00  0.00000000E+00  0.00000000E+00
  0.00000000E+00  0.00000000E+00  0.00000000E+00
  0.00000000E+00  0.00000000E+00  0.00000000E+00
  0.00000000E+00  0.00000000E+00  0.00000000E+00
  0.00000000E+00  0.00000000E+00  0.00000000E+00
  0.00000000E+00  0.00000000E+00  0.00000000E+00
  0.00000000E+00  0.00000000E+00  0.00000000E+00
  0.00000000E+00  0.00000000E+00  0.00000000E+00
  0.00000000E+00  0.00000000E+00  0.00000000E+00
  0.00000000E+00  0.00000000E+00  0.00000000E+00
  0.00000000E+00  0.00000000E+00  0.00000000E+00
  0.00000000E+00  0.00000000E+00  0.00000000E+00
  0.00000000E+00  0.00000000E+00  0.00000000E+00
  0.00000000E+00  0.00000000E+00  0.00000000E+00
  0.00000000E+00  0.00000000E+00  0.00000000E+00
  0.00000000E+00  0.00000000E+00  0.00000000E+00
  0.00000000E+00  0.00000000E+00  0.00000000E+00
  0.00000000E+00  0.00000000E+00  0.00000000E+00
  0.00000000E+00  0.00000000E+00  0.00000000E+00
  0.00000000E+00  0.00000000E+00  0.00000000E+00
  0.00000000E+00  0.00000000E+00  0.00000000E+00
  0.00000000E+00  0.00000000E+00  0.00000000E+00
  0.00000000E+00  0.00000000E+00  0.00000000E+00
  0.00000000E+00  0.00000000E+00  0.00000000E+00
  0.00000000E+00  0.00000000E+00  0.00000000E+00
  0.00000000E+00  0.00000000E+00  0.00000000E+00
  0.00000000E+00  0.00000000E+00  0.00000000E+00
  0.00000000E+00  0.00000000E+00  0.00000000E+00
  0.00000000E+00  0.00000000E+00  0.00000000E+00
  0.00000000E+00  0.00000000E+00  0.00000000E+00
  0.00000000E+00  0.00000000E+00  0.00000000E+00
  0.00000000E+00  0.00000000E+00  0.00000000E+00
  0.00000000E+00  0.00000000E+00  0.00000000E+00
  0.00000000E+00  0.00000000E+00  0.00000000E+00
  0.00000000E+00  0.00000000E+00  0.00000000E+00
  0.00000000E+00  0.00000000E+00  0.00000000E+00
  0.00000000E+00  0.00000000E+00  0.00000000E+00
  0.00000000E+00  0.00000000E+00  0.00000000E+00
  0.00000000E+00  0.00000000E+00  0.00000000E+00
  0.00000000E+00  0.00000000E+00  0.00000000E+00
  0.00000000E+00  0.00000000E+00  0.00000000E+00
  0.00000000E+00  0.00000000E+00  0.00000000E+00
  0.00000000E+00  0.00000000E+00  0.00000000E+00
  0.00000000E+00  0.00000000E+00  0.00000000E+00
  0.00000000E+00  0.00000000E+00  0.00000000E+00
  0.00000000E+00  0.00000000E+00  0.00000000E+00
  0.00000000E+00  0.00000000E+00  0.00000000E+00
  0.00000000E+00  0.00000000E+00  0.00000000E+00
  0.00000000E+00  0.00000000E+00  0.00000000E+00
  0.00000000E+00  0.00000000E+00  0.00000000E+00
  0.00000000E+00  0.00000000E+00  0.00000000E+00
  0.00000000E+00  0.00000000E+00  0.00000000E+00
  0.00000000E+00  0.00000000E+00  0.00000000E+00
  0.00000000E+00  0.00000000E+00  0.00000000E+00
  0.00000000E+00  0.00000000E+00  0.00000000E+00
  0.00000000E+00  0.00000000E+00  0.00000000E+00
  0.00000000E+00  0.00000000E+00  0.00000000E+00
  0.00000000E+00  0.00000000E+00  0.00000000E+00
  0.00000000E+00  0.00000000E+00  0.00000000E+00
  0.00000000E+00  0.00000000E+00  0.00000000E+00
  0.00000000E+00  0.00000000E+00  0.00000000E+00
  0.00000000E+00  0.00000000E+00  0.00000000E+00
  0.00000000E+00  0.00000000E+00  0.00000000E+00
  0.00000000E+00  0.00000000E+00  0.00000000E+00
  0.00000000E+00  0.00000000E+00  0.00000000E+00
  0.00000000E+00  0.00000000E+00  0.00000000E+00
  0.00000000E+00  0.00000000E+00  0.00000000E+00
  0.00000000E+00  0.00000000E+00  0.00000000E+00
