F In Cd                                 
   1.00000000000000     
     8.9635789999999993   -8.9635789999999993    0.0000000000000000
     8.9635789999999993    8.9635789999999993    0.0000000000000000
     0.0000000000000000    0.0000000000000000   17.9271570000000011
   Cd   F    In
    32    96    32
Direct
  0.9965903676034813  0.2472447028897581  0.1281717492216726
  0.9993185109275805  0.2436229780342971  0.3754764703642514
  0.0033639187356679  0.2442519547821011  0.6250720889921370
  0.0026322644367597  0.2470983501101120  0.8767010253801125
  0.4965283765256133  0.2545997852062521  0.1246819165219681
  0.4984534406563629  0.2476249770009234  0.3756573291985667
  0.5007510994001280  0.2495835300442744  0.6259766299496090
  0.5011397497955603  0.2506399459626887  0.8756205380569813
  0.2497175771711816  0.4969725638957463  0.1284488201191068
  0.2532246582432746  0.4962022396645220  0.3787918876347000
  0.2546821365952070  0.4953757443966705  0.6265582079367921
  0.2500852993448894  0.4996592312131717  0.8747132200330285
  0.0014663033551587  0.7477358301486130  0.1272015969256056
  0.0032050886332965  0.7465060720402453  0.3742990732314321
  0.0023532664018847  0.7481478228326108  0.6275319933865949
  0.9993517487933110  0.7453174838139174  0.8762543635110569
  0.7522254131378269  0.4961321710087664  0.1269531987147971
  0.7511002700999215  0.4998876435459311  0.3748953185746855
  0.7533649487427901  0.4969917341670168  0.6243985699904629
  0.7559180693784061  0.4936988341280362  0.8753065662113815
  0.5013339858868352  0.7485734491116951  0.1244052943941688
  0.5029336770943077  0.7514795274246012  0.3798125603967940
  0.5014924474763188  0.7528552220650937  0.6276680484076451
  0.4979741099102026  0.7566642766918349  0.8750732467122182
  0.2518581779648591  0.9975392612400069  0.1252118199314805
  0.2530645983018055  0.9944900424305957  0.3764971846456986
  0.2531721979281784  0.9985500043726725  0.6274091767910864
  0.2539938272015067  0.0023279066229101  0.8763943409001013
  0.7515199334659274  0.9989729221014005  0.1261213875076906
  0.7508111698307472 -0.0000061307442976  0.3744214374604822
  0.7533323490400479  0.0015867036123443  0.6261416859329585
  0.7518433018106240  0.9975838642607283  0.8763864511035796
  0.0240039974692747  0.2295734943832803  0.0017133379502065
  0.9920606156563003  0.2741618019640911  0.2501149866665380
  0.0089751261966014  0.2831071731125561  0.5012757835467608
  0.0059803404283045  0.2822133422302031  0.7516931618573580
  0.4920902854620683  0.2118443374961014 -0.0000756162621689
  0.5393431525267514  0.2441129640566573  0.2502866647478273
  0.4657801650517959  0.2159570084583322  0.5010636875678990
  0.5331770148328421  0.2152590096565128  0.7496159909737670
  0.2419008743749004  0.5247882590330303  0.0002340589651036
  0.2731498782905889  0.5185226328796958  0.2505255820607096
  0.2187510525309856  0.4863865674312858  0.5015894812727606
  0.2254598149009784  0.4741348332334842  0.7510277614639280
  0.9946886738918066  0.7784952058432699  0.0000708452737486
  0.0271157430783476  0.7851980744984528  0.2501320951549176
  0.9727832357730636  0.7762601553947539  0.4982164537245997
  0.0397605739783294  0.7750402119254483  0.7503357429443918
  0.7324893940190544  0.5346750499894202  0.9997923956754240
  0.7540333424031845  0.4624484980005911  0.2486953674040522
  0.7260035438052405  0.5116729385647604  0.4986123589019786
  0.7230334249357722  0.5001526133043399  0.7509411313403326
  0.5251979522475033  0.7267891785736411  0.9984089521225453
  0.4726225723418542  0.7259129637049505  0.2500219085742325
  0.5209584696359687  0.7240457999316540  0.5015389144810554
  0.5017603568924410  0.7170497911371515  0.7500902078481543
  0.2218010770436221  0.0113186106091834  0.0001665571014915
  0.2216692906167804  0.0171357055274992  0.2522386100553464
  0.2738240561441662  0.0316279123319720  0.5008699850492705
  0.2202157319863014  0.9598866135900266  0.7487615850370437
  0.7201608691537793  0.9989220205577363  0.0007212243476875
  0.7221787136490979  0.0298604647171843  0.2511950514900166
  0.7657100954016319  0.9640915473792733  0.4991033943969393
  0.7233340625208489  0.0361850668259514  0.7490830023898436
  0.1492307769962593  0.1522294264065911  0.1266501023335311
  0.1326882384710198  0.1320832863765990  0.3935242570240976
  0.1451606485763208  0.1414790226719250  0.6126585565901415
  0.1210209178774170  0.1189836879542679  0.8538904087441586
  0.5992860237835693  0.1025449683736595  0.1175736893721082
  0.6225248984319648  0.1192080824225916  0.4102843582054167
  0.6233632370694310  0.1183244269713959  0.5937214062370418
  0.6017813953025661  0.0982543698570680  0.8837603754081129
  0.3553509724010617  0.3559228063280794  0.1192908956364196
  0.3963987687278416  0.3894869798465355  0.3638809231030166
  0.3582911866862453  0.3526104209803667  0.6452184967135312
  0.3626872141159602  0.3588945071700033  0.8562050093181516
  0.1404146784806742  0.6419316191022038  0.1142128957165017
  0.1060050038390223  0.6042966994844922  0.3716793648453063
  0.1484709588563609  0.6466285066449498  0.6159834697910513
  0.1466952170099574  0.6490901673043218  0.8716507860989068
  0.8774903852107313  0.3758469010527559  0.0889870217580370
  0.9003055644186289  0.4005137204371286  0.3737058548833405
  0.8815239582797411  0.3794218156312482  0.6403817878463183
  0.8832260770217240  0.3793177729481911  0.9032240788103341
  0.6410860378878578  0.6360837748579362  0.1248261500998909
  0.6210677839089409  0.6168504739526518  0.3503390716046631
  0.6067158919913080  0.6032146468214983  0.6261630309514050
  0.6093397322326257  0.6060639068000298  0.8698799952703737
  0.3654402359088487  0.8660377071862088  0.1443371744582183
  0.3664179873551608  0.8615938020771117  0.3605605982760454
  0.3520987921229892  0.8478682811528444  0.6165497225271215
  0.3550686201970406  0.8578417368507119  0.8635174164794983
  0.8809315002178342  0.8848357780219022  0.1490353638213389
  0.8811656448080295  0.8829090291195156  0.3470396298133426
  0.8655909895646462  0.8633759969992700  0.6277758500231712
  0.8730837490686701  0.8739721628727835  0.8460306035577106
  0.8505519867512840  0.1468488001052412  0.1143675707124307
  0.8516571016748691  0.1485732794888481  0.3885129106501403
  0.8658673515063291  0.1372522859698289  0.6438681437560871
  0.8647754137923257  0.1338575971592669  0.8586015789588249
  0.3759441661601998  0.1215381409341104  0.1539969479765680
  0.3665763131116646  0.1321928325091834  0.3547585981156970
  0.3977318218699119  0.1002091812941573  0.6440381836193396
  0.3807360955677316  0.1165713528221034  0.8464298168077476
  0.1170136705471726  0.3819371436417046  0.0978537402356923
  0.1202862940828941  0.3799690774570936  0.3607080342430289
  0.0982719064739073  0.4037390945399343  0.6275738054098207
  0.1184732105464911  0.3828884463642104  0.9009034574743759
  0.8691016778442999  0.6329080064793152  0.1150496338792512
  0.8607226944306392  0.6412380946531054  0.3542368928382683
  0.8894148780520312  0.6130225854883466  0.6339530278230199
  0.8561938341017563  0.6433479132360761  0.8639895908705026
  0.6495635472746059  0.3472643094223806  0.1136041067809150
  0.6546459609144878  0.3427035388385059  0.3825961723161206
  0.6173604060645629  0.3768314907966027  0.6065874642180187
  0.6185184057918923  0.3786708611311119  0.8902496953736068
  0.3691297334037132  0.6309693021355902  0.1080927111697582
  0.3845507080859331  0.6155084686907293  0.3694273145857653
  0.3759632862010734  0.6192745570592090  0.6036594864991814
  0.3888384475384377  0.6106281612129072  0.8883270194365301
  0.1020675166061958  0.9014636009651724  0.1166507008154376
  0.1141550094498521  0.8859175972014997  0.3994118131581035
  0.1210613372104606  0.8820111477920416  0.5940184270240861
  0.1009581520671330  0.8984102401246796  0.8795693610091938
  0.6147106375827487  0.8821944304110665  0.1436249854792818
  0.6438730121603907  0.8552974539454509  0.3618864738233943
  0.6340032731887947  0.8671398756333454  0.6171822196809552
  0.6454703131399951  0.8525243902931433  0.8597114108392739
  0.0230287780388919  0.9746452347143788  0.0007899534825984
  0.9926687598724214  0.9701358635580042  0.2456377134477128
  0.0117738986908035  0.9680353177326565  0.4993676435127802
  0.0226278922853283  0.9869886110886774  0.7671374349395336
  0.5251583812975157  0.0232222507168652  0.0002965716354057
  0.5206202799273326  0.0050000244981531  0.2330379846041022
  0.5070009844586972  0.0259380184443350  0.5074990255266960
  0.5030595805118993  0.0256435856834007  0.7576423719176351
  0.2226100323535214  0.2512822617618254  0.0156087921840311
  0.2559872165289240  0.2119122800419433  0.2484807028025500
  0.2394649952368552  0.2221427517191823  0.4961185526085817
  0.2601577334795356  0.2730153937383596  0.7550875612739071
  0.0089729801791948  0.4811798110243682  0.9986496021964050
  0.0096630372603377  0.4790778806848970  0.2757463553470151
  0.0203164097452557  0.4804227002617752  0.5041568023825923
  0.9956053351910791  0.4761379802001964  0.7319344822229925
  0.7610164994134244  0.2551171275617961  0.0140901451979208
  0.7348302069399002  0.2626780240325187  0.2513011345247522
  0.7442884623721187  0.2443926488597294  0.4861270436084710
  0.7703394050528974  0.2249975331286070  0.7510751244104638
  0.5136711827119363  0.5214334800204705  0.9802471425836192
  0.4772616778773541  0.5148077505862202  0.2686649650653192
  0.5264347975214604  0.5177955397324819  0.5160908029301101
  0.5285314595076599  0.5216517506598076  0.7544785929745219
  0.2538929727194034  0.7144496843956409  0.0132518288204466
  0.2814470430131592  0.7543673536903629  0.2546969742952191
  0.2586974770773569  0.7379641415787652  0.5245936409437265
  0.2434507318945107  0.7535969937914282  0.7650515196478155
  0.7469342726733337  0.7241906777053835  0.0238037486157215
  0.7456013634343815  0.7455271766035004  0.2700306634040401
  0.7569265019727657  0.7725262756241293  0.5228170188511855
  0.7559576196166411  0.7528736432695476  0.7711496008808221
 
  0.00000000E+00  0.00000000E+00  0.00000000E+00
  0.00000000E+00  0.00000000E+00  0.00000000E+00
  0.00000000E+00  0.00000000E+00  0.00000000E+00
  0.00000000E+00  0.00000000E+00  0.00000000E+00
  0.00000000E+00  0.00000000E+00  0.00000000E+00
  0.00000000E+00  0.00000000E+00  0.00000000E+00
  0.00000000E+00  0.00000000E+00  0.00000000E+00
  0.00000000E+00  0.00000000E+00  0.00000000E+00
  0.00000000E+00  0.00000000E+00  0.00000000E+00
  0.00000000E+00  0.00000000E+00  0.00000000E+00
  0.00000000E+00  0.00000000E+00  0.00000000E+00
  0.00000000E+00  0.00000000E+00  0.00000000E+00
  0.00000000E+00  0.00000000E+00  0.00000000E+00
  0.00000000E+00  0.00000000E+00  0.00000000E+00
  0.00000000E+00  0.00000000E+00  0.00000000E+00
  0.00000000E+00  0.00000000E+00  0.00000000E+00
  0.00000000E+00  0.00000000E+00  0.00000000E+00
  0.00000000E+00  0.00000000E+00  0.00000000E+00
  0.00000000E+00  0.00000000E+00  0.00000000E+00
  0.00000000E+00  0.00000000E+00  0.00000000E+00
  0.00000000E+00  0.00000000E+00  0.00000000E+00
  0.00000000E+00  0.00000000E+00  0.00000000E+00
  0.00000000E+00  0.00000000E+00  0.00000000E+00
  0.00000000E+00  0.00000000E+00  0.00000000E+00
  0.00000000E+00  0.00000000E+00  0.00000000E+00
  0.00000000E+00  0.00000000E+00  0.00000000E+00
  0.00000000E+00  0.00000000E+00  0.00000000E+00
  0.00000000E+00  0.00000000E+00  0.00000000E+00
  0.00000000E+00  0.00000000E+00  0.00000000E+00
  0.00000000E+00  0.00000000E+00  0.00000000E+00
  0.00000000E+00  0.00000000E+00  0.00000000E+00
  0.00000000E+00  0.00000000E+00  0.00000000E+00
  0.00000000E+00  0.00000000E+00  0.00000000E+00
  0.00000000E+00  0.00000000E+00  0.00000000E+00
  0.00000000E+00  0.00000000E+00  0.00000000E+00
  0.00000000E+00  0.00000000E+00  0.00000000E+00
  0.00000000E+00  0.00000000E+00  0.00000000E+00
  0.00000000E+00  0.00000000E+00  0.00000000E+00
  0.00000000E+00  0.00000000E+00  0.00000000E+00
  0.00000000E+00  0.00000000E+00  0.00000000E+00
  0.00000000E+00  0.00000000E+00  0.00000000E+00
  0.00000000E+00  0.00000000E+00  0.00000000E+00
  0.00000000E+00  0.00000000E+00  0.00000000E+00
  0.00000000E+00  0.00000000E+00  0.00000000E+00
  0.00000000E+00  0.00000000E+00  0.00000000E+00
  0.00000000E+00  0.00000000E+00  0.00000000E+00
  0.00000000E+00  0.00000000E+00  0.00000000E+00
  0.00000000E+00  0.00000000E+00  0.00000000E+00
  0.00000000E+00  0.00000000E+00  0.00000000E+00
  0.00000000E+00  0.00000000E+00  0.00000000E+00
  0.00000000E+00  0.00000000E+00  0.00000000E+00
  0.00000000E+00  0.00000000E+00  0.00000000E+00
  0.00000000E+00  0.00000000E+00  0.00000000E+00
  0.00000000E+00  0.00000000E+00  0.00000000E+00
  0.00000000E+00  0.00000000E+00  0.00000000E+00
  0.00000000E+00  0.00000000E+00  0.00000000E+00
  0.00000000E+00  0.00000000E+00  0.00000000E+00
  0.00000000E+00  0.00000000E+00  0.00000000E+00
  0.00000000E+00  0.00000000E+00  0.00000000E+00
  0.00000000E+00  0.00000000E+00  0.00000000E+00
  0.00000000E+00  0.00000000E+00  0.00000000E+00
  0.00000000E+00  0.00000000E+00  0.00000000E+00
  0.00000000E+00  0.00000000E+00  0.00000000E+00
  0.00000000E+00  0.00000000E+00  0.00000000E+00
  0.00000000E+00  0.00000000E+00  0.00000000E+00
  0.00000000E+00  0.00000000E+00  0.00000000E+00
  0.00000000E+00  0.00000000E+00  0.00000000E+00
  0.00000000E+00  0.00000000E+00  0.00000000E+00
  0.00000000E+00  0.00000000E+00  0.00000000E+00
  0.00000000E+00  0.00000000E+00  0.00000000E+00
  0.00000000E+00  0.00000000E+00  0.00000000E+00
  0.00000000E+00  0.00000000E+00  0.00000000E+00
  0.00000000E+00  0.00000000E+00  0.00000000E+00
  0.00000000E+00  0.00000000E+00  0.00000000E+00
  0.00000000E+00  0.00000000E+00  0.00000000E+00
  0.00000000E+00  0.00000000E+00  0.00000000E+00
  0.00000000E+00  0.00000000E+00  0.00000000E+00
  0.00000000E+00  0.00000000E+00  0.00000000E+00
  0.00000000E+00  0.00000000E+00  0.00000000E+00
  0.00000000E+00  0.00000000E+00  0.00000000E+00
  0.00000000E+00  0.00000000E+00  0.00000000E+00
  0.00000000E+00  0.00000000E+00  0.00000000E+00
  0.00000000E+00  0.00000000E+00  0.00000000E+00
  0.00000000E+00  0.00000000E+00  0.00000000E+00
  0.00000000E+00  0.00000000E+00  0.00000000E+00
  0.00000000E+00  0.00000000E+00  0.00000000E+00
  0.00000000E+00  0.00000000E+00  0.00000000E+00
  0.00000000E+00  0.00000000E+00  0.00000000E+00
  0.00000000E+00  0.00000000E+00  0.00000000E+00
  0.00000000E+00  0.00000000E+00  0.00000000E+00
  0.00000000E+00  0.00000000E+00  0.00000000E+00
  0.00000000E+00  0.00000000E+00  0.00000000E+00
  0.00000000E+00  0.00000000E+00  0.00000000E+00
  0.00000000E+00  0.00000000E+00  0.00000000E+00
  0.00000000E+00  0.00000000E+00  0.00000000E+00
  0.00000000E+00  0.00000000E+00  0.00000000E+00
  0.00000000E+00  0.00000000E+00  0.00000000E+00
  0.00000000E+00  0.00000000E+00  0.00000000E+00
  0.00000000E+00  0.00000000E+00  0.00000000E+00
  0.00000000E+00  0.00000000E+00  0.00000000E+00
  0.00000000E+00  0.00000000E+00  0.00000000E+00
  0.00000000E+00  0.00000000E+00  0.00000000E+00
  0.00000000E+00  0.00000000E+00  0.00000000E+00
  0.00000000E+00  0.00000000E+00  0.00000000E+00
  0.00000000E+00  0.00000000E+00  0.00000000E+00
  0.00000000E+00  0.00000000E+00  0.00000000E+00
  0.00000000E+00  0.00000000E+00  0.00000000E+00
  0.00000000E+00  0.00000000E+00  0.00000000E+00
  0.00000000E+00  0.00000000E+00  0.00000000E+00
  0.00000000E+00  0.00000000E+00  0.00000000E+00
  0.00000000E+00  0.00000000E+00  0.00000000E+00
  0.00000000E+00  0.00000000E+00  0.00000000E+00
  0.00000000E+00  0.00000000E+00  0.00000000E+00
  0.00000000E+00  0.00000000E+00  0.00000000E+00
  0.00000000E+00  0.00000000E+00  0.00000000E+00
  0.00000000E+00  0.00000000E+00  0.00000000E+00
  0.00000000E+00  0.00000000E+00  0.00000000E+00
  0.00000000E+00  0.00000000E+00  0.00000000E+00
  0.00000000E+00  0.00000000E+00  0.00000000E+00
  0.00000000E+00  0.00000000E+00  0.00000000E+00
  0.00000000E+00  0.00000000E+00  0.00000000E+00
  0.00000000E+00  0.00000000E+00  0.00000000E+00
  0.00000000E+00  0.00000000E+00  0.00000000E+00
  0.00000000E+00  0.00000000E+00  0.00000000E+00
  0.00000000E+00  0.00000000E+00  0.00000000E+00
  0.00000000E+00  0.00000000E+00  0.00000000E+00
  0.00000000E+00  0.00000000E+00  0.00000000E+00
  0.00000000E+00  0.00000000E+00  0.00000000E+00
  0.00000000E+00  0.00000000E+00  0.00000000E+00
  0.00000000E+00  0.00000000E+00  0.00000000E+00
  0.00000000E+00  0.00000000E+00  0.00000000E+00
  0.00000000E+00  0.00000000E+00  0.00000000E+00
  0.00000000E+00  0.00000000E+00  0.00000000E+00
  0.00000000E+00  0.00000000E+00  0.00000000E+00
  0.00000000E+00  0.00000000E+00  0.00000000E+00
  0.00000000E+00  0.00000000E+00  0.00000000E+00
  0.00000000E+00  0.00000000E+00  0.00000000E+00
  0.00000000E+00  0.00000000E+00  0.00000000E+00
  0.00000000E+00  0.00000000E+00  0.00000000E+00
  0.00000000E+00  0.00000000E+00  0.00000000E+00
  0.00000000E+00  0.00000000E+00  0.00000000E+00
  0.00000000E+00  0.00000000E+00  0.00000000E+00
  0.00000000E+00  0.00000000E+00  0.00000000E+00
  0.00000000E+00  0.00000000E+00  0.00000000E+00
  0.00000000E+00  0.00000000E+00  0.00000000E+00
  0.00000000E+00  0.00000000E+00  0.00000000E+00
  0.00000000E+00  0.00000000E+00  0.00000000E+00
  0.00000000E+00  0.00000000E+00  0.00000000E+00
  0.00000000E+00  0.00000000E+00  0.00000000E+00
  0.00000000E+00  0.00000000E+00  0.00000000E+00
  0.00000000E+00  0.00000000E+00  0.00000000E+00
  0.00000000E+00  0.00000000E+00  0.00000000E+00
  0.00000000E+00  0.00000000E+00  0.00000000E+00
  0.00000000E+00  0.00000000E+00  0.00000000E+00
  0.00000000E+00  0.00000000E+00  0.00000000E+00
  0.00000000E+00  0.00000000E+00  0.00000000E+00
  0.00000000E+00  0.00000000E+00  0.00000000E+00
  0.00000000E+00  0.00000000E+00  0.00000000E+00
  0.00000000E+00  0.00000000E+00  0.00000000E+00
  0.00000000E+00  0.00000000E+00  0.00000000E+00
