Zn Rb Br                                
   1.00000000000000     
    10.6510420000000003  -10.6510420000000003    0.0000000000000000
    10.6510420000000003   10.6510420000000003    0.0000000000000000
     0.0000000000000000    0.0000000000000000   21.3020850000000017
   Br   Rb   Zn
    96    32    32
Direct
  0.0254725167720366  0.1946890331692563  0.0019837991475740
  0.0061600911193429  0.2183012047980371  0.2706006623022561
  0.9858605056424504  0.2366341203894505  0.5280900714073701
  0.0722296584510204  0.2464933816975210  0.7243817778416308
  0.4743423848469602  0.2294327307526459  0.0266908048959228
  0.5552330663123527  0.2373629469210776  0.2192163516979113
  0.5008196493111735  0.2531468362110198  0.5020058303311882
  0.5239273287509670  0.2884642590864414  0.7556957377874884
  0.2216541537721497  0.5599728322740642  0.0137431112000032
  0.2556960138747985  0.4494191701905548  0.2652948071143046
  0.2998142898983796  0.5115224907423304  0.4685674185747186
  0.2362535177852644  0.4835713636113639  0.7428750828669363
  0.9804413681552531  0.7679156446305393  0.9600198462670961
  0.9989069680755854  0.7624967250639614  0.2504818757667145
  0.9012603049887088  0.6887036233783704  0.4946012311089288
  0.0387303450202861  0.7521074546104327  0.7592165665200461
  0.7658518439779421  0.5322377061889714  0.0001425521867595
  0.7632830256602821  0.5001810614164894  0.2108811443401377
  0.7753371579038094  0.4853391533043279  0.4947205850420004
  0.6757871634741437  0.5036139143924077  0.7548917848530877
  0.4332796086372822  0.7740255622636927  0.0126291464033047
  0.5606381582445696  0.7868114680857813  0.2412785942995283
  0.4699030229694400  0.7779904726921230  0.5162249803945296
  0.4838983387275914  0.7232223323811016  0.7221696046217450
  0.2581491268030861  0.0006515032298204  0.0126131472138051
  0.2139824418258749  0.9668260259753598  0.2888419637248841
  0.2743482133631909  0.9621227077614498  0.4833186341796497
  0.2313147638542949  0.0396586018326983  0.7372071636826537
  0.8107022500241853  0.9862860978602290  0.9659448319550216
  0.7290627271695015  0.0236290353454751  0.2471474211273954
  0.7372803230236895  0.0049893256122541  0.5159032640242557
  0.6957203908971007  0.0634984360520507  0.7814311639411378
  0.1201661601376321  0.0475331484457377  0.1564381381183342
  0.1025495578035025  0.1091743424822357  0.4045688447593105
  0.1437648322305995  0.0935438265278080  0.5905391709639932
  0.1968951045755253  0.1617768366763704  0.8800399560373560
  0.6786750137769333  0.1108938028574934  0.0760147363103404
  0.6500396061458125  0.1730203454123569  0.3710635749249989
  0.6116770467535415  0.1425068569225705  0.6253706945979863
  0.6723854891265578  0.1648513940997719  0.9168605013831692
  0.3592189871640228  0.4007167791489580  0.1144233469836166
  0.4177387104230312  0.3372030869152259  0.3438871159148253
  0.4305743881454342  0.4202037196537373  0.6196167132945029
  0.3363045106726594  0.3916667340011105  0.9019448906361767
  0.1211506819183740  0.5709383999645634  0.1652248195969231
  0.1147709381380932  0.6076196183359395  0.3694993849566596
  0.0693586851944433  0.6134568584200264  0.6152317179104342
  0.1361237877744647  0.6066779728949870  0.8648998562509737
  0.9312770105469859  0.3939366473886782  0.1036011279628401
  0.8914802372788863  0.3384996070788767  0.3869812486358589
  0.9054967887761309  0.4005123997427764  0.6414700924196534
  0.8438066746867882  0.3864820741607957  0.8667590036238647
  0.6115332354956526  0.6439664938346786  0.1053751071653059
  0.6401636594425038  0.6758986169346675  0.4018982337919021
  0.5943437245411584  0.6051035591455830  0.5822096725498117
  0.6126546585385776  0.6323095635287844  0.9016086056867024
  0.3620641430894309  0.8787142915649471  0.1625934345410209
  0.3773946155206003  0.8091502658195688  0.3650927944730409
  0.3747888897445673  0.9103510413322742  0.6386259481520803
  0.3402124481619357  0.9090388883413522  0.8633860774667705
  0.8508293878144259  0.8886191269295860  0.1210627115443627
  0.8107847001751421  0.8455763556577118  0.3586460529972020
  0.8875229419204522  0.8544075837754924  0.6262080063185360
  0.8522274531909075  0.8901081381295749  0.8057074379909840
  0.8941454060326639  0.1414504653617080  0.1316736908722546
  0.8610233612867496  0.0876280464049231  0.3833626028041808
  0.8574188371746337  0.1070685809412209  0.6466711640496318
  0.9210595237444821  0.1506441786204736  0.8315091518474745
  0.3588471279303439  0.1344039800028508  0.1572351572527766
  0.3968186275304458  0.0988044758532830  0.3669195841606532
  0.3687009877331028  0.1687177578785105  0.6316649924345281
  0.4234918337634517  0.1549741277110362  0.8736478051086294
  0.1408109016696683  0.3106433999660277  0.1422051803046898
  0.1442916280722132  0.3495611472094183  0.4013419934809876
  0.1710667072288166  0.3814929035123236  0.5805968434425832
  0.0797160198957348  0.3753253241234601  0.8829981341432082
  0.9019089069925460  0.6544783300344366  0.0992369639688957
  0.8763544548942510  0.6022093530990784  0.3426607646532774
  0.8207748586115229  0.6236813210832604  0.6567961940914482
  0.8522145548146149  0.6368660756325480  0.8524872019359966
  0.6502244087023200  0.3745228287499467  0.0831859085721642
  0.6604441791313524  0.4233023265947453  0.3480040920325908
  0.6635707803757896  0.3670453353382264  0.6150862135926722
  0.5792879572204238  0.3998719424180245  0.9030088625848693
  0.3763739566947031  0.6413659506372674  0.1615637519982598
  0.4306239189918094  0.5810810552064138  0.3304774422756656
  0.3102909349614101  0.6332354069807524  0.6126616441630500
  0.3691896282249243  0.6645159092679040  0.8694478591710277
  0.1374063738339381  0.8109590278802242  0.1033844095573809
  0.0615859542442874  0.8448788755875996  0.4054505551314628
  0.1340190658491603  0.8427925744974193  0.6115097358641888
  0.0746103932512575  0.9507428547824853  0.8766601213935711
  0.5989756491098063  0.8950019888504316  0.0976857998403549
  0.5893005366899826  0.9284805298120030  0.3856665984386761
  0.6363687318048743  0.8990506125117906  0.6582917426922655
  0.5804295205866398  0.8727622041709104  0.8714164876474263
  0.0133773378464947  0.9750211129228149  0.0305979136895628
  0.9710393506755489  0.9828814520021015  0.2706954078432843
  0.9742122090132014  0.9935198344945175  0.5111954256057036
  0.0184188270104220  0.9932091267673003  0.7160079296993315
  0.4890515537721174  0.0070739101760654  0.9841085898428201
  0.5075599353146787  0.0120429895295512  0.2428356785373448
  0.4978947832650135  0.0110817110317115  0.5220447776800132
  0.4767693937600554  0.0223339929076198  0.7514072954057570
  0.2550148993791393  0.2366564783914187  0.0231053248278048
  0.2381723882287438  0.2155693141539685  0.2772646967963648
  0.2728651921368265  0.2135576546986585  0.4898481736352053
  0.2905099733723507  0.2678404775469149  0.7605364414497343
  0.9852838731388849  0.5345094808670995  0.9789434986695540
  0.0092591546547232  0.4439159581034951  0.2629384331730452
  0.0044938510984980  0.4826828122446433  0.4901902614276550
  0.9976255964139246  0.5140183982508980  0.7575132132163014
  0.8165579655983548  0.2681511198919600  0.0022785306944592
  0.7793620873099993  0.2576926886763715  0.2514114284581332
  0.7594788374196184  0.2368386526007608  0.5054762707944506
  0.7565829168253732  0.2784881176222774  0.7442645685955969
  0.4705939141121466  0.5272320756693574  0.0065593353363443
  0.5289072965459237  0.4666776166900033  0.2150279772134456
  0.5154372105961296  0.4755529907042846  0.4637183607789683
  0.4613098916610158  0.5041780971297602  0.7810012171899244
  0.2155827047404923  0.7783346210996860  0.9603506464391617
  0.2247866312899021  0.7409075837150685  0.2576347320030145
  0.2286262540171702  0.7329590867792621  0.4838563340834788
  0.2601730255757336  0.7621722886667713  0.7414874001923240
  0.7492602560229410  0.7654729499655392  0.9948851320112945
  0.7735891329620380  0.7262735144833815  0.2211975573772319
  0.7051227083210455  0.7896255806525460  0.5283623997122396
  0.6961578293284101  0.7386585484487354  0.7632599871823730
  0.0378409951189956  0.1952141545414436  0.1562407380729773
  0.0166612745269336  0.2411039823060386  0.3989883892820572
  0.0329494293179451  0.3058179222212233  0.6265152048011080
  0.0441408726894050  0.2133026822067308  0.8928084999583992
  0.5832719933250822  0.2330458941117228  0.1112737567462879
  0.5070508502626384  0.2290081867197113  0.3900820349560407
  0.4940307070494705  0.2647441913615611  0.6471925519335620
  0.5391316091620968  0.2487993047456168  0.9156257690587369
  0.2686221280303956  0.5289697431421533  0.1250487314513598
  0.2293095133119418  0.4944985312400106  0.3699550960786247
  0.2795939754243525  0.4733754199795696  0.6357834921428153
  0.2109912953543546  0.4821395561962843  0.9071720531417866
  0.0324902390404869  0.7114229277086119  0.1455734641105959
  0.9343060345857378  0.7543617484023536  0.3904256028275354
  0.9495284613281415  0.7130641571577006  0.6063601790034355
  0.9774783590645977  0.8078969413281105  0.8530406872736143
  0.7955875001554010  0.4758777885748217  0.1034036140384221
  0.7395316636721228  0.5460933399198041  0.3888600895167007
  0.7255150903585451  0.5127463998733379  0.6076876632130865
  0.7493332937676238  0.5128432373715723  0.8543932159819679
  0.4993342044159503  0.7567411911967209  0.1241229272801414
  0.5094451123982622  0.7143981229189450  0.3344173698947550
  0.4631199719110367  0.7026994706177948  0.6130376537521305
  0.4965527897793559  0.7466279571452444  0.9046807874292517
  0.2780835633908968  0.0064648443009125  0.1247185221370404
  0.3093327887157860  0.9588304210536331  0.3750314765508354
  0.2320578632357965  0.9681295331144806  0.6146783444788234
  0.2195515624755564  0.0062232839423745  0.8464684432478156
  0.7275180835231005  0.9835023054314102  0.1402603901552210
  0.7282325670148584  0.0013739591810488  0.4011839161218715
  0.7225806872152805  0.0310632295155857  0.6670886417238562
  0.8098430236855163  0.0313348468227245  0.8611031297909117
 
  0.00000000E+00  0.00000000E+00  0.00000000E+00
  0.00000000E+00  0.00000000E+00  0.00000000E+00
  0.00000000E+00  0.00000000E+00  0.00000000E+00
  0.00000000E+00  0.00000000E+00  0.00000000E+00
  0.00000000E+00  0.00000000E+00  0.00000000E+00
  0.00000000E+00  0.00000000E+00  0.00000000E+00
  0.00000000E+00  0.00000000E+00  0.00000000E+00
  0.00000000E+00  0.00000000E+00  0.00000000E+00
  0.00000000E+00  0.00000000E+00  0.00000000E+00
  0.00000000E+00  0.00000000E+00  0.00000000E+00
  0.00000000E+00  0.00000000E+00  0.00000000E+00
  0.00000000E+00  0.00000000E+00  0.00000000E+00
  0.00000000E+00  0.00000000E+00  0.00000000E+00
  0.00000000E+00  0.00000000E+00  0.00000000E+00
  0.00000000E+00  0.00000000E+00  0.00000000E+00
  0.00000000E+00  0.00000000E+00  0.00000000E+00
  0.00000000E+00  0.00000000E+00  0.00000000E+00
  0.00000000E+00  0.00000000E+00  0.00000000E+00
  0.00000000E+00  0.00000000E+00  0.00000000E+00
  0.00000000E+00  0.00000000E+00  0.00000000E+00
  0.00000000E+00  0.00000000E+00  0.00000000E+00
  0.00000000E+00  0.00000000E+00  0.00000000E+00
  0.00000000E+00  0.00000000E+00  0.00000000E+00
  0.00000000E+00  0.00000000E+00  0.00000000E+00
  0.00000000E+00  0.00000000E+00  0.00000000E+00
  0.00000000E+00  0.00000000E+00  0.00000000E+00
  0.00000000E+00  0.00000000E+00  0.00000000E+00
  0.00000000E+00  0.00000000E+00  0.00000000E+00
  0.00000000E+00  0.00000000E+00  0.00000000E+00
  0.00000000E+00  0.00000000E+00  0.00000000E+00
  0.00000000E+00  0.00000000E+00  0.00000000E+00
  0.00000000E+00  0.00000000E+00  0.00000000E+00
  0.00000000E+00  0.00000000E+00  0.00000000E+00
  0.00000000E+00  0.00000000E+00  0.00000000E+00
  0.00000000E+00  0.00000000E+00  0.00000000E+00
  0.00000000E+00  0.00000000E+00  0.00000000E+00
  0.00000000E+00  0.00000000E+00  0.00000000E+00
  0.00000000E+00  0.00000000E+00  0.00000000E+00
  0.00000000E+00  0.00000000E+00  0.00000000E+00
  0.00000000E+00  0.00000000E+00  0.00000000E+00
  0.00000000E+00  0.00000000E+00  0.00000000E+00
  0.00000000E+00  0.00000000E+00  0.00000000E+00
  0.00000000E+00  0.00000000E+00  0.00000000E+00
  0.00000000E+00  0.00000000E+00  0.00000000E+00
  0.00000000E+00  0.00000000E+00  0.00000000E+00
  0.00000000E+00  0.00000000E+00  0.00000000E+00
  0.00000000E+00  0.00000000E+00  0.00000000E+00
  0.00000000E+00  0.00000000E+00  0.00000000E+00
  0.00000000E+00  0.00000000E+00  0.00000000E+00
  0.00000000E+00  0.00000000E+00  0.00000000E+00
  0.00000000E+00  0.00000000E+00  0.00000000E+00
  0.00000000E+00  0.00000000E+00  0.00000000E+00
  0.00000000E+00  0.00000000E+00  0.00000000E+00
  0.00000000E+00  0.00000000E+00  0.00000000E+00
  0.00000000E+00  0.00000000E+00  0.00000000E+00
  0.00000000E+00  0.00000000E+00  0.00000000E+00
  0.00000000E+00  0.00000000E+00  0.00000000E+00
  0.00000000E+00  0.00000000E+00  0.00000000E+00
  0.00000000E+00  0.00000000E+00  0.00000000E+00
  0.00000000E+00  0.00000000E+00  0.00000000E+00
  0.00000000E+00  0.00000000E+00  0.00000000E+00
  0.00000000E+00  0.00000000E+00  0.00000000E+00
  0.00000000E+00  0.00000000E+00  0.00000000E+00
  0.00000000E+00  0.00000000E+00  0.00000000E+00
  0.00000000E+00  0.00000000E+00  0.00000000E+00
  0.00000000E+00  0.00000000E+00  0.00000000E+00
  0.00000000E+00  0.00000000E+00  0.00000000E+00
  0.00000000E+00  0.00000000E+00  0.00000000E+00
  0.00000000E+00  0.00000000E+00  0.00000000E+00
  0.00000000E+00  0.00000000E+00  0.00000000E+00
  0.00000000E+00  0.00000000E+00  0.00000000E+00
  0.00000000E+00  0.00000000E+00  0.00000000E+00
  0.00000000E+00  0.00000000E+00  0.00000000E+00
  0.00000000E+00  0.00000000E+00  0.00000000E+00
  0.00000000E+00  0.00000000E+00  0.00000000E+00
  0.00000000E+00  0.00000000E+00  0.00000000E+00
  0.00000000E+00  0.00000000E+00  0.00000000E+00
  0.00000000E+00  0.00000000E+00  0.00000000E+00
  0.00000000E+00  0.00000000E+00  0.00000000E+00
  0.00000000E+00  0.00000000E+00  0.00000000E+00
  0.00000000E+00  0.00000000E+00  0.00000000E+00
  0.00000000E+00  0.00000000E+00  0.00000000E+00
  0.00000000E+00  0.00000000E+00  0.00000000E+00
  0.00000000E+00  0.00000000E+00  0.00000000E+00
  0.00000000E+00  0.00000000E+00  0.00000000E+00
  0.00000000E+00  0.00000000E+00  0.00000000E+00
  0.00000000E+00  0.00000000E+00  0.00000000E+00
  0.00000000E+00  0.00000000E+00  0.00000000E+00
  0.00000000E+00  0.00000000E+00  0.00000000E+00
  0.00000000E+00  0.00000000E+00  0.00000000E+00
  0.00000000E+00  0.00000000E+00  0.00000000E+00
  0.00000000E+00  0.00000000E+00  0.00000000E+00
  0.00000000E+00  0.00000000E+00  0.00000000E+00
  0.00000000E+00  0.00000000E+00  0.00000000E+00
  0.00000000E+00  0.00000000E+00  0.00000000E+00
  0.00000000E+00  0.00000000E+00  0.00000000E+00
  0.00000000E+00  0.00000000E+00  0.00000000E+00
  0.00000000E+00  0.00000000E+00  0.00000000E+00
  0.00000000E+00  0.00000000E+00  0.00000000E+00
  0.00000000E+00  0.00000000E+00  0.00000000E+00
  0.00000000E+00  0.00000000E+00  0.00000000E+00
  0.00000000E+00  0.00000000E+00  0.00000000E+00
  0.00000000E+00  0.00000000E+00  0.00000000E+00
  0.00000000E+00  0.00000000E+00  0.00000000E+00
  0.00000000E+00  0.00000000E+00  0.00000000E+00
  0.00000000E+00  0.00000000E+00  0.00000000E+00
  0.00000000E+00  0.00000000E+00  0.00000000E+00
  0.00000000E+00  0.00000000E+00  0.00000000E+00
  0.00000000E+00  0.00000000E+00  0.00000000E+00
  0.00000000E+00  0.00000000E+00  0.00000000E+00
  0.00000000E+00  0.00000000E+00  0.00000000E+00
  0.00000000E+00  0.00000000E+00  0.00000000E+00
  0.00000000E+00  0.00000000E+00  0.00000000E+00
  0.00000000E+00  0.00000000E+00  0.00000000E+00
  0.00000000E+00  0.00000000E+00  0.00000000E+00
  0.00000000E+00  0.00000000E+00  0.00000000E+00
  0.00000000E+00  0.00000000E+00  0.00000000E+00
  0.00000000E+00  0.00000000E+00  0.00000000E+00
  0.00000000E+00  0.00000000E+00  0.00000000E+00
  0.00000000E+00  0.00000000E+00  0.00000000E+00
  0.00000000E+00  0.00000000E+00  0.00000000E+00
  0.00000000E+00  0.00000000E+00  0.00000000E+00
  0.00000000E+00  0.00000000E+00  0.00000000E+00
  0.00000000E+00  0.00000000E+00  0.00000000E+00
  0.00000000E+00  0.00000000E+00  0.00000000E+00
  0.00000000E+00  0.00000000E+00  0.00000000E+00
  0.00000000E+00  0.00000000E+00  0.00000000E+00
  0.00000000E+00  0.00000000E+00  0.00000000E+00
  0.00000000E+00  0.00000000E+00  0.00000000E+00
  0.00000000E+00  0.00000000E+00  0.00000000E+00
  0.00000000E+00  0.00000000E+00  0.00000000E+00
  0.00000000E+00  0.00000000E+00  0.00000000E+00
  0.00000000E+00  0.00000000E+00  0.00000000E+00
  0.00000000E+00  0.00000000E+00  0.00000000E+00
  0.00000000E+00  0.00000000E+00  0.00000000E+00
  0.00000000E+00  0.00000000E+00  0.00000000E+00
  0.00000000E+00  0.00000000E+00  0.00000000E+00
  0.00000000E+00  0.00000000E+00  0.00000000E+00
  0.00000000E+00  0.00000000E+00  0.00000000E+00
  0.00000000E+00  0.00000000E+00  0.00000000E+00
  0.00000000E+00  0.00000000E+00  0.00000000E+00
  0.00000000E+00  0.00000000E+00  0.00000000E+00
  0.00000000E+00  0.00000000E+00  0.00000000E+00
  0.00000000E+00  0.00000000E+00  0.00000000E+00
  0.00000000E+00  0.00000000E+00  0.00000000E+00
  0.00000000E+00  0.00000000E+00  0.00000000E+00
  0.00000000E+00  0.00000000E+00  0.00000000E+00
  0.00000000E+00  0.00000000E+00  0.00000000E+00
  0.00000000E+00  0.00000000E+00  0.00000000E+00
  0.00000000E+00  0.00000000E+00  0.00000000E+00
  0.00000000E+00  0.00000000E+00  0.00000000E+00
  0.00000000E+00  0.00000000E+00  0.00000000E+00
  0.00000000E+00  0.00000000E+00  0.00000000E+00
  0.00000000E+00  0.00000000E+00  0.00000000E+00
  0.00000000E+00  0.00000000E+00  0.00000000E+00
  0.00000000E+00  0.00000000E+00  0.00000000E+00
  0.00000000E+00  0.00000000E+00  0.00000000E+00
  0.00000000E+00  0.00000000E+00  0.00000000E+00
  0.00000000E+00  0.00000000E+00  0.00000000E+00
  0.00000000E+00  0.00000000E+00  0.00000000E+00
