Ca Tl Br                                
   1.00000000000000     
    11.3882320000000004  -11.3882320000000004    0.0000000000000000
    11.3882320000000004   11.3882320000000004    0.0000000000000000
     0.0000000000000000    0.0000000000000000   22.7764629999999997
   Br   Ca   Tl
    96    32    32
Direct
  0.1062762008988993  0.1443249549445514  0.0053383731324465
  0.0935424325532448  0.1578325888258767  0.2451315275143421
  0.0851328349848715  0.1650796427384685  0.5110263133465972
  0.1440690238087159  0.1059080731538007  0.7194298258536904
  0.6137565263722390  0.1370962688379083  0.0325040170083201
  0.6088466303550516  0.1393381178855002  0.2269103622906775
  0.6039567505189078  0.1440351745784877  0.5267532880568235
  0.6600163192768658  0.0897095270283053  0.7302421329431301
  0.4157957074881143  0.3370133657064646  0.9866410647123413
  0.4074452239828816  0.3439285058638430  0.2501475254018076
  0.3956304639768971  0.3524119142210745  0.4901538797066088
  0.3572400543400713  0.3933653914509077  0.7816269074912577
  0.1203937409036287  0.6281543674584150  0.0344860767419200
  0.1081056000985117  0.6415526277048974  0.2231005090228411
  0.1012851401370315  0.6478897222926585  0.5289548780185600
  0.1557869230295909  0.5937457441035967  0.7285328977156579
  0.8977645216530857  0.3527738212799444  0.9705933682305314
  0.8905942929948986  0.3574756751628016  0.2769670607606077
  0.8763848550557658  0.3712768010386922  0.4672229470032114
  0.8438855060141622  0.4060989564137118  0.7715239985922538
  0.6048311869329828  0.6493626853585399  0.0118475791635664
  0.5968996545515607  0.6557654577336642  0.2487584347990600
  0.5863288216377874  0.6629916321462609  0.5125347909347570
  0.6430089164402136  0.6064423131531592  0.7181363551898381
  0.3975484848753250  0.8534202143174299  0.9728367443996601
  0.3955251593832475  0.8555055012170769  0.2759334800266364
  0.3872179028714975  0.8616054806204271  0.4670680522078018
  0.3409175181309863  0.9080884308795547  0.7691927167231586
  0.9161583606030899  0.8349444668117512  0.9910559182203265
  0.9094909510249988  0.8430617831679802  0.2568101076067281
  0.8957811416596755  0.8562611111456285  0.4914542275416343
  0.8557175152526511  0.8935494032582471  0.7804403458362398
  0.8536438520385834  0.0923320474943218  0.9781606563330963
  0.8560641635434965  0.1060569956478296  0.2803875070913810
  0.8464520094561658  0.1101710631523753  0.4755899759913859
  0.9041035404843304  0.1513567513917546  0.7759689941927480
  0.3599760927128835  0.0973496072409468  0.0233054406464145
  0.3566705322411306  0.1050606767180246  0.2188889705373679
  0.3389489037186026  0.0989265129295314  0.5196504660386773
  0.4068344813157584  0.1548954328168447  0.7275696733321713
  0.1486073829404111  0.3850172949111331  0.9630178341292217
  0.1568297195606168  0.4057225824920875  0.2661156964859996
  0.1444481403215805  0.4083591244602766  0.4825516055443606
  0.1023481427867462  0.3503120320557437  0.7717965746418580
  0.8613379526020235  0.5968037076618103  0.0227132934019882
  0.8567598653003626  0.6028165482958183  0.2231637913055021
  0.8522918220020651  0.6145951455789096  0.5346597577062107
  0.8968486722919397  0.6486036403741132  0.7269935973119023
  0.6610096926298986  0.4000358014289508  0.0153243112866737
  0.6564787370996359  0.4034235266165592  0.2317273551801493
  0.6362868058064375  0.3978949136251203  0.5346949205804046
  0.6010640778993026  0.3484252314678846  0.7305406396372098
  0.3643832556165056  0.6020162520958943  0.9654918692417975
  0.3466185671676719  0.5976547736044688  0.2689450585881237
  0.3404643348512276  0.6009734271250369  0.4840082697326455
  0.3987044613149685  0.6502478182252333  0.7699018880817078
  0.1600702956066837  0.8944163539412653  0.0180846660027413
  0.1528544102483897  0.9005710120492912  0.2266305236245320
  0.1498287263180920  0.9095394957212807  0.5197000846329789
  0.0952713213863917  0.8471775248550246  0.7245216402556924
  0.6625609071560320  0.9010155998189860  0.9790240034418376
  0.6446945366443220  0.8940569628021180  0.2810279598989116
  0.6412238106266295  0.9023639721617269  0.4749083274523964
  0.5935619576627501  0.8443665458529399  0.7718879402185680
  0.9641100354232821  0.0176631726716718  0.1238976736081927
  0.0383400395872658  0.0018160255451224  0.3767302139802388
  0.9484121148861238  0.0146463293323625  0.6263067931863930
  0.0497433219888014  0.9823723722524016  0.8735352646200829
  0.5077285229753312  0.9461273147594776  0.1245497111380301
  0.4903936308321977  0.0502748636828025  0.3749114909668456
  0.4902236575589017  0.9538405962099302  0.6250244936664178
  0.5118048235127018  0.0448399065247397  0.8746394810687282
  0.2463796524037764  0.2865401365995721  0.1210995814741761
  0.2647087523088907  0.2144123845287341  0.3741070573873476
  0.2440545923771431  0.2973126048972192  0.6250377736021131
  0.2616925142026758  0.1949882680630073  0.8719182155914649
  0.0039402668110441  0.4458628406920770  0.1245760319167741
  0.9974555283826388  0.5499599627912808  0.3748674063338103
  0.9895424635616287  0.4509466422853629  0.6258624772068307
  0.0090739439656729  0.5494833048205723  0.8744211647343563
  0.8028775152764824  0.2451784660297556  0.1237740804348733
  0.6979929786021806  0.2608815077598036  0.3751360288992149
  0.7981812062926925  0.2522055544972648  0.6261026875253101
  0.7023145893106374  0.2367499411156980  0.8745410484117814
  0.4638582659687491  0.5181043246576856  0.1241482669337833
  0.5366429535108622  0.4814819578400681  0.3763163852120313
  0.4482466253588331  0.4977795205233183  0.6266462261074854
  0.5531977664191502  0.5031718129097746  0.8737320003893515
  0.3017435330201187  0.7413697581518757  0.1256041160660048
  0.1955419466822917  0.7509666085958314  0.3760083554657881
  0.2973508168096148  0.7630255583684937  0.6248438914621637
  0.2029387996276193  0.7440434773099123  0.8743385308643183
  0.7523304846867187  0.7872920905731849  0.1249972449557627
  0.7625429443121812  0.7108476945406256  0.3775175822922449
  0.7416155328976130  0.8047631993485864  0.6267487508191752
  0.7571901467677282  0.7008622597050324  0.8745515128504975
  0.0067762891355986  0.9913762364947875 -0.0006907171190229
  0.0038060107824022 -0.0014624016227488  0.2490425515582406
  0.9965375979711529  0.0074671511209798  0.5022724974564035
  0.0000445814583737 -0.0002809909949892  0.7499306617332876
  0.5082869604115529  0.9954881757825892  0.9990271918836032
  0.4998566460184020  0.9986894377048119  0.2491557784685987
  0.4919973243011613  0.0027108364722974  0.5009729298169538
  0.4998695399010661 -0.0006722101629397  0.7500783176618102
  0.2588564311257373  0.2474065375637122  0.9956933285311368
  0.2498664205527851  0.2499530474008467  0.2483638035640109
  0.2420151701533280  0.2546211971004579  0.4996005570065579
  0.2526615230834090  0.2489138533050848  0.7486237048675141
  0.0114125534618054  0.4942936037686346  0.9979637963404846
  0.0015598623779826  0.4973235731570522  0.2501075756720785
  0.9906132492800694  0.5035520941629618  0.5016711914770242
  0.0001758800442368  0.5001785705414374  0.7502679272387169
  0.7528539332890117  0.2445284990896344  0.9977703808753983
  0.7491309605850808  0.2470639858806695  0.2475887838798715
  0.7445849425049411  0.2589612189105748  0.5028819194654541
  0.7527363333205337  0.2482198171329714  0.7509558032373169
  0.5046605742972738  0.4940079234919579  0.9994397851046251
  0.5013837697030804  0.5000616725848561  0.2500966818072509
  0.4962741440056569  0.5068760035834002  0.5010248301468730
  0.5003365865326196  0.4995599277494285  0.7502125096438149
  0.2542336017904914  0.7395897941163130  0.9990453176292505
  0.2496971084455205  0.7530360085264398  0.2521169284883049
  0.2464597147210220  0.7551856574355637  0.5011106812035561
  0.2472628394489628  0.7509812394117645  0.7487272166525962
  0.7574276398126861  0.7467569810056193  0.9986973140545966
  0.7529617873448491  0.7506352054166905  0.2518982332848854
  0.7427091620268147  0.7529026910104606  0.5022466905113049
  0.7476577857498857  0.7507902536616005  0.7508032203683005
  0.0151194127107639  0.2280461462742934  0.1218135279956984
  0.9772913491110417  0.2071827874903596  0.3740635544544432
  0.0137301849462266  0.2327485310229405  0.6466227727239122
  0.0311808207360897  0.2433214888551175  0.8863037836798527
  0.4579460389408443  0.2261633771637122  0.1245011936193816
  0.4784553611756685  0.2664134415153599  0.3732687730974769
  0.4901204635437451  0.2869917182143261  0.6135348972792523
  0.4819108246691712  0.2547522561007065  0.8510358675809645
  0.2430982934177372  0.5194614628619704  0.1526701424834686
  0.2104658785481550  0.5392284794842719  0.3764861288240220
  0.2367900649725886  0.5063661751353207  0.5989605409156752
  0.2269312271492284  0.5230831915631227  0.8586751631507545
  0.9632090079333846  0.7239782362001181  0.1245354516046179
  0.9795688581003215  0.7583336527228071  0.3780988090330266
  0.9667736784534200  0.7570659494091827  0.6129260631504668
  0.9898805964393785  0.7704171889498836  0.8539686871895125
  0.7916518446403937  0.4579672186425656  0.1238290180411263
  0.7507714540636028  0.4624832539535071  0.3594068255390484
  0.7753991396527253  0.4799524353050312  0.6407796430077949
  0.7629470236582506  0.4921962489013818  0.8984494566804598
  0.5105626319398342  0.7289619848788844  0.1279471027781304
  0.5365395921037391  0.7736341190987144  0.3725608179369912
  0.5148599541258458  0.7424749823244392  0.6493069004744565
  0.5084151429889699  0.7134410831677962  0.8873439997570103
  0.2914599773388442  0.9543563334310295  0.1246282825470861
  0.2568440533011682 -0.0013832890813214  0.4045455746367490
  0.2711031624037770  0.9741332253556801  0.6371733288380474
  0.2583822931401368  0.9800892377423494  0.8985460611594559
  0.7507426763743732  0.0049543554055093  0.0912524337521954
  0.7033439261820796  0.0447233584928443  0.3742743109872036
  0.7404444643347458  0.0169849452805952  0.6039438312109330
  0.7304291797856532  0.0257832806383351  0.8619491254486753
 
  0.00000000E+00  0.00000000E+00  0.00000000E+00
  0.00000000E+00  0.00000000E+00  0.00000000E+00
  0.00000000E+00  0.00000000E+00  0.00000000E+00
  0.00000000E+00  0.00000000E+00  0.00000000E+00
  0.00000000E+00  0.00000000E+00  0.00000000E+00
  0.00000000E+00  0.00000000E+00  0.00000000E+00
  0.00000000E+00  0.00000000E+00  0.00000000E+00
  0.00000000E+00  0.00000000E+00  0.00000000E+00
  0.00000000E+00  0.00000000E+00  0.00000000E+00
  0.00000000E+00  0.00000000E+00  0.00000000E+00
  0.00000000E+00  0.00000000E+00  0.00000000E+00
  0.00000000E+00  0.00000000E+00  0.00000000E+00
  0.00000000E+00  0.00000000E+00  0.00000000E+00
  0.00000000E+00  0.00000000E+00  0.00000000E+00
  0.00000000E+00  0.00000000E+00  0.00000000E+00
  0.00000000E+00  0.00000000E+00  0.00000000E+00
  0.00000000E+00  0.00000000E+00  0.00000000E+00
  0.00000000E+00  0.00000000E+00  0.00000000E+00
  0.00000000E+00  0.00000000E+00  0.00000000E+00
  0.00000000E+00  0.00000000E+00  0.00000000E+00
  0.00000000E+00  0.00000000E+00  0.00000000E+00
  0.00000000E+00  0.00000000E+00  0.00000000E+00
  0.00000000E+00  0.00000000E+00  0.00000000E+00
  0.00000000E+00  0.00000000E+00  0.00000000E+00
  0.00000000E+00  0.00000000E+00  0.00000000E+00
  0.00000000E+00  0.00000000E+00  0.00000000E+00
  0.00000000E+00  0.00000000E+00  0.00000000E+00
  0.00000000E+00  0.00000000E+00  0.00000000E+00
  0.00000000E+00  0.00000000E+00  0.00000000E+00
  0.00000000E+00  0.00000000E+00  0.00000000E+00
  0.00000000E+00  0.00000000E+00  0.00000000E+00
  0.00000000E+00  0.00000000E+00  0.00000000E+00
  0.00000000E+00  0.00000000E+00  0.00000000E+00
  0.00000000E+00  0.00000000E+00  0.00000000E+00
  0.00000000E+00  0.00000000E+00  0.00000000E+00
  0.00000000E+00  0.00000000E+00  0.00000000E+00
  0.00000000E+00  0.00000000E+00  0.00000000E+00
  0.00000000E+00  0.00000000E+00  0.00000000E+00
  0.00000000E+00  0.00000000E+00  0.00000000E+00
  0.00000000E+00  0.00000000E+00  0.00000000E+00
  0.00000000E+00  0.00000000E+00  0.00000000E+00
  0.00000000E+00  0.00000000E+00  0.00000000E+00
  0.00000000E+00  0.00000000E+00  0.00000000E+00
  0.00000000E+00  0.00000000E+00  0.00000000E+00
  0.00000000E+00  0.00000000E+00  0.00000000E+00
  0.00000000E+00  0.00000000E+00  0.00000000E+00
  0.00000000E+00  0.00000000E+00  0.00000000E+00
  0.00000000E+00  0.00000000E+00  0.00000000E+00
  0.00000000E+00  0.00000000E+00  0.00000000E+00
  0.00000000E+00  0.00000000E+00  0.00000000E+00
  0.00000000E+00  0.00000000E+00  0.00000000E+00
  0.00000000E+00  0.00000000E+00  0.00000000E+00
  0.00000000E+00  0.00000000E+00  0.00000000E+00
  0.00000000E+00  0.00000000E+00  0.00000000E+00
  0.00000000E+00  0.00000000E+00  0.00000000E+00
  0.00000000E+00  0.00000000E+00  0.00000000E+00
  0.00000000E+00  0.00000000E+00  0.00000000E+00
  0.00000000E+00  0.00000000E+00  0.00000000E+00
  0.00000000E+00  0.00000000E+00  0.00000000E+00
  0.00000000E+00  0.00000000E+00  0.00000000E+00
  0.00000000E+00  0.00000000E+00  0.00000000E+00
  0.00000000E+00  0.00000000E+00  0.00000000E+00
  0.00000000E+00  0.00000000E+00  0.00000000E+00
  0.00000000E+00  0.00000000E+00  0.00000000E+00
  0.00000000E+00  0.00000000E+00  0.00000000E+00
  0.00000000E+00  0.00000000E+00  0.00000000E+00
  0.00000000E+00  0.00000000E+00  0.00000000E+00
  0.00000000E+00  0.00000000E+00  0.00000000E+00
  0.00000000E+00  0.00000000E+00  0.00000000E+00
  0.00000000E+00  0.00000000E+00  0.00000000E+00
  0.00000000E+00  0.00000000E+00  0.00000000E+00
  0.00000000E+00  0.00000000E+00  0.00000000E+00
  0.00000000E+00  0.00000000E+00  0.00000000E+00
  0.00000000E+00  0.00000000E+00  0.00000000E+00
  0.00000000E+00  0.00000000E+00  0.00000000E+00
  0.00000000E+00  0.00000000E+00  0.00000000E+00
  0.00000000E+00  0.00000000E+00  0.00000000E+00
  0.00000000E+00  0.00000000E+00  0.00000000E+00
  0.00000000E+00  0.00000000E+00  0.00000000E+00
  0.00000000E+00  0.00000000E+00  0.00000000E+00
  0.00000000E+00  0.00000000E+00  0.00000000E+00
  0.00000000E+00  0.00000000E+00  0.00000000E+00
  0.00000000E+00  0.00000000E+00  0.00000000E+00
  0.00000000E+00  0.00000000E+00  0.00000000E+00
  0.00000000E+00  0.00000000E+00  0.00000000E+00
  0.00000000E+00  0.00000000E+00  0.00000000E+00
  0.00000000E+00  0.00000000E+00  0.00000000E+00
  0.00000000E+00  0.00000000E+00  0.00000000E+00
  0.00000000E+00  0.00000000E+00  0.00000000E+00
  0.00000000E+00  0.00000000E+00  0.00000000E+00
  0.00000000E+00  0.00000000E+00  0.00000000E+00
  0.00000000E+00  0.00000000E+00  0.00000000E+00
  0.00000000E+00  0.00000000E+00  0.00000000E+00
  0.00000000E+00  0.00000000E+00  0.00000000E+00
  0.00000000E+00  0.00000000E+00  0.00000000E+00
  0.00000000E+00  0.00000000E+00  0.00000000E+00
  0.00000000E+00  0.00000000E+00  0.00000000E+00
  0.00000000E+00  0.00000000E+00  0.00000000E+00
  0.00000000E+00  0.00000000E+00  0.00000000E+00
  0.00000000E+00  0.00000000E+00  0.00000000E+00
  0.00000000E+00  0.00000000E+00  0.00000000E+00
  0.00000000E+00  0.00000000E+00  0.00000000E+00
  0.00000000E+00  0.00000000E+00  0.00000000E+00
  0.00000000E+00  0.00000000E+00  0.00000000E+00
  0.00000000E+00  0.00000000E+00  0.00000000E+00
  0.00000000E+00  0.00000000E+00  0.00000000E+00
  0.00000000E+00  0.00000000E+00  0.00000000E+00
  0.00000000E+00  0.00000000E+00  0.00000000E+00
  0.00000000E+00  0.00000000E+00  0.00000000E+00
  0.00000000E+00  0.00000000E+00  0.00000000E+00
  0.00000000E+00  0.00000000E+00  0.00000000E+00
  0.00000000E+00  0.00000000E+00  0.00000000E+00
  0.00000000E+00  0.00000000E+00  0.00000000E+00
  0.00000000E+00  0.00000000E+00  0.00000000E+00
  0.00000000E+00  0.00000000E+00  0.00000000E+00
  0.00000000E+00  0.00000000E+00  0.00000000E+00
  0.00000000E+00  0.00000000E+00  0.00000000E+00
  0.00000000E+00  0.00000000E+00  0.00000000E+00
  0.00000000E+00  0.00000000E+00  0.00000000E+00
  0.00000000E+00  0.00000000E+00  0.00000000E+00
  0.00000000E+00  0.00000000E+00  0.00000000E+00
  0.00000000E+00  0.00000000E+00  0.00000000E+00
  0.00000000E+00  0.00000000E+00  0.00000000E+00
  0.00000000E+00  0.00000000E+00  0.00000000E+00
  0.00000000E+00  0.00000000E+00  0.00000000E+00
  0.00000000E+00  0.00000000E+00  0.00000000E+00
  0.00000000E+00  0.00000000E+00  0.00000000E+00
  0.00000000E+00  0.00000000E+00  0.00000000E+00
  0.00000000E+00  0.00000000E+00  0.00000000E+00
  0.00000000E+00  0.00000000E+00  0.00000000E+00
  0.00000000E+00  0.00000000E+00  0.00000000E+00
  0.00000000E+00  0.00000000E+00  0.00000000E+00
  0.00000000E+00  0.00000000E+00  0.00000000E+00
  0.00000000E+00  0.00000000E+00  0.00000000E+00
  0.00000000E+00  0.00000000E+00  0.00000000E+00
  0.00000000E+00  0.00000000E+00  0.00000000E+00
  0.00000000E+00  0.00000000E+00  0.00000000E+00
  0.00000000E+00  0.00000000E+00  0.00000000E+00
  0.00000000E+00  0.00000000E+00  0.00000000E+00
  0.00000000E+00  0.00000000E+00  0.00000000E+00
  0.00000000E+00  0.00000000E+00  0.00000000E+00
  0.00000000E+00  0.00000000E+00  0.00000000E+00
  0.00000000E+00  0.00000000E+00  0.00000000E+00
  0.00000000E+00  0.00000000E+00  0.00000000E+00
  0.00000000E+00  0.00000000E+00  0.00000000E+00
  0.00000000E+00  0.00000000E+00  0.00000000E+00
  0.00000000E+00  0.00000000E+00  0.00000000E+00
  0.00000000E+00  0.00000000E+00  0.00000000E+00
  0.00000000E+00  0.00000000E+00  0.00000000E+00
  0.00000000E+00  0.00000000E+00  0.00000000E+00
  0.00000000E+00  0.00000000E+00  0.00000000E+00
  0.00000000E+00  0.00000000E+00  0.00000000E+00
  0.00000000E+00  0.00000000E+00  0.00000000E+00
  0.00000000E+00  0.00000000E+00  0.00000000E+00
  0.00000000E+00  0.00000000E+00  0.00000000E+00
  0.00000000E+00  0.00000000E+00  0.00000000E+00
  0.00000000E+00  0.00000000E+00  0.00000000E+00
  0.00000000E+00  0.00000000E+00  0.00000000E+00
  0.00000000E+00  0.00000000E+00  0.00000000E+00
  0.00000000E+00  0.00000000E+00  0.00000000E+00
