F Li Cd                                 
   1.00000000000000     
     8.8305840000000000   -8.8305840000000000    0.0000000000000000
     8.8305840000000000    8.8305840000000000    0.0000000000000000
     0.0000000000000000    0.0000000000000000   17.6611680000000000
   Cd   F    Li
    32    96    32
Direct
  0.0007737750178499  0.2281986486673868  0.1209395462343512
  0.0137672378243765  0.2506503803622878  0.3705241347757596
  0.9920910444970820  0.2394504630039433  0.6231149005318001
  0.9915218284315720  0.2566547218389297  0.8850329748538902
  0.5105884570889304  0.2581087437493548  0.1063956448746024
  0.5103160520465541  0.2458479029366171  0.3664772659092159
  0.5121502663436067  0.2557876652146284  0.6156387465941211
  0.4925288943956685  0.2537006809940780  0.8583629404400808
  0.2546860399880455  0.5004566924101763  0.1165651723751327
  0.2642547331065668  0.4900712116853807  0.3783267715547917
  0.2445701482620687  0.4926554578749194  0.6195059232153275
  0.2419718792716184  0.5052661692897746  0.8716330540063622
  0.0281830165558739  0.7617387146936645  0.1102656234330994
  0.0082909294528739  0.7666032613819319  0.3473886207029806
  0.9741679476335402  0.7121063617939635  0.6121000326965889
  0.0022069662382532  0.7673513685835257  0.8747006864166238
  0.7363852673766361  0.5013323146464937  0.1093702335402540
  0.7542249311082292  0.4855248893868717  0.3528276203107968
  0.7636147718988364  0.5018175238783725  0.5911341674766293
  0.7353519861890061  0.5360391195195564  0.8721602708484109
  0.5007220629143354  0.7540150967673280  0.1183985452426718
  0.5336534545201842  0.7545744967599624  0.3862839457388527
  0.4737388067373223  0.7513201675105963  0.6257481778211573
  0.4827483789342474  0.7680623605639059  0.8700599549099378
  0.2275500326793180  0.0084682730627718  0.1263453120324203
  0.2653452800744101  0.9908341508883403  0.3742468402697313
  0.2125869062168570  0.9700505606693809  0.6294772941693654
  0.2351277847688386  0.0054314156305533  0.8653690187091585
  0.7579849871560256  0.0040476808122134  0.1080878358468630
  0.7752927279703847  0.9919690696870243  0.3587239083014112
  0.7593955784101522  0.0026026540992080  0.6182696866027562
  0.7446982652923181  0.0121247534951548  0.8686076728521369
  0.0209489568633433  0.1709550303168920  0.9989101269210637
  0.0434747515716271  0.2531117834320285  0.2424575247254560
  0.0210514548118660  0.2273406565562943  0.4978457033698321
  0.9841208430344558  0.3069427066862837  0.7507397378243081
  0.4529147425443263  0.2422039170506801  0.9867767817643054
  0.4678265735092245  0.2429032106748782  0.2359461040942386
  0.5379878636648509  0.2298500585201406  0.4908412619355706
  0.5312419043413646  0.2500835108822494  0.7371113262431117
  0.2835659243822279  0.5023755609620801  0.9932395661318494
  0.2547319178102936  0.4539576379131133  0.2403930621965766
  0.2284155719091183  0.5051444422492216  0.4971117791735110
  0.1948853789325279  0.4999679910168676  0.7469405878891908
  0.9588188104714186  0.7631179480551440  0.9961775060970524
  0.0154327365268232  0.7037753573522164  0.2314713752836847
  0.8194639441502671  0.6759629012060692  0.5464328457033898
  0.9970212792187011  0.7492185025807738  0.7428734289749596
  0.7347449792568089  0.5757465296959943  0.9955198192161322
  0.7594429604270907  0.5484224084360300  0.2327349469004132
  0.8117656854480848  0.4972134893308943  0.4700158554266933
  0.7871775057589134  0.4103711297647950  0.7954944881988895
  0.4891599608971021  0.7277286575316112  0.9926309804296821
  0.4931764116959316  0.7355870982197746  0.2499571389875867
  0.5174241403812215  0.7316838273181198  0.5065185360988540
  0.4775917847863444  0.8067220893161098  0.7462549783884029
  0.2598840226091325  0.0316999136714652  0.9993325069958071
  0.2787261088341242  0.9992397637533981  0.2458638406354246
  0.2024040147526234  0.9769961110795106  0.4965089074144582
  0.1627062594891865  0.9698072349589529  0.7492067323937134
  0.8140128910739919  0.9966315290133587  0.9864007315353374
  0.7922308338942646  0.0290016072793574  0.2311277237238955
  0.7507748102873002  0.0132923029096617  0.4934827772897192
  0.7234746637409513  0.9844342524728201  0.7412421142090680
  0.0635940631162297  0.0612844560296008  0.1563158094393906
  0.1481982386079193  0.1272987551589423  0.3905209353819551
  0.1485832398363256  0.1320927519310830  0.6023161064824891
  0.1234860750781545  0.1451226339428347  0.8390374802632844
  0.6016252017320511  0.1054043557174411  0.0957187064256708
  0.6539481363469263  0.1301904344185263  0.3774781424499492
  0.5966612315341062  0.0876948305446087  0.5948849596919685
  0.6574889328206001  0.1700576135277279  0.8715990079091948
  0.4035188429336902  0.3955414483156893  0.1355695486660609
  0.3991037848226499  0.3829316203200133  0.3484097549877885
  0.3591863013394054  0.3518371758849729  0.6113406990656852
  0.3869056847903534  0.4000612044252436  0.8412964442154328
  0.1052402292507337  0.5982787949370103  0.0963138028845761
  0.0080108959613534  0.7252552608122719  0.4716492625291335
  0.1254334139694452  0.6265273737016220  0.6376896287475230
  0.1368545099125256  0.6555341859845859  0.8501471894454488
  0.8879982162109398  0.3895894528272131  0.0914215865490211
  0.8694437125744908  0.3523931014446308  0.3380547445742020
  0.8529220051199208  0.3515266703700713  0.6242511940861983
  0.8360365449520991  0.3077865116780652  0.9356444946436170
  0.5991335729867161  0.6078414919372095  0.1428134977938448
  0.6164137109199433  0.6030743887148655  0.3493645818315274
  0.6325370568774032  0.6285912712935209  0.6317505123622051
  0.5914921706045255  0.6213037532623086  0.8345847182762154
  0.3917761296488028  0.8983122151926705  0.0925613029044165
  0.3945319697190371  0.8630338662985489  0.3630937249910257
  0.3746082371635531  0.9007637950865564  0.6121225787840481
  0.3293744591860507  0.8626760648367086  0.9054763954871210
  0.9089366877643016  0.8896955137779944  0.1399699773327193
  0.9358037675181645  0.9186659551882945  0.3186123910900721
  0.8376834700035098  0.8354042007662349  0.6428938579999850
  0.8609469111143120  0.8702138499613259  0.8390618544871695
  0.8376799409319303  0.1681802168351660  0.0984017621000141
  0.8736952414852784  0.1396851907878477  0.3654636640506252
  0.9076878314451536  0.0885940450208705  0.6460664141655451
  0.9109462632102315  0.0945702276894151  0.8585087195083955
  0.3814888826289456  0.1113126285636630  0.1302635534824139
  0.3947624377639905  0.1116976143950638  0.3505304715688227
  0.3694239546609819  0.1256349384552116  0.6253313508182931
  0.3738093961753552  0.1162719072581339  0.8729029991619485
  0.1048339037785782  0.3846221345788525  0.1302567616563914
  0.1172062713100237  0.3985200998297493  0.3506468792650222
  0.1478650406690699  0.3354746049564182  0.6504724901617939
  0.1129770806607371  0.3825021310613543  0.8661424465354188
  0.8892281939244540  0.6127533477956220  0.1129596983589406
  0.8822841923719456  0.6361802288046271  0.3482980242225078
  0.8920667350792048  0.5578400982968054  0.6709972438090942
  0.8847622967569092  0.6256332671776071  0.8908528712252809
  0.6640009383682953  0.3456600249450342  0.0821908116902167
  0.6527832210196000  0.3419647832551983  0.3327401732196956
  0.6085385815368386  0.4109069129029210  0.6019818051331336
  0.6054582663959894  0.4020511745673945  0.8832679381484372
  0.3552118615788036  0.6481585637464665  0.1014029393199127
  0.3390332254456446  0.6403447816594288  0.3511147331620070
  0.3985330538633761  0.5909580730540792  0.6392916054839685
  0.3879763407822001  0.6124736512473877  0.8854314157367551
  0.1750806117122690  0.8515803031866601  0.0779754691617536
  0.1613604246823031  0.8369658341740135  0.3810269074396274
  0.0942805608212776  0.8465598242719825  0.5905930632192056
  0.0662380030096106  0.9393187701950686  0.8945926548373943
  0.6138080287671451  0.8928717723588726  0.1191627724352329
  0.6789308779325032  0.8484693679291961  0.3662920208794448
  0.6199691364495199  0.8638728533671478  0.6339838007133992
  0.6049483445211580  0.8976725354245385  0.8557145799370737
  0.9585725254170828  0.0365149695554372  0.9591398202496161
  0.9393271709065339  0.9850857687236044  0.2193212297790435
  0.1236540687628816  0.1153749159047944  0.4943685024287403
  0.0316339982470387  0.0350393018523799  0.8071283607450586
  0.5012361901589693  0.9991138675714967  0.1073570148823113
  0.3843773510233789  0.1140469457334020  0.2427758853679666
  0.4657677287765875  0.0178592262616324  0.6108781458452248
  0.6051518080745553  0.8919622117334562  0.7464539621047371
  0.3575018370377625  0.1364062677989230  0.9769202574032104
  0.3896879154092622  0.3771470748769076  0.2408929610907567
  0.2623953077477546  0.2342846031959115  0.6245984666056414
  0.1213615597944492  0.3659981177412548  0.7564806064169465
  0.9985623924257215  0.4923617072398584  0.1000939287100512
  0.1248528251800882  0.3759609718761006  0.2434246491715406
  0.8824257637273691  0.6316842498360357  0.4564807897558933
  0.8851103093669290  0.4146726345440408  0.7202035209330792
  0.7939452915780473  0.2848281803779081  0.0388033564938072
  0.7659080402378466  0.2383105390229299  0.3406327136184015
  0.6380581525941452  0.1138757703336540  0.4855348953104106
  0.7280774732850093  0.3026973413177106  0.8615384607405866
  0.3839437231680010  0.6178877969551053  0.9964737069725126
  0.6042379486388478  0.6253214129867742  0.2461784805208107
  0.5265526958669525  0.5226215156830781  0.6291879513009010
  0.4936304183524192  0.5047543523620858  0.8557485639970004
  0.2986075274952507  0.8728207932463592  0.0097897284528927
  0.3553155611422792  0.7571273596805892  0.2946251446889228
  0.1284963439205124  0.8359556140970200  0.4882585132104245
  0.1130455894840629  0.6364896577355035  0.7446337226873633
  0.8600390102698297  0.6548251701955794  0.9972332173739726
  0.8831924179480632  0.6313726351585404  0.2291649770876336
  0.7160057620072516  0.7514826100035233  0.6028219796784208
  0.8738686223224923  0.8387723782530510  0.7416502345298442
 
  0.00000000E+00  0.00000000E+00  0.00000000E+00
  0.00000000E+00  0.00000000E+00  0.00000000E+00
  0.00000000E+00  0.00000000E+00  0.00000000E+00
  0.00000000E+00  0.00000000E+00  0.00000000E+00
  0.00000000E+00  0.00000000E+00  0.00000000E+00
  0.00000000E+00  0.00000000E+00  0.00000000E+00
  0.00000000E+00  0.00000000E+00  0.00000000E+00
  0.00000000E+00  0.00000000E+00  0.00000000E+00
  0.00000000E+00  0.00000000E+00  0.00000000E+00
  0.00000000E+00  0.00000000E+00  0.00000000E+00
  0.00000000E+00  0.00000000E+00  0.00000000E+00
  0.00000000E+00  0.00000000E+00  0.00000000E+00
  0.00000000E+00  0.00000000E+00  0.00000000E+00
  0.00000000E+00  0.00000000E+00  0.00000000E+00
  0.00000000E+00  0.00000000E+00  0.00000000E+00
  0.00000000E+00  0.00000000E+00  0.00000000E+00
  0.00000000E+00  0.00000000E+00  0.00000000E+00
  0.00000000E+00  0.00000000E+00  0.00000000E+00
  0.00000000E+00  0.00000000E+00  0.00000000E+00
  0.00000000E+00  0.00000000E+00  0.00000000E+00
  0.00000000E+00  0.00000000E+00  0.00000000E+00
  0.00000000E+00  0.00000000E+00  0.00000000E+00
  0.00000000E+00  0.00000000E+00  0.00000000E+00
  0.00000000E+00  0.00000000E+00  0.00000000E+00
  0.00000000E+00  0.00000000E+00  0.00000000E+00
  0.00000000E+00  0.00000000E+00  0.00000000E+00
  0.00000000E+00  0.00000000E+00  0.00000000E+00
  0.00000000E+00  0.00000000E+00  0.00000000E+00
  0.00000000E+00  0.00000000E+00  0.00000000E+00
  0.00000000E+00  0.00000000E+00  0.00000000E+00
  0.00000000E+00  0.00000000E+00  0.00000000E+00
  0.00000000E+00  0.00000000E+00  0.00000000E+00
  0.00000000E+00  0.00000000E+00  0.00000000E+00
  0.00000000E+00  0.00000000E+00  0.00000000E+00
  0.00000000E+00  0.00000000E+00  0.00000000E+00
  0.00000000E+00  0.00000000E+00  0.00000000E+00
  0.00000000E+00  0.00000000E+00  0.00000000E+00
  0.00000000E+00  0.00000000E+00  0.00000000E+00
  0.00000000E+00  0.00000000E+00  0.00000000E+00
  0.00000000E+00  0.00000000E+00  0.00000000E+00
  0.00000000E+00  0.00000000E+00  0.00000000E+00
  0.00000000E+00  0.00000000E+00  0.00000000E+00
  0.00000000E+00  0.00000000E+00  0.00000000E+00
  0.00000000E+00  0.00000000E+00  0.00000000E+00
  0.00000000E+00  0.00000000E+00  0.00000000E+00
  0.00000000E+00  0.00000000E+00  0.00000000E+00
  0.00000000E+00  0.00000000E+00  0.00000000E+00
  0.00000000E+00  0.00000000E+00  0.00000000E+00
  0.00000000E+00  0.00000000E+00  0.00000000E+00
  0.00000000E+00  0.00000000E+00  0.00000000E+00
  0.00000000E+00  0.00000000E+00  0.00000000E+00
  0.00000000E+00  0.00000000E+00  0.00000000E+00
  0.00000000E+00  0.00000000E+00  0.00000000E+00
  0.00000000E+00  0.00000000E+00  0.00000000E+00
  0.00000000E+00  0.00000000E+00  0.00000000E+00
  0.00000000E+00  0.00000000E+00  0.00000000E+00
  0.00000000E+00  0.00000000E+00  0.00000000E+00
  0.00000000E+00  0.00000000E+00  0.00000000E+00
  0.00000000E+00  0.00000000E+00  0.00000000E+00
  0.00000000E+00  0.00000000E+00  0.00000000E+00
  0.00000000E+00  0.00000000E+00  0.00000000E+00
  0.00000000E+00  0.00000000E+00  0.00000000E+00
  0.00000000E+00  0.00000000E+00  0.00000000E+00
  0.00000000E+00  0.00000000E+00  0.00000000E+00
  0.00000000E+00  0.00000000E+00  0.00000000E+00
  0.00000000E+00  0.00000000E+00  0.00000000E+00
  0.00000000E+00  0.00000000E+00  0.00000000E+00
  0.00000000E+00  0.00000000E+00  0.00000000E+00
  0.00000000E+00  0.00000000E+00  0.00000000E+00
  0.00000000E+00  0.00000000E+00  0.00000000E+00
  0.00000000E+00  0.00000000E+00  0.00000000E+00
  0.00000000E+00  0.00000000E+00  0.00000000E+00
  0.00000000E+00  0.00000000E+00  0.00000000E+00
  0.00000000E+00  0.00000000E+00  0.00000000E+00
  0.00000000E+00  0.00000000E+00  0.00000000E+00
  0.00000000E+00  0.00000000E+00  0.00000000E+00
  0.00000000E+00  0.00000000E+00  0.00000000E+00
  0.00000000E+00  0.00000000E+00  0.00000000E+00
  0.00000000E+00  0.00000000E+00  0.00000000E+00
  0.00000000E+00  0.00000000E+00  0.00000000E+00
  0.00000000E+00  0.00000000E+00  0.00000000E+00
  0.00000000E+00  0.00000000E+00  0.00000000E+00
  0.00000000E+00  0.00000000E+00  0.00000000E+00
  0.00000000E+00  0.00000000E+00  0.00000000E+00
  0.00000000E+00  0.00000000E+00  0.00000000E+00
  0.00000000E+00  0.00000000E+00  0.00000000E+00
  0.00000000E+00  0.00000000E+00  0.00000000E+00
  0.00000000E+00  0.00000000E+00  0.00000000E+00
  0.00000000E+00  0.00000000E+00  0.00000000E+00
  0.00000000E+00  0.00000000E+00  0.00000000E+00
  0.00000000E+00  0.00000000E+00  0.00000000E+00
  0.00000000E+00  0.00000000E+00  0.00000000E+00
  0.00000000E+00  0.00000000E+00  0.00000000E+00
  0.00000000E+00  0.00000000E+00  0.00000000E+00
  0.00000000E+00  0.00000000E+00  0.00000000E+00
  0.00000000E+00  0.00000000E+00  0.00000000E+00
  0.00000000E+00  0.00000000E+00  0.00000000E+00
  0.00000000E+00  0.00000000E+00  0.00000000E+00
  0.00000000E+00  0.00000000E+00  0.00000000E+00
  0.00000000E+00  0.00000000E+00  0.00000000E+00
  0.00000000E+00  0.00000000E+00  0.00000000E+00
  0.00000000E+00  0.00000000E+00  0.00000000E+00
  0.00000000E+00  0.00000000E+00  0.00000000E+00
  0.00000000E+00  0.00000000E+00  0.00000000E+00
  0.00000000E+00  0.00000000E+00  0.00000000E+00
  0.00000000E+00  0.00000000E+00  0.00000000E+00
  0.00000000E+00  0.00000000E+00  0.00000000E+00
  0.00000000E+00  0.00000000E+00  0.00000000E+00
  0.00000000E+00  0.00000000E+00  0.00000000E+00
  0.00000000E+00  0.00000000E+00  0.00000000E+00
  0.00000000E+00  0.00000000E+00  0.00000000E+00
  0.00000000E+00  0.00000000E+00  0.00000000E+00
  0.00000000E+00  0.00000000E+00  0.00000000E+00
  0.00000000E+00  0.00000000E+00  0.00000000E+00
  0.00000000E+00  0.00000000E+00  0.00000000E+00
  0.00000000E+00  0.00000000E+00  0.00000000E+00
  0.00000000E+00  0.00000000E+00  0.00000000E+00
  0.00000000E+00  0.00000000E+00  0.00000000E+00
  0.00000000E+00  0.00000000E+00  0.00000000E+00
  0.00000000E+00  0.00000000E+00  0.00000000E+00
  0.00000000E+00  0.00000000E+00  0.00000000E+00
  0.00000000E+00  0.00000000E+00  0.00000000E+00
  0.00000000E+00  0.00000000E+00  0.00000000E+00
  0.00000000E+00  0.00000000E+00  0.00000000E+00
  0.00000000E+00  0.00000000E+00  0.00000000E+00
  0.00000000E+00  0.00000000E+00  0.00000000E+00
  0.00000000E+00  0.00000000E+00  0.00000000E+00
  0.00000000E+00  0.00000000E+00  0.00000000E+00
  0.00000000E+00  0.00000000E+00  0.00000000E+00
  0.00000000E+00  0.00000000E+00  0.00000000E+00
  0.00000000E+00  0.00000000E+00  0.00000000E+00
  0.00000000E+00  0.00000000E+00  0.00000000E+00
  0.00000000E+00  0.00000000E+00  0.00000000E+00
  0.00000000E+00  0.00000000E+00  0.00000000E+00
  0.00000000E+00  0.00000000E+00  0.00000000E+00
  0.00000000E+00  0.00000000E+00  0.00000000E+00
  0.00000000E+00  0.00000000E+00  0.00000000E+00
  0.00000000E+00  0.00000000E+00  0.00000000E+00
  0.00000000E+00  0.00000000E+00  0.00000000E+00
  0.00000000E+00  0.00000000E+00  0.00000000E+00
  0.00000000E+00  0.00000000E+00  0.00000000E+00
  0.00000000E+00  0.00000000E+00  0.00000000E+00
  0.00000000E+00  0.00000000E+00  0.00000000E+00
  0.00000000E+00  0.00000000E+00  0.00000000E+00
  0.00000000E+00  0.00000000E+00  0.00000000E+00
  0.00000000E+00  0.00000000E+00  0.00000000E+00
  0.00000000E+00  0.00000000E+00  0.00000000E+00
  0.00000000E+00  0.00000000E+00  0.00000000E+00
  0.00000000E+00  0.00000000E+00  0.00000000E+00
  0.00000000E+00  0.00000000E+00  0.00000000E+00
  0.00000000E+00  0.00000000E+00  0.00000000E+00
  0.00000000E+00  0.00000000E+00  0.00000000E+00
  0.00000000E+00  0.00000000E+00  0.00000000E+00
  0.00000000E+00  0.00000000E+00  0.00000000E+00
  0.00000000E+00  0.00000000E+00  0.00000000E+00
  0.00000000E+00  0.00000000E+00  0.00000000E+00
  0.00000000E+00  0.00000000E+00  0.00000000E+00
  0.00000000E+00  0.00000000E+00  0.00000000E+00
  0.00000000E+00  0.00000000E+00  0.00000000E+00
  0.00000000E+00  0.00000000E+00  0.00000000E+00
