Cs Pb F                                 
   1.00000000000000     
     9.7298369999999998   -9.7298369999999998    0.0000000000000000
     9.7298369999999998    9.7298369999999998    0.0000000000000000
     0.0000000000000000    0.0000000000000000   19.4596739999999997
   Cs   F    Pb
    32    96    32
Direct
 -0.0017137089639061  0.2506768583000806  0.1252265266463574
 -0.0007264115839247  0.2493720009725913  0.3754750070207032
  0.0001608572359899  0.2498034283173280  0.6255756378757518
  0.0003182424334791  0.2484709680466776  0.8751587842352924
  0.4978907620829405  0.2498708870355534  0.1258415784368053
  0.5000919600607699  0.2493470360028625  0.3757526640709589
  0.5000704344430743  0.2501358080525934  0.6255932405500176
  0.5000260388569996  0.2494128556297374  0.8759238780920727
  0.2477951622256465  0.4999846670339064  0.1255402707289053
  0.2502655305388989  0.4994989199972190  0.3750918380829344
  0.2522342900163325  0.4991352741633410  0.6252048783453665
  0.2507607734843754  0.5006511559175215  0.8755578699429832
 -0.0011877896648633  0.7508927205228956  0.1257537004885101
 -0.0010321921584921  0.7495566710628053  0.3756911121320015
  0.0012018303515331  0.7488608099514947  0.6254109463840870
 -0.0001111609296325  0.7489901687623498  0.8755814249707440
  0.7484761703829427  0.4990834777377309  0.1254451040281934
  0.7504401271592109  0.5004588673415042  0.3765629367446420
  0.7520537357820690  0.4987154573075603  0.6258885872427477
  0.7509425780412545  0.5021549139280465  0.8746968185032766
  0.4989011350383248  0.7509388286912458  0.1253180871492377
  0.4991111140461729  0.7494454063762032  0.3752903587524258
  0.5004160257391133  0.7501511014817392  0.6256323171705700
  0.4994224291732039  0.7490834268513710  0.8754011906297989
  0.2492217683586054 -0.0005963457944234  0.1254314469784176
  0.2498733598889312 -0.0001187968094336  0.3758032433589123
  0.2522076604792038 -0.0005960866766550  0.6256537690952171
  0.2501581906911935  0.0004667818844240  0.8754124654282217
  0.7494226925639366 -0.0008977751909909  0.1255487032353839
  0.7501735148534698  0.0001797857905787  0.3747827066262938
  0.7523305866034321 -0.0008747790829511  0.6253154185616979
  0.7499222029693194  0.0008991291586162  0.8760745640780668
  0.1064741012986324  0.1429265556655079  0.0024826050278880
  0.1061004622527859  0.1436680528196209  0.2488526144370331
  0.1439995986274255  0.1063153743220664  0.5024670209138516
  0.1441051927633228  0.1066282246030100  0.7487787620382794
  0.6060945315827989  0.1436998029181830  0.0019732727210897
  0.6060354935715049  0.1426980075131138  0.2501606474561185
  0.6438816402602848  0.1060957732602716  0.5006961883402613
  0.6445618162369332  0.1062819584833543  0.7487161837335902
  0.3932932862343446  0.3560422819151473  0.9997138216443618
  0.3933502103993363  0.3562434973877480  0.2524771881706958
  0.3577480342390550  0.3927493588262774  0.4989503273849453
  0.3577362238779591  0.3931594145586734  0.7508785822058215
  0.1066631826979384  0.6428958781949349  0.0025616363974006
  0.1061551405462387  0.6423556357340291  0.2502799143017430
  0.1439846165695044  0.6062657947797702  0.5005434286379417
  0.1445635694095015  0.6064347447096069  0.7484220289285078
  0.8936325880234904  0.3559375964286338 -0.0016008054266721
  0.8930492495895734  0.3555000628310616  0.2502539799079750
  0.8578372465328828  0.3922599157856074  0.5006161500018466
  0.8582387371809300  0.3927358013521028  0.7521708547806264
  0.6065066740714433  0.6428015911113368  0.0011312545228482
  0.6060469626924374  0.6434638546759255  0.2489841163521192
  0.6442695812805744  0.6062702611256325  0.5032402396454858
  0.6441371070515519  0.6070360882564561  0.7491640438932593
  0.3928907680158412  0.8567941097346502 -0.0001731749781778
  0.3926374935927773  0.8559198434055885  0.2501604544015432
  0.3568112687184164  0.8932080739391292  0.5004276443562750
  0.3577027670336443  0.8931599086797902  0.7508252911905615
  0.8930118946338882  0.8563316887340985 -0.0006690485532262
  0.8926115715607653  0.8570725645859126  0.2514598766073576
  0.8573434658764112  0.8930330745596771  0.4961829427805862
  0.8574105492994868  0.8935807169346545  0.7556794097575743
  0.8555627903939114  0.1065788163702851  0.0023485708076564
  0.8552847732802342  0.1064590583300274  0.2490765101938684
  0.8929236888562982  0.1411085117247995  0.5015643337678356
  0.8931586514557388  0.1414080639049072  0.7491162439742480
  0.3553219625904130  0.1065027488060514  0.0010793678165882
  0.3545826547783714  0.1063197908397585  0.2500946610570847
  0.3932284704345506  0.1412554920723456  0.5008505565377370
  0.3931606369355556  0.1417068992884591  0.7494852928960821
  0.1427872078383810  0.3937320461978306  0.0003012554216301
  0.1419723918042588  0.3934938097895965  0.2504709801733510
  0.1067253248282215  0.3547479524057036  0.5009890908006370
  0.1066219128620058  0.3549981738782694  0.7502425769237435
  0.8555364183803116  0.6064716987532758  0.0011874601784381
  0.8547907992314958  0.6063388666038120  0.2497477371091106
  0.8929844445961301  0.6410740117867977  0.5004046923467901
  0.8930921882426415  0.6415614809349784  0.7499446764322421
  0.6425389071921261  0.3932969804264838  0.9924230340758919
  0.6425612187423739  0.3935817860566644  0.2560373475723536
  0.6068258135657557  0.3552008211411427  0.4999318084211886
  0.6067282005119522  0.3551636382075956  0.7516928258291852
  0.3562681205181484  0.6067835813579185  0.0030794757609422
  0.3554863625273160  0.6063382279353837  0.2493328585185422
  0.3931135507846869  0.6415564234000938  0.5015045858622180
  0.3930985840712936  0.6416125906620385  0.7487573039748709
  0.1421980990036731  0.8929621689795325  0.0000530518186582
  0.1418649767563323  0.8928498903747544  0.2506337545026324
  0.1061561757852329  0.8543980146903691  0.4997773924450584
  0.1063116738917232  0.8546153206962009  0.7509943154120214
  0.6419336165378059  0.8930530230777755  0.0004897763766491
  0.6411578494723758  0.8928306220836943  0.2500391341180390
  0.6062225321629631  0.8542870294746838  0.5003033007199780
  0.6064405857278328  0.8550028234298122  0.7510976210477015
  0.9991183589336760 -0.0048870657750977  0.1250522469962737
  0.0012821286252358  0.0040938959743065  0.3751093757926360
  0.9937050732993281 -0.0066587252245634  0.6251011767759725
  0.0033022624189160  0.0053328451722897  0.8750497842293360
  0.4948113457864918 -0.0029880798728924  0.1251433194938833
  0.4949622597975152  0.9983303392900272  0.3751588599934169
  0.4951313865880979 -0.0043460225056687  0.6251527022453351
  0.4960636472751021  0.0026346479437808  0.8751328910191601
  0.2521405412437556  0.2520132256186748  0.1261109448461861
  0.2480564707707003  0.2482153837163221  0.3760912278822905
  0.2508333283641402  0.2512623387419528  0.6261014320661810
  0.2489640198849540  0.2483617542438102  0.8761314878800593
 -0.0009110262106447  0.4948563696227568  0.1250906093834033
 -0.0029606689461951  0.4966692301268652  0.3751467414318625
  0.9950041581654290  0.4970395106114803  0.6251527028575637
  0.0021467022745884  0.5043575791821512  0.8751053643961743
  0.7474982387406451  0.2555270873125837  0.1258173112472894
  0.7512158584289553  0.2463988964013129  0.3759460900239999
  0.7495284060760710  0.2496901269912715  0.6260177161874833
  0.7504611971482306  0.2396320841619032  0.8758804633608691
  0.5072057824764125  0.4918940965154983  0.1252327719501184
  0.4999573493776672  0.5059332884419920  0.3752139094451561
  0.4953164339494165  0.4956490453087183  0.6252223312621766
  0.4941327812916166  0.5060587798366808  0.8752101025002104
  0.2497045733694744  0.7503552474354288  0.1260538064319891
  0.2502438559222827  0.7486076074396700  0.3760490326720132
  0.2486698636112679  0.7504490524492474  0.6260678032018892
  0.2495689679423401  0.7457836413714716  0.8760732115142520
  0.7505258701391563  0.7504776478998674  0.1260983814769533
  0.7481457117629654  0.7475667400757147  0.3761436394022294
  0.7521995690611247  0.7554981670491332  0.6261350206942985
  0.7487734817627781  0.7467020162708738  0.8760944769896590
 -0.0001843170833946 -0.0001081916330755  0.0001682385714195
 -0.0002935493529395  0.0000614684848710  0.2500536282963732
  0.0001602474135803 -0.0008499388331836  0.5001178838337448
  0.0003577777062084 -0.0008178285058288  0.7502251242063700
  0.4988434263740941  0.0001211696034537  0.0002247727991950
  0.4981616104689077 -0.0004565839554733  0.2501370687715996
  0.4997378105126064 -0.0013520898590502  0.5001936609990838
  0.4999874084453846 -0.0005063287308454  0.7500995382065250
  0.2494902757385132  0.2501480359296259  0.0010241792689541
  0.2492000977507583  0.2500111556317407  0.2509216014381750
  0.2501051713776858  0.2491667313492482  0.5009636187862813
  0.2502777315551351  0.2494960759568527  0.7508236724392220
 -0.0002861259520817  0.4998286263643582  0.0001012983535745
 -0.0013079719331827  0.4991645561114680  0.2501153692234255
  0.0002080884933293  0.4985997797402360  0.5002214729045887
  0.0006085695426802  0.4994083318064771  0.7501325794502951
  0.7493815041043915  0.2498985515266834  0.0002020259236621
  0.7490212972405065  0.2499403059591483  0.2509142128922314
  0.7500737886051779  0.2488110824534051  0.5008707955648370
  0.7501791435661480  0.2487121242385257  0.7508472617574172
  0.4998748868109067  0.4997163774073223  0.0000253437046889
  0.5000278270873710  0.4998452465424769  0.2504677834856744
  0.5002305767680630  0.4996840626659456  0.5002564182231770
  0.4999872838190669  0.4997015509028260  0.7500989432554485
  0.2495698294591912  0.7496488088148158  0.0010057921494203
  0.2490880185595112  0.7494179770966585  0.2508475506777813
  0.2499889919925504  0.7491520869581891  0.5009046417104706
  0.2501183631857495  0.7492081468977616  0.7507049150386141
  0.7494002848107153  0.7498023470910167  0.0009507993762126
  0.7489197256874539  0.7497550823724171  0.2508498462144245
  0.7501829987235383  0.7494946444691731  0.5009374303371890
  0.7504547795094969  0.7501423890390885  0.7510264764305219
 
  0.00000000E+00  0.00000000E+00  0.00000000E+00
  0.00000000E+00  0.00000000E+00  0.00000000E+00
  0.00000000E+00  0.00000000E+00  0.00000000E+00
  0.00000000E+00  0.00000000E+00  0.00000000E+00
  0.00000000E+00  0.00000000E+00  0.00000000E+00
  0.00000000E+00  0.00000000E+00  0.00000000E+00
  0.00000000E+00  0.00000000E+00  0.00000000E+00
  0.00000000E+00  0.00000000E+00  0.00000000E+00
  0.00000000E+00  0.00000000E+00  0.00000000E+00
  0.00000000E+00  0.00000000E+00  0.00000000E+00
  0.00000000E+00  0.00000000E+00  0.00000000E+00
  0.00000000E+00  0.00000000E+00  0.00000000E+00
  0.00000000E+00  0.00000000E+00  0.00000000E+00
  0.00000000E+00  0.00000000E+00  0.00000000E+00
  0.00000000E+00  0.00000000E+00  0.00000000E+00
  0.00000000E+00  0.00000000E+00  0.00000000E+00
  0.00000000E+00  0.00000000E+00  0.00000000E+00
  0.00000000E+00  0.00000000E+00  0.00000000E+00
  0.00000000E+00  0.00000000E+00  0.00000000E+00
  0.00000000E+00  0.00000000E+00  0.00000000E+00
  0.00000000E+00  0.00000000E+00  0.00000000E+00
  0.00000000E+00  0.00000000E+00  0.00000000E+00
  0.00000000E+00  0.00000000E+00  0.00000000E+00
  0.00000000E+00  0.00000000E+00  0.00000000E+00
  0.00000000E+00  0.00000000E+00  0.00000000E+00
  0.00000000E+00  0.00000000E+00  0.00000000E+00
  0.00000000E+00  0.00000000E+00  0.00000000E+00
  0.00000000E+00  0.00000000E+00  0.00000000E+00
  0.00000000E+00  0.00000000E+00  0.00000000E+00
  0.00000000E+00  0.00000000E+00  0.00000000E+00
  0.00000000E+00  0.00000000E+00  0.00000000E+00
  0.00000000E+00  0.00000000E+00  0.00000000E+00
  0.00000000E+00  0.00000000E+00  0.00000000E+00
  0.00000000E+00  0.00000000E+00  0.00000000E+00
  0.00000000E+00  0.00000000E+00  0.00000000E+00
  0.00000000E+00  0.00000000E+00  0.00000000E+00
  0.00000000E+00  0.00000000E+00  0.00000000E+00
  0.00000000E+00  0.00000000E+00  0.00000000E+00
  0.00000000E+00  0.00000000E+00  0.00000000E+00
  0.00000000E+00  0.00000000E+00  0.00000000E+00
  0.00000000E+00  0.00000000E+00  0.00000000E+00
  0.00000000E+00  0.00000000E+00  0.00000000E+00
  0.00000000E+00  0.00000000E+00  0.00000000E+00
  0.00000000E+00  0.00000000E+00  0.00000000E+00
  0.00000000E+00  0.00000000E+00  0.00000000E+00
  0.00000000E+00  0.00000000E+00  0.00000000E+00
  0.00000000E+00  0.00000000E+00  0.00000000E+00
  0.00000000E+00  0.00000000E+00  0.00000000E+00
  0.00000000E+00  0.00000000E+00  0.00000000E+00
  0.00000000E+00  0.00000000E+00  0.00000000E+00
  0.00000000E+00  0.00000000E+00  0.00000000E+00
  0.00000000E+00  0.00000000E+00  0.00000000E+00
  0.00000000E+00  0.00000000E+00  0.00000000E+00
  0.00000000E+00  0.00000000E+00  0.00000000E+00
  0.00000000E+00  0.00000000E+00  0.00000000E+00
  0.00000000E+00  0.00000000E+00  0.00000000E+00
  0.00000000E+00  0.00000000E+00  0.00000000E+00
  0.00000000E+00  0.00000000E+00  0.00000000E+00
  0.00000000E+00  0.00000000E+00  0.00000000E+00
  0.00000000E+00  0.00000000E+00  0.00000000E+00
  0.00000000E+00  0.00000000E+00  0.00000000E+00
  0.00000000E+00  0.00000000E+00  0.00000000E+00
  0.00000000E+00  0.00000000E+00  0.00000000E+00
  0.00000000E+00  0.00000000E+00  0.00000000E+00
  0.00000000E+00  0.00000000E+00  0.00000000E+00
  0.00000000E+00  0.00000000E+00  0.00000000E+00
  0.00000000E+00  0.00000000E+00  0.00000000E+00
  0.00000000E+00  0.00000000E+00  0.00000000E+00
  0.00000000E+00  0.00000000E+00  0.00000000E+00
  0.00000000E+00  0.00000000E+00  0.00000000E+00
  0.00000000E+00  0.00000000E+00  0.00000000E+00
  0.00000000E+00  0.00000000E+00  0.00000000E+00
  0.00000000E+00  0.00000000E+00  0.00000000E+00
  0.00000000E+00  0.00000000E+00  0.00000000E+00
  0.00000000E+00  0.00000000E+00  0.00000000E+00
  0.00000000E+00  0.00000000E+00  0.00000000E+00
  0.00000000E+00  0.00000000E+00  0.00000000E+00
  0.00000000E+00  0.00000000E+00  0.00000000E+00
  0.00000000E+00  0.00000000E+00  0.00000000E+00
  0.00000000E+00  0.00000000E+00  0.00000000E+00
  0.00000000E+00  0.00000000E+00  0.00000000E+00
  0.00000000E+00  0.00000000E+00  0.00000000E+00
  0.00000000E+00  0.00000000E+00  0.00000000E+00
  0.00000000E+00  0.00000000E+00  0.00000000E+00
  0.00000000E+00  0.00000000E+00  0.00000000E+00
  0.00000000E+00  0.00000000E+00  0.00000000E+00
  0.00000000E+00  0.00000000E+00  0.00000000E+00
  0.00000000E+00  0.00000000E+00  0.00000000E+00
  0.00000000E+00  0.00000000E+00  0.00000000E+00
  0.00000000E+00  0.00000000E+00  0.00000000E+00
  0.00000000E+00  0.00000000E+00  0.00000000E+00
  0.00000000E+00  0.00000000E+00  0.00000000E+00
  0.00000000E+00  0.00000000E+00  0.00000000E+00
  0.00000000E+00  0.00000000E+00  0.00000000E+00
  0.00000000E+00  0.00000000E+00  0.00000000E+00
  0.00000000E+00  0.00000000E+00  0.00000000E+00
  0.00000000E+00  0.00000000E+00  0.00000000E+00
  0.00000000E+00  0.00000000E+00  0.00000000E+00
  0.00000000E+00  0.00000000E+00  0.00000000E+00
  0.00000000E+00  0.00000000E+00  0.00000000E+00
  0.00000000E+00  0.00000000E+00  0.00000000E+00
  0.00000000E+00  0.00000000E+00  0.00000000E+00
  0.00000000E+00  0.00000000E+00  0.00000000E+00
  0.00000000E+00  0.00000000E+00  0.00000000E+00
  0.00000000E+00  0.00000000E+00  0.00000000E+00
  0.00000000E+00  0.00000000E+00  0.00000000E+00
  0.00000000E+00  0.00000000E+00  0.00000000E+00
  0.00000000E+00  0.00000000E+00  0.00000000E+00
  0.00000000E+00  0.00000000E+00  0.00000000E+00
  0.00000000E+00  0.00000000E+00  0.00000000E+00
  0.00000000E+00  0.00000000E+00  0.00000000E+00
  0.00000000E+00  0.00000000E+00  0.00000000E+00
  0.00000000E+00  0.00000000E+00  0.00000000E+00
  0.00000000E+00  0.00000000E+00  0.00000000E+00
  0.00000000E+00  0.00000000E+00  0.00000000E+00
  0.00000000E+00  0.00000000E+00  0.00000000E+00
  0.00000000E+00  0.00000000E+00  0.00000000E+00
  0.00000000E+00  0.00000000E+00  0.00000000E+00
  0.00000000E+00  0.00000000E+00  0.00000000E+00
  0.00000000E+00  0.00000000E+00  0.00000000E+00
  0.00000000E+00  0.00000000E+00  0.00000000E+00
  0.00000000E+00  0.00000000E+00  0.00000000E+00
  0.00000000E+00  0.00000000E+00  0.00000000E+00
  0.00000000E+00  0.00000000E+00  0.00000000E+00
  0.00000000E+00  0.00000000E+00  0.00000000E+00
  0.00000000E+00  0.00000000E+00  0.00000000E+00
  0.00000000E+00  0.00000000E+00  0.00000000E+00
  0.00000000E+00  0.00000000E+00  0.00000000E+00
  0.00000000E+00  0.00000000E+00  0.00000000E+00
  0.00000000E+00  0.00000000E+00  0.00000000E+00
  0.00000000E+00  0.00000000E+00  0.00000000E+00
  0.00000000E+00  0.00000000E+00  0.00000000E+00
  0.00000000E+00  0.00000000E+00  0.00000000E+00
  0.00000000E+00  0.00000000E+00  0.00000000E+00
  0.00000000E+00  0.00000000E+00  0.00000000E+00
  0.00000000E+00  0.00000000E+00  0.00000000E+00
  0.00000000E+00  0.00000000E+00  0.00000000E+00
  0.00000000E+00  0.00000000E+00  0.00000000E+00
  0.00000000E+00  0.00000000E+00  0.00000000E+00
  0.00000000E+00  0.00000000E+00  0.00000000E+00
  0.00000000E+00  0.00000000E+00  0.00000000E+00
  0.00000000E+00  0.00000000E+00  0.00000000E+00
  0.00000000E+00  0.00000000E+00  0.00000000E+00
  0.00000000E+00  0.00000000E+00  0.00000000E+00
  0.00000000E+00  0.00000000E+00  0.00000000E+00
  0.00000000E+00  0.00000000E+00  0.00000000E+00
  0.00000000E+00  0.00000000E+00  0.00000000E+00
  0.00000000E+00  0.00000000E+00  0.00000000E+00
  0.00000000E+00  0.00000000E+00  0.00000000E+00
  0.00000000E+00  0.00000000E+00  0.00000000E+00
  0.00000000E+00  0.00000000E+00  0.00000000E+00
  0.00000000E+00  0.00000000E+00  0.00000000E+00
  0.00000000E+00  0.00000000E+00  0.00000000E+00
  0.00000000E+00  0.00000000E+00  0.00000000E+00
  0.00000000E+00  0.00000000E+00  0.00000000E+00
  0.00000000E+00  0.00000000E+00  0.00000000E+00
  0.00000000E+00  0.00000000E+00  0.00000000E+00
  0.00000000E+00  0.00000000E+00  0.00000000E+00
  0.00000000E+00  0.00000000E+00  0.00000000E+00
  0.00000000E+00  0.00000000E+00  0.00000000E+00
