Li Ga  I                                
   1.00000000000000     
    11.5986510000000003  -11.5986510000000003    0.0000000000000000
    11.5986510000000003   11.5986510000000003    0.0000000000000000
     0.0000000000000000    0.0000000000000000   23.1973009999999995
   Li   Ga   I 
    32    32    96
Direct
  0.9387485344156715  0.1387625411959736  0.0173783586709073
  0.0205005644375696  0.9410966829690348  0.1709009920946394
  0.0475158438984188  0.8967595320293845  0.5861428304932472
  0.9310611459049486  0.0169542119574541  0.6932545100265147
  0.3789723080684473  0.0971048380810241  0.0905501444048581
  0.5894465573518903  0.1323281919467533  0.2327614931067337
  0.6006466874676609  0.8366980806302035  0.5339849903107886
  0.4869463191062980  0.0471605583271395  0.6388296189462861
  0.2482472414731462  0.4135261304886060  0.8255991671923497
  0.3464865091490245  0.2872265994610079  0.2113057585865606
  0.2864854187620683  0.1880606911963051  0.3505070597010966
  0.1152889593920419  0.2590400283142847  0.7750526276356076
  0.1059530244907258  0.7557819266762297  0.0291100437150245
  0.9896615731135078  0.5274878621619071  0.2936088627824568
  0.0849837418449177  0.3765252380312060  0.4637818052253456
  0.8940230481465709  0.2340171774709660  0.7460168119703542
  0.7108579782613378  0.2739401884172379  0.0493074988775967
  0.7980692453338443  0.2619605024203556  0.2498481773994320
  0.8316704022521941  0.1813591445302715  0.4728761929219079
  0.7368071428344027  0.1803882483869551  0.6573167071047639
  0.3188545321113597  0.4093549944200165  0.0089497280539460
  0.4011505151156091  0.5558977168866769  0.2697074895276902
  0.6183717219794052  0.4267213320554395  0.5113144808993745
  0.6259323249085297  0.6277928141118839  0.7948857170870059
  0.2912310478846434  0.8079532472648933  0.1759986965086685
  0.3779866927055988  0.9654062262475085  0.2821172799528694
  0.1156173777962137  0.6368895919846891  0.5560496182528477
  0.2392301480144377  0.8363264891313215  0.6592266308579539
  0.6175420943181420  0.7906052858952177  0.9969246719493371
  0.7611185370700525  0.7817095892043514  0.1975270848354623
  0.8761417701826247  0.6894173877599044  0.6463220784847759
  0.9155257780054458  0.6091145596761411  0.7754795690918599
  0.0102764380058447  0.2728104863508066  0.1612590099083982
  0.0528799831521153  0.1708797406356099  0.3832095955978589
  0.0475722262381032  0.2921809295761183  0.6212537365427425
  0.0464456367809374  0.2328011074524864  0.9076620163859215
  0.4882848143740549  0.2898052959174521  0.1430750507224521
  0.5146780655608232  0.2875469738643032  0.3507760667538315
  0.5080957182128669  0.2998940309310172  0.6124289392092718
  0.4537065387758524  0.2431178442622424  0.8930362669728225
  0.1953459346467721  0.5216371114118280  0.1692762934711312
  0.2059983423997099  0.5277079399508824  0.4157044407566434
  0.2857608457583384  0.5030543976540699  0.6497604939418234
  0.2824182680476508  0.5763425058738934  0.9227597041557463
  0.9651754748345999  0.7056340631056367  0.1499745826794954
  0.0017814543302176  0.7028885785366101  0.4119082474984215
  0.0197815530020285  0.7471539066453652  0.7000068402078814
  0.9911458593566550  0.7914569093547261  0.9010527839539765
  0.6981236599293760  0.4601629932436234  0.1682892948523541
  0.7384003834642278  0.4292976220559570  0.3940244191246202
  0.7904940144978397  0.4781473921953623  0.6650382264577905
  0.7634878751479907  0.4439954396328388  0.8764684806000905
  0.5397257235839484  0.6915466100527630  0.1302358126485878
  0.5046236737457563  0.7508464232871652  0.3866488691918200
  0.4785637953490315  0.6733623655845543  0.6311003946909244
  0.5124134902637814  0.8816860313600839  0.8780231091871150
  0.1936670923906116  0.0263279000770225  0.1234512150427760
  0.1545491610941081  0.9516593359681655  0.3462303338111336
  0.2773939376734357  0.0451105385238977  0.5829876775487584
  0.2450530953343741  0.0115231237934553  0.8800845262349194
  0.7267848693353192  0.9749597809136892  0.0904049995790776
  0.7538676243640857  0.0156674600264303  0.3170064923660355
  0.7778707994840225  0.9609591523816579  0.5817402476875909
  0.7670790647104648  0.0104881571780322  0.8988828418368134
  0.0415578652591608  0.2834348476122227  0.0125472922514029
  0.9601064198431815  0.2632163901285907  0.2859891467221329
  0.9749941303616365  0.2596856140017571  0.4876216924751718
  0.0385408781635858  0.1520626282251448  0.7107884270108137
  0.3819318361007887  0.2559472731671029  0.9942993669889713
  0.6177868437266560  0.3022498766285404  0.2420966183666339
  0.5437310610998353  0.2698855887299600  0.5048185261043362
  0.5637289453846076  0.1895724413545305  0.6853788400878331
  0.1823121159153343  0.4532805374826422  0.9420656267289086
  0.2546398210620160  0.6328121965475583  0.2377538562777342
  0.1690069117104703  0.4704331631954587  0.5459107125301215
  0.2828473414055829  0.5828001629669274  0.8120420496569952
  0.9502602544752229  0.7114055906031450  0.9945031581717282
  0.0066061281780725  0.6898180689360827  0.2778572079654917
  0.9791171000668152  0.7442797718666048  0.5590044269261090
  0.0633074182568599  0.6883178973417373  0.8308697310372053
  0.8062476951259058  0.3542593052500390  0.9624522241338402
  0.7996998611371375  0.5006907664432733  0.3054392891178523
  0.7841090303914148  0.4738406328797301  0.4964846946518131
  0.7640688245814573  0.6536247309681663  0.7342797348254675
  0.5049987556518188  0.9206589959248547  0.9861149710221980
  0.5517944216391926  0.5975714088143398  0.2208522702005329
  0.4575023630870987  0.8431690020344297  0.4709883337146081
  0.4865912297064325  0.5959113860607483  0.7287902399778008
  0.2747905700789096  0.0224129643754328  0.0043667476829686
  0.0966374875396823  0.0364373291804364  0.2615657778787431
  0.2181013982493303  0.9031904761517245  0.5485323800696768
  0.3221349767570080  0.0343437507863864  0.6904746893007631
  0.7586374584359330  0.8743030515746304  0.9860993516794041
  0.7702089362613386  0.0930205534380734  0.2188400949191732
  0.7568496836215429  0.8681247150251762  0.4926934881699737
  0.7976770533984637  0.0973809514052234  0.7483550227825543
  0.9985562569138193  0.0908552633364957  0.1196302549763464
  0.2506102187708769  0.0462592345429073  0.4065612146996021
  0.1748034115472864  0.1565292541234900  0.5573554504592433
  0.1969273259265888  0.2130277856844449  0.8729034203314743
  0.5483693554606215  0.1254946644501756  0.1149319355668083
  0.6089692631528582  0.0591477559819868  0.3486991753931801
  0.7204346811106175  0.1107859921404726  0.5478371345560712
  0.6073260290919222  0.2328390227983418  0.9045356165478378
  0.3241793579593085  0.4465097798649722  0.1282678201590313
  0.3821745014650370  0.3943378583129491  0.2986614172714467
  0.3563418744954906  0.3158708679658330  0.6322607348982101
  0.4119349840206797  0.3618093420483355  0.8244143458516299
  0.1032101745924424  0.5698981060491034  0.0870582458017339
  0.1780224199368134  0.6972407558415755  0.4541893574714753
  0.1807625774579834  0.6800457686336814  0.6640090165426411
  0.2437682476677757  0.7174178292075645  0.9618515057444922
  0.8265239372432222  0.3229312664596496  0.1385339413325557
  0.7453305038091707  0.2703694202809190  0.3870370027189282
  0.8533664243711685  0.2997476262672648  0.6364050557466967
  0.7602730278800932  0.3676537283364588  0.7778084298532303
  0.6197401784641567  0.6315280983749980  0.0442512809161269
  0.6491820185061709  0.6977637900833431  0.4023914910970330
  0.6228878610647539  0.6859457238230525  0.5864828129929461
  0.5728211032537318  0.7331848826633640  0.8839168786466746
  0.3680894929066112  0.9559012903071230  0.1652614169877755
  0.2565619871441445  0.8423034384267217  0.3108825882270149
  0.4141093644416696  0.8139347960984227  0.6553600973905058
  0.3680018380401764  0.8680957181103753  0.8345390506377202
  0.8755373580685401  0.8744498566014838  0.1437771984772244
  0.7728546470890146  0.8606236619425293  0.3094061453252354
  0.8287880077200291  0.8732258102692314  0.6726277877924075
  0.8807877206224701  0.8581741990355607  0.8377260511505241
  0.7743185587159630  0.1235377642028171  0.0188613947884384
  0.8660547449094792  0.0619002673381925  0.3888403996175473
  0.9376639299990276  0.0233256838382161  0.5684733518790264
  0.9700298017850705  0.0956886842522294  0.9001438857568853
  0.2567750787108284  0.2033873193609372  0.1347199314968190
  0.4075563510087211  0.1451514236291314  0.2791475567086021
  0.4159684417753782  0.0698426802359501  0.5311157605952957
  0.4048023506543024  0.1075623743985852  0.8457807483276039
  0.1121770370706379  0.4259978301848683  0.2359902239349857
  0.1855580513730910  0.3016393039614612  0.3866141878557205
  0.1678295607164699  0.3900874138152410  0.7221418536883584
  0.9854867572265243  0.3369134795304797  0.8353887000123609
  0.8026691216878679  0.6253072656963140  0.1696828024936561
  0.0172764217629148  0.5061551736409394  0.4081212783709166
  0.9624822460435600  0.5378677111063618  0.6728937971373594
  0.8765528741491487  0.5534558649737849  0.8821481148154388
  0.5881866972845637  0.3831888232750661  0.0675562742550261
  0.5818860517184435  0.4639062250152285  0.3940154652401806
  0.5950059014801302  0.4303678720459930  0.6296507880835683
  0.6201847264649641  0.5075802046312896  0.8836738844677094
  0.3916246510386694  0.7145765004742091  0.0975807050318515
  0.4013443647645336  0.6290185572400291  0.3790870561694095
  0.3943704909044641  0.5945628939211538  0.5553406760990018
  0.4185281190402857  0.5312581098196251  0.9678118173089242
  0.1359735171364078  0.8276737724917310  0.1327973074620058
  0.0401360828160820  0.8989290371090295  0.4108538929142897
  0.0904213013965872  0.9099983200610371  0.7042481225673016
  0.0926400476399472  0.8951880359334463  0.9454824393772155
  0.6112152487158037  0.8333836113185737  0.1458742355448367
  0.4972385624732670  0.8358496828641416  0.2921350741809220
  0.6144800736154515  0.9376983006199204  0.6293211519292555
  0.6124556694119817  0.9672173987223591  0.8178475506095950
 
  0.00000000E+00  0.00000000E+00  0.00000000E+00
  0.00000000E+00  0.00000000E+00  0.00000000E+00
  0.00000000E+00  0.00000000E+00  0.00000000E+00
  0.00000000E+00  0.00000000E+00  0.00000000E+00
  0.00000000E+00  0.00000000E+00  0.00000000E+00
  0.00000000E+00  0.00000000E+00  0.00000000E+00
  0.00000000E+00  0.00000000E+00  0.00000000E+00
  0.00000000E+00  0.00000000E+00  0.00000000E+00
  0.00000000E+00  0.00000000E+00  0.00000000E+00
  0.00000000E+00  0.00000000E+00  0.00000000E+00
  0.00000000E+00  0.00000000E+00  0.00000000E+00
  0.00000000E+00  0.00000000E+00  0.00000000E+00
  0.00000000E+00  0.00000000E+00  0.00000000E+00
  0.00000000E+00  0.00000000E+00  0.00000000E+00
  0.00000000E+00  0.00000000E+00  0.00000000E+00
  0.00000000E+00  0.00000000E+00  0.00000000E+00
  0.00000000E+00  0.00000000E+00  0.00000000E+00
  0.00000000E+00  0.00000000E+00  0.00000000E+00
  0.00000000E+00  0.00000000E+00  0.00000000E+00
  0.00000000E+00  0.00000000E+00  0.00000000E+00
  0.00000000E+00  0.00000000E+00  0.00000000E+00
  0.00000000E+00  0.00000000E+00  0.00000000E+00
  0.00000000E+00  0.00000000E+00  0.00000000E+00
  0.00000000E+00  0.00000000E+00  0.00000000E+00
  0.00000000E+00  0.00000000E+00  0.00000000E+00
  0.00000000E+00  0.00000000E+00  0.00000000E+00
  0.00000000E+00  0.00000000E+00  0.00000000E+00
  0.00000000E+00  0.00000000E+00  0.00000000E+00
  0.00000000E+00  0.00000000E+00  0.00000000E+00
  0.00000000E+00  0.00000000E+00  0.00000000E+00
  0.00000000E+00  0.00000000E+00  0.00000000E+00
  0.00000000E+00  0.00000000E+00  0.00000000E+00
  0.00000000E+00  0.00000000E+00  0.00000000E+00
  0.00000000E+00  0.00000000E+00  0.00000000E+00
  0.00000000E+00  0.00000000E+00  0.00000000E+00
  0.00000000E+00  0.00000000E+00  0.00000000E+00
  0.00000000E+00  0.00000000E+00  0.00000000E+00
  0.00000000E+00  0.00000000E+00  0.00000000E+00
  0.00000000E+00  0.00000000E+00  0.00000000E+00
  0.00000000E+00  0.00000000E+00  0.00000000E+00
  0.00000000E+00  0.00000000E+00  0.00000000E+00
  0.00000000E+00  0.00000000E+00  0.00000000E+00
  0.00000000E+00  0.00000000E+00  0.00000000E+00
  0.00000000E+00  0.00000000E+00  0.00000000E+00
  0.00000000E+00  0.00000000E+00  0.00000000E+00
  0.00000000E+00  0.00000000E+00  0.00000000E+00
  0.00000000E+00  0.00000000E+00  0.00000000E+00
  0.00000000E+00  0.00000000E+00  0.00000000E+00
  0.00000000E+00  0.00000000E+00  0.00000000E+00
  0.00000000E+00  0.00000000E+00  0.00000000E+00
  0.00000000E+00  0.00000000E+00  0.00000000E+00
  0.00000000E+00  0.00000000E+00  0.00000000E+00
  0.00000000E+00  0.00000000E+00  0.00000000E+00
  0.00000000E+00  0.00000000E+00  0.00000000E+00
  0.00000000E+00  0.00000000E+00  0.00000000E+00
  0.00000000E+00  0.00000000E+00  0.00000000E+00
  0.00000000E+00  0.00000000E+00  0.00000000E+00
  0.00000000E+00  0.00000000E+00  0.00000000E+00
  0.00000000E+00  0.00000000E+00  0.00000000E+00
  0.00000000E+00  0.00000000E+00  0.00000000E+00
  0.00000000E+00  0.00000000E+00  0.00000000E+00
  0.00000000E+00  0.00000000E+00  0.00000000E+00
  0.00000000E+00  0.00000000E+00  0.00000000E+00
  0.00000000E+00  0.00000000E+00  0.00000000E+00
  0.00000000E+00  0.00000000E+00  0.00000000E+00
  0.00000000E+00  0.00000000E+00  0.00000000E+00
  0.00000000E+00  0.00000000E+00  0.00000000E+00
  0.00000000E+00  0.00000000E+00  0.00000000E+00
  0.00000000E+00  0.00000000E+00  0.00000000E+00
  0.00000000E+00  0.00000000E+00  0.00000000E+00
  0.00000000E+00  0.00000000E+00  0.00000000E+00
  0.00000000E+00  0.00000000E+00  0.00000000E+00
  0.00000000E+00  0.00000000E+00  0.00000000E+00
  0.00000000E+00  0.00000000E+00  0.00000000E+00
  0.00000000E+00  0.00000000E+00  0.00000000E+00
  0.00000000E+00  0.00000000E+00  0.00000000E+00
  0.00000000E+00  0.00000000E+00  0.00000000E+00
  0.00000000E+00  0.00000000E+00  0.00000000E+00
  0.00000000E+00  0.00000000E+00  0.00000000E+00
  0.00000000E+00  0.00000000E+00  0.00000000E+00
  0.00000000E+00  0.00000000E+00  0.00000000E+00
  0.00000000E+00  0.00000000E+00  0.00000000E+00
  0.00000000E+00  0.00000000E+00  0.00000000E+00
  0.00000000E+00  0.00000000E+00  0.00000000E+00
  0.00000000E+00  0.00000000E+00  0.00000000E+00
  0.00000000E+00  0.00000000E+00  0.00000000E+00
  0.00000000E+00  0.00000000E+00  0.00000000E+00
  0.00000000E+00  0.00000000E+00  0.00000000E+00
  0.00000000E+00  0.00000000E+00  0.00000000E+00
  0.00000000E+00  0.00000000E+00  0.00000000E+00
  0.00000000E+00  0.00000000E+00  0.00000000E+00
  0.00000000E+00  0.00000000E+00  0.00000000E+00
  0.00000000E+00  0.00000000E+00  0.00000000E+00
  0.00000000E+00  0.00000000E+00  0.00000000E+00
  0.00000000E+00  0.00000000E+00  0.00000000E+00
  0.00000000E+00  0.00000000E+00  0.00000000E+00
  0.00000000E+00  0.00000000E+00  0.00000000E+00
  0.00000000E+00  0.00000000E+00  0.00000000E+00
  0.00000000E+00  0.00000000E+00  0.00000000E+00
  0.00000000E+00  0.00000000E+00  0.00000000E+00
  0.00000000E+00  0.00000000E+00  0.00000000E+00
  0.00000000E+00  0.00000000E+00  0.00000000E+00
  0.00000000E+00  0.00000000E+00  0.00000000E+00
  0.00000000E+00  0.00000000E+00  0.00000000E+00
  0.00000000E+00  0.00000000E+00  0.00000000E+00
  0.00000000E+00  0.00000000E+00  0.00000000E+00
  0.00000000E+00  0.00000000E+00  0.00000000E+00
  0.00000000E+00  0.00000000E+00  0.00000000E+00
  0.00000000E+00  0.00000000E+00  0.00000000E+00
  0.00000000E+00  0.00000000E+00  0.00000000E+00
  0.00000000E+00  0.00000000E+00  0.00000000E+00
  0.00000000E+00  0.00000000E+00  0.00000000E+00
  0.00000000E+00  0.00000000E+00  0.00000000E+00
  0.00000000E+00  0.00000000E+00  0.00000000E+00
  0.00000000E+00  0.00000000E+00  0.00000000E+00
  0.00000000E+00  0.00000000E+00  0.00000000E+00
  0.00000000E+00  0.00000000E+00  0.00000000E+00
  0.00000000E+00  0.00000000E+00  0.00000000E+00
  0.00000000E+00  0.00000000E+00  0.00000000E+00
  0.00000000E+00  0.00000000E+00  0.00000000E+00
  0.00000000E+00  0.00000000E+00  0.00000000E+00
  0.00000000E+00  0.00000000E+00  0.00000000E+00
  0.00000000E+00  0.00000000E+00  0.00000000E+00
  0.00000000E+00  0.00000000E+00  0.00000000E+00
  0.00000000E+00  0.00000000E+00  0.00000000E+00
  0.00000000E+00  0.00000000E+00  0.00000000E+00
  0.00000000E+00  0.00000000E+00  0.00000000E+00
  0.00000000E+00  0.00000000E+00  0.00000000E+00
  0.00000000E+00  0.00000000E+00  0.00000000E+00
  0.00000000E+00  0.00000000E+00  0.00000000E+00
  0.00000000E+00  0.00000000E+00  0.00000000E+00
  0.00000000E+00  0.00000000E+00  0.00000000E+00
  0.00000000E+00  0.00000000E+00  0.00000000E+00
  0.00000000E+00  0.00000000E+00  0.00000000E+00
  0.00000000E+00  0.00000000E+00  0.00000000E+00
  0.00000000E+00  0.00000000E+00  0.00000000E+00
  0.00000000E+00  0.00000000E+00  0.00000000E+00
  0.00000000E+00  0.00000000E+00  0.00000000E+00
  0.00000000E+00  0.00000000E+00  0.00000000E+00
  0.00000000E+00  0.00000000E+00  0.00000000E+00
  0.00000000E+00  0.00000000E+00  0.00000000E+00
  0.00000000E+00  0.00000000E+00  0.00000000E+00
  0.00000000E+00  0.00000000E+00  0.00000000E+00
  0.00000000E+00  0.00000000E+00  0.00000000E+00
  0.00000000E+00  0.00000000E+00  0.00000000E+00
  0.00000000E+00  0.00000000E+00  0.00000000E+00
  0.00000000E+00  0.00000000E+00  0.00000000E+00
  0.00000000E+00  0.00000000E+00  0.00000000E+00
  0.00000000E+00  0.00000000E+00  0.00000000E+00
  0.00000000E+00  0.00000000E+00  0.00000000E+00
  0.00000000E+00  0.00000000E+00  0.00000000E+00
  0.00000000E+00  0.00000000E+00  0.00000000E+00
  0.00000000E+00  0.00000000E+00  0.00000000E+00
  0.00000000E+00  0.00000000E+00  0.00000000E+00
  0.00000000E+00  0.00000000E+00  0.00000000E+00
  0.00000000E+00  0.00000000E+00  0.00000000E+00
  0.00000000E+00  0.00000000E+00  0.00000000E+00
  0.00000000E+00  0.00000000E+00  0.00000000E+00
  0.00000000E+00  0.00000000E+00  0.00000000E+00
  0.00000000E+00  0.00000000E+00  0.00000000E+00
