Sn Br In                                
   1.00000000000000     
    11.6312270000000009  -11.6312270000000009    0.0000000000000000
    11.6312270000000009   11.6312270000000009    0.0000000000000000
     0.0000000000000000    0.0000000000000000   23.2624530000000007
   Br   In   Sn
    96    32    32
Direct
  0.0241746664922438  0.1999960044529567  0.0048070479026304
  0.9999182850339106  0.2835103731574312  0.2535697659287688
  0.9499082719764459  0.2133440494464789  0.5047154137789107
  0.0108006768616520  0.2965334924610779  0.7528942481170808
  0.4418836930311793  0.2269412417412581  0.0110223690491749
  0.5452119032427472  0.2589761574136119  0.2602387137382720
  0.4502318360762093  0.2293171703102271  0.5108287554623688
  0.5490452373768008  0.2322174018924445  0.7604910002569769
  0.3125597933336738  0.5036268939277413  0.0035211298216088
  0.1951862561064057  0.5265716429610683  0.2573253589183465
  0.3239067200802930  0.5034560278764498  0.5042512975714951
  0.1927621179321899  0.4955219924463587  0.7523116398247915
  0.9470424205654905  0.7315434200404513  0.0108327383119200
  0.0517180435061802  0.7668549367502214  0.2583429026592139
  0.9515636567976475  0.7256943548995689  0.5097642423866530
  0.0545661156556992  0.7252959653213294  0.7628431302298667
  0.7774945870588778  0.5171274151308409  0.0086639970029382
  0.6793534053773833  0.5222129569203073  0.2569470711705045
  0.8071115309484922  0.4814580590575449  0.5030413673097105
  0.7168589345048906  0.4736392629121852  0.7531382646567301
  0.4708411600935860  0.7123922312785868  0.9949448865766461
  0.4889738260448727  0.7872072828936113  0.2465974312925839
  0.4858506861235040  0.7224245823571230  0.5002950070801138
  0.4916678167169221  0.8198269638179071  0.7462809345144013
  0.2355439891400423  0.0512031473602632  0.9890935744043301
  0.2511754338177561  0.9862069417955951  0.2467146307976639
  0.2128941021025468  0.0505050849636773  0.5013475017325718
  0.2426076372545594  0.9325131609234502  0.7446233042763463
  0.8188412009548993  0.9721702469296115  0.0022953558028751
  0.6856024810474899  0.0035581243847016  0.2496853870242924
  0.8132660809120428  0.9641856005787657  0.5026874163170174
  0.6904189314706051  0.9862841123453597  0.7546868775073153
  0.1820425819224620  0.1597126959034528  0.1396852783344491
  0.1663713310158442  0.1660626792440053  0.3539746507527282
  0.1618868711361191  0.1321958917356836  0.6606851200531615
  0.0963230513316504  0.1159032537723190  0.8460696057268198
  0.6583199170292344  0.1390847963488471  0.0667720512499836
  0.6379032142567711  0.1493299797443607  0.4043380651447738
  0.6604192600027573  0.1290095578514681  0.5789629528499557
  0.5850169070775725  0.1041430733529155  0.8954447751970929
  0.3722645727442423  0.3461217581032471  0.1511307752603065
  0.3453443367151019  0.3616315923984586  0.3349503233076355
  0.3567902750598538  0.3212330411902398  0.6527654691888463
  0.3875618103227904  0.4051290605877198  0.8307121416490008
  0.1462825457455537  0.6337768078358987  0.0850205869207060
  0.1508546734082117  0.6719596064406020  0.3957702263208119
  0.1615139401454593  0.6344116696260083  0.5971645562149166
  0.0847823631247789  0.5986887469883784  0.9027458708309838
  0.8730775249620066  0.3539371070476181  0.1164494345862366
  0.8382829697142204  0.3289013710440963  0.3670444622512654
  0.8284994084473484  0.3106345952309618  0.6360505706489501
  0.8638981812792712  0.4012775495110008  0.8726523134826811
  0.6544661596300734  0.6550709319650529  0.1144821180866603
  0.6605175494467389  0.6437123422947011  0.4093077306366327
  0.6566917314828422  0.6311899890438216  0.6054676130266918
  0.5692666795686717  0.6153795964359716  0.8278448604875079
  0.3179239078832121  0.8138944792642351  0.1094455769860844
  0.3492927702638057  0.8374339306849060  0.3841571896826826
  0.3438940527513564  0.8244657865502258  0.6074027728388326
  0.4006589075427468  0.9250869842074390  0.8979585537987697
  0.8577195287392633  0.8459049542864435  0.1483833870023160
  0.8410512974625459  0.8563875156821871  0.3264497261339854
  0.8398684831996223  0.8127789998177239  0.6452485805345609
  0.8816904511918889  0.8948317915419766  0.8270616559445213
  0.9066617352115827  0.1154215156511449  0.1489384597601605
  0.8804956751512560  0.0976994913012796  0.3275825473913536
  0.9207716968780463  0.0915411169404903  0.6491700298086804
  0.8581657876874890  0.1525166401856485  0.8568740461845666
  0.4275471082054355  0.0927638873931690  0.1513008137354027
  0.4063816107449463  0.1075975198025923  0.3647195685878219
  0.4233118157540500  0.0812516314737518  0.6406708813216740
  0.3424098180445108  0.1415824639184244  0.8356168710399868
  0.1242859685562774  0.3957527177576838  0.0820642383179534
  0.0689155886647730  0.4040470399308091  0.3908240813189234
  0.1297331400605621  0.3909531939051860  0.5764475830042770
  0.1689181435650858  0.3495542190028302  0.8900042587110494
  0.9215110913631381  0.6046726714861732  0.1521723618585337
  0.9233916983245677  0.6059534192040438  0.3633154405487389
  0.9297669091520461  0.5761011166399841  0.6433980446418469
  0.8462522994777066  0.6417642067640126  0.8397440399581108
  0.6243033259957421  0.3993111412872427  0.1052827390986548
  0.6089753141626720  0.4082583855955916  0.4019237484587043
  0.6172316627607414  0.3943947408170645  0.5936882171762708
  0.6315635045568336  0.3528129354883345  0.8951296382394249
  0.4209107600857713  0.5959695307404003  0.1429067724476910
  0.3810630394096657  0.5988282146550173  0.3482295924946577
  0.4094333418501084  0.6098784468772327  0.6614846966621933
  0.3318589501902343  0.6818202763258153  0.8459877861748478
  0.0893054404874081  0.9373578553966936  0.1133047552348309
  0.0682386200265371  0.9467968112423406  0.3830386795200872
  0.0978264916973609  0.9052199355406277  0.6150512044672342
  0.1370086340582360  0.8475088281255944  0.9136131879710668
  0.6275852514900061  0.8946933287944911  0.0996659940279764
  0.5833667005079014  0.8998829387726121  0.3881836144364744
  0.6185291983081994  0.8935340455082647  0.5835788228857248
  0.6648477447706223  0.8443120479639064  0.8931500898889080
  0.0444199879135268  0.0045466440680303  0.9867804703651512
  0.9812902893668937  0.9561857229794498  0.2516588853400263
  0.0057969272377154  0.0194314540651864  0.5165714800246600
  0.0457579033966194  0.9983714918466498  0.7346071806037041
  0.5038093891181522  0.0439578323020716  0.0115373811969010
  0.4858979832429790  0.9818299923153455  0.2740069382510921
  0.5274563119528424  0.0460627247844948  0.4966686761067503
  0.4965302207402640  0.0283463150839698  0.7770992934562884
  0.2227390209354582  0.2479921339631485  0.0139818894215374
  0.3018569678064298  0.1892152007588274  0.2527613347019089
  0.2542371011380892  0.2373022023788097  0.5529999549262338
  0.2189880817523218  0.2690792624440362  0.7672903069714601
  0.9854295840017641  0.5370754625909266  0.0265843472554256
  0.0074476396223401  0.4850949852558830  0.2721073419568756
  0.9970999009643285  0.5359770295083364  0.4977656695787318
  0.9978014719827641  0.5335289559926751  0.7782216967418706
  0.7511562427371282  0.3227210818781951  0.0111113201373890
  0.8134314473322526  0.2341664388847284  0.2432962251168738
  0.7510268124696717  0.2879108359341812  0.4982853861657373
  0.7507547815837696  0.2855427899831778  0.7868521885100448
  0.5046624057472103  0.5315594768070212  0.0287040332509266
  0.4819354085450960  0.4437433698332834  0.2496849765941896
  0.5452066276032093  0.5339815559829006  0.5039791776710626
  0.5135656970739759  0.4817650760562552  0.7399584563062831
  0.2681773551667260  0.7187481100921492  0.9846687852166024
  0.2607908750969749  0.7260978421128609  0.2855560632249661
  0.2915965500771330  0.7057516191621725  0.4965943562644874
  0.2523562689267352  0.7275226884387549  0.7197441984586482
  0.7502801181017108  0.7878292799634493  0.0206376202155416
  0.6967747218976510  0.8029523705818553  0.2191530983579371
  0.7459922284721707  0.7667803354890187  0.5233581650202465
  0.7376470832919274  0.7875617296686799  0.7708626973526406
  0.0090972735912464  0.2469591892275399  0.1228003245733844
  0.9903604435916946  0.2536169155787140  0.3754613311564024
  0.9810530518986685  0.2448810011266767  0.6260887345157399
  0.9955461529514638  0.2487297941474328  0.8685491917043677
  0.5020045541265418  0.2416206920346669  0.1249310076954453
  0.5058334981586723  0.2487560287652997  0.3781188167834443
  0.4988610006353401  0.2311994737656630  0.6275206942174221
  0.4961976555009565  0.2487869952534359  0.8745822207089491
  0.2482765891881819  0.5016391565003787  0.1144037630253866
  0.2509570886564875  0.4927367965521753  0.3695796872020048
  0.2533829443020296  0.4917527262593805  0.6134737072293117
  0.2513806388680101  0.4946485568425921  0.8646922969927010
  0.9994115272744533  0.7498687236223375  0.1268029038050576
  0.0029249111670065  0.7544940002331679  0.3739939417072079
  0.9897392728692028  0.7325669667789049  0.6275876602566460
  0.0064662451416427  0.7464243840707204  0.8794288748350552
  0.7474944622821015  0.5151918100670524  0.1307796144416503
  0.7397761191347308  0.5075224339754359  0.3688634920323166
  0.7551744566115753  0.4889924625124056  0.6199288643236174
  0.7387772896955388  0.5154210749099636  0.8698016200499129
  0.4737238368236369  0.7531712198078766  0.1183934063894138
  0.4961984542812455  0.7543735974627954  0.3745450968843939
  0.4949262442758234  0.7503332227353596  0.6291653793820171
  0.4842455097268819  0.7557589033032616  0.8606700303027167
  0.2456850155770139  0.0002493071399169  0.1271174241981716
  0.2241733563955884  0.0157032183274334  0.3821941819011546
  0.2486687123447694  0.9882487728745847  0.6291835080860134
  0.2557366052670736  0.0013238132289725  0.8719091588081479
  0.7561083651654930  0.0126566090698854  0.1091650193396002
  0.7506392835153740  0.9932887295249523  0.3605602720199742
  0.7503216433454782  0.9917280254448009  0.6127956719047529
  0.7534405728994517  0.9894806386809886  0.8672619468369694
 
  0.00000000E+00  0.00000000E+00  0.00000000E+00
  0.00000000E+00  0.00000000E+00  0.00000000E+00
  0.00000000E+00  0.00000000E+00  0.00000000E+00
  0.00000000E+00  0.00000000E+00  0.00000000E+00
  0.00000000E+00  0.00000000E+00  0.00000000E+00
  0.00000000E+00  0.00000000E+00  0.00000000E+00
  0.00000000E+00  0.00000000E+00  0.00000000E+00
  0.00000000E+00  0.00000000E+00  0.00000000E+00
  0.00000000E+00  0.00000000E+00  0.00000000E+00
  0.00000000E+00  0.00000000E+00  0.00000000E+00
  0.00000000E+00  0.00000000E+00  0.00000000E+00
  0.00000000E+00  0.00000000E+00  0.00000000E+00
  0.00000000E+00  0.00000000E+00  0.00000000E+00
  0.00000000E+00  0.00000000E+00  0.00000000E+00
  0.00000000E+00  0.00000000E+00  0.00000000E+00
  0.00000000E+00  0.00000000E+00  0.00000000E+00
  0.00000000E+00  0.00000000E+00  0.00000000E+00
  0.00000000E+00  0.00000000E+00  0.00000000E+00
  0.00000000E+00  0.00000000E+00  0.00000000E+00
  0.00000000E+00  0.00000000E+00  0.00000000E+00
  0.00000000E+00  0.00000000E+00  0.00000000E+00
  0.00000000E+00  0.00000000E+00  0.00000000E+00
  0.00000000E+00  0.00000000E+00  0.00000000E+00
  0.00000000E+00  0.00000000E+00  0.00000000E+00
  0.00000000E+00  0.00000000E+00  0.00000000E+00
  0.00000000E+00  0.00000000E+00  0.00000000E+00
  0.00000000E+00  0.00000000E+00  0.00000000E+00
  0.00000000E+00  0.00000000E+00  0.00000000E+00
  0.00000000E+00  0.00000000E+00  0.00000000E+00
  0.00000000E+00  0.00000000E+00  0.00000000E+00
  0.00000000E+00  0.00000000E+00  0.00000000E+00
  0.00000000E+00  0.00000000E+00  0.00000000E+00
  0.00000000E+00  0.00000000E+00  0.00000000E+00
  0.00000000E+00  0.00000000E+00  0.00000000E+00
  0.00000000E+00  0.00000000E+00  0.00000000E+00
  0.00000000E+00  0.00000000E+00  0.00000000E+00
  0.00000000E+00  0.00000000E+00  0.00000000E+00
  0.00000000E+00  0.00000000E+00  0.00000000E+00
  0.00000000E+00  0.00000000E+00  0.00000000E+00
  0.00000000E+00  0.00000000E+00  0.00000000E+00
  0.00000000E+00  0.00000000E+00  0.00000000E+00
  0.00000000E+00  0.00000000E+00  0.00000000E+00
  0.00000000E+00  0.00000000E+00  0.00000000E+00
  0.00000000E+00  0.00000000E+00  0.00000000E+00
  0.00000000E+00  0.00000000E+00  0.00000000E+00
  0.00000000E+00  0.00000000E+00  0.00000000E+00
  0.00000000E+00  0.00000000E+00  0.00000000E+00
  0.00000000E+00  0.00000000E+00  0.00000000E+00
  0.00000000E+00  0.00000000E+00  0.00000000E+00
  0.00000000E+00  0.00000000E+00  0.00000000E+00
  0.00000000E+00  0.00000000E+00  0.00000000E+00
  0.00000000E+00  0.00000000E+00  0.00000000E+00
  0.00000000E+00  0.00000000E+00  0.00000000E+00
  0.00000000E+00  0.00000000E+00  0.00000000E+00
  0.00000000E+00  0.00000000E+00  0.00000000E+00
  0.00000000E+00  0.00000000E+00  0.00000000E+00
  0.00000000E+00  0.00000000E+00  0.00000000E+00
  0.00000000E+00  0.00000000E+00  0.00000000E+00
  0.00000000E+00  0.00000000E+00  0.00000000E+00
  0.00000000E+00  0.00000000E+00  0.00000000E+00
  0.00000000E+00  0.00000000E+00  0.00000000E+00
  0.00000000E+00  0.00000000E+00  0.00000000E+00
  0.00000000E+00  0.00000000E+00  0.00000000E+00
  0.00000000E+00  0.00000000E+00  0.00000000E+00
  0.00000000E+00  0.00000000E+00  0.00000000E+00
  0.00000000E+00  0.00000000E+00  0.00000000E+00
  0.00000000E+00  0.00000000E+00  0.00000000E+00
  0.00000000E+00  0.00000000E+00  0.00000000E+00
  0.00000000E+00  0.00000000E+00  0.00000000E+00
  0.00000000E+00  0.00000000E+00  0.00000000E+00
  0.00000000E+00  0.00000000E+00  0.00000000E+00
  0.00000000E+00  0.00000000E+00  0.00000000E+00
  0.00000000E+00  0.00000000E+00  0.00000000E+00
  0.00000000E+00  0.00000000E+00  0.00000000E+00
  0.00000000E+00  0.00000000E+00  0.00000000E+00
  0.00000000E+00  0.00000000E+00  0.00000000E+00
  0.00000000E+00  0.00000000E+00  0.00000000E+00
  0.00000000E+00  0.00000000E+00  0.00000000E+00
  0.00000000E+00  0.00000000E+00  0.00000000E+00
  0.00000000E+00  0.00000000E+00  0.00000000E+00
  0.00000000E+00  0.00000000E+00  0.00000000E+00
  0.00000000E+00  0.00000000E+00  0.00000000E+00
  0.00000000E+00  0.00000000E+00  0.00000000E+00
  0.00000000E+00  0.00000000E+00  0.00000000E+00
  0.00000000E+00  0.00000000E+00  0.00000000E+00
  0.00000000E+00  0.00000000E+00  0.00000000E+00
  0.00000000E+00  0.00000000E+00  0.00000000E+00
  0.00000000E+00  0.00000000E+00  0.00000000E+00
  0.00000000E+00  0.00000000E+00  0.00000000E+00
  0.00000000E+00  0.00000000E+00  0.00000000E+00
  0.00000000E+00  0.00000000E+00  0.00000000E+00
  0.00000000E+00  0.00000000E+00  0.00000000E+00
  0.00000000E+00  0.00000000E+00  0.00000000E+00
  0.00000000E+00  0.00000000E+00  0.00000000E+00
  0.00000000E+00  0.00000000E+00  0.00000000E+00
  0.00000000E+00  0.00000000E+00  0.00000000E+00
  0.00000000E+00  0.00000000E+00  0.00000000E+00
  0.00000000E+00  0.00000000E+00  0.00000000E+00
  0.00000000E+00  0.00000000E+00  0.00000000E+00
  0.00000000E+00  0.00000000E+00  0.00000000E+00
  0.00000000E+00  0.00000000E+00  0.00000000E+00
  0.00000000E+00  0.00000000E+00  0.00000000E+00
  0.00000000E+00  0.00000000E+00  0.00000000E+00
  0.00000000E+00  0.00000000E+00  0.00000000E+00
  0.00000000E+00  0.00000000E+00  0.00000000E+00
  0.00000000E+00  0.00000000E+00  0.00000000E+00
  0.00000000E+00  0.00000000E+00  0.00000000E+00
  0.00000000E+00  0.00000000E+00  0.00000000E+00
  0.00000000E+00  0.00000000E+00  0.00000000E+00
  0.00000000E+00  0.00000000E+00  0.00000000E+00
  0.00000000E+00  0.00000000E+00  0.00000000E+00
  0.00000000E+00  0.00000000E+00  0.00000000E+00
  0.00000000E+00  0.00000000E+00  0.00000000E+00
  0.00000000E+00  0.00000000E+00  0.00000000E+00
  0.00000000E+00  0.00000000E+00  0.00000000E+00
  0.00000000E+00  0.00000000E+00  0.00000000E+00
  0.00000000E+00  0.00000000E+00  0.00000000E+00
  0.00000000E+00  0.00000000E+00  0.00000000E+00
  0.00000000E+00  0.00000000E+00  0.00000000E+00
  0.00000000E+00  0.00000000E+00  0.00000000E+00
  0.00000000E+00  0.00000000E+00  0.00000000E+00
  0.00000000E+00  0.00000000E+00  0.00000000E+00
  0.00000000E+00  0.00000000E+00  0.00000000E+00
  0.00000000E+00  0.00000000E+00  0.00000000E+00
  0.00000000E+00  0.00000000E+00  0.00000000E+00
  0.00000000E+00  0.00000000E+00  0.00000000E+00
  0.00000000E+00  0.00000000E+00  0.00000000E+00
  0.00000000E+00  0.00000000E+00  0.00000000E+00
  0.00000000E+00  0.00000000E+00  0.00000000E+00
  0.00000000E+00  0.00000000E+00  0.00000000E+00
  0.00000000E+00  0.00000000E+00  0.00000000E+00
  0.00000000E+00  0.00000000E+00  0.00000000E+00
  0.00000000E+00  0.00000000E+00  0.00000000E+00
  0.00000000E+00  0.00000000E+00  0.00000000E+00
  0.00000000E+00  0.00000000E+00  0.00000000E+00
  0.00000000E+00  0.00000000E+00  0.00000000E+00
  0.00000000E+00  0.00000000E+00  0.00000000E+00
  0.00000000E+00  0.00000000E+00  0.00000000E+00
  0.00000000E+00  0.00000000E+00  0.00000000E+00
  0.00000000E+00  0.00000000E+00  0.00000000E+00
  0.00000000E+00  0.00000000E+00  0.00000000E+00
  0.00000000E+00  0.00000000E+00  0.00000000E+00
  0.00000000E+00  0.00000000E+00  0.00000000E+00
  0.00000000E+00  0.00000000E+00  0.00000000E+00
  0.00000000E+00  0.00000000E+00  0.00000000E+00
  0.00000000E+00  0.00000000E+00  0.00000000E+00
  0.00000000E+00  0.00000000E+00  0.00000000E+00
  0.00000000E+00  0.00000000E+00  0.00000000E+00
  0.00000000E+00  0.00000000E+00  0.00000000E+00
  0.00000000E+00  0.00000000E+00  0.00000000E+00
  0.00000000E+00  0.00000000E+00  0.00000000E+00
  0.00000000E+00  0.00000000E+00  0.00000000E+00
  0.00000000E+00  0.00000000E+00  0.00000000E+00
  0.00000000E+00  0.00000000E+00  0.00000000E+00
  0.00000000E+00  0.00000000E+00  0.00000000E+00
  0.00000000E+00  0.00000000E+00  0.00000000E+00
  0.00000000E+00  0.00000000E+00  0.00000000E+00
  0.00000000E+00  0.00000000E+00  0.00000000E+00
  0.00000000E+00  0.00000000E+00  0.00000000E+00
  0.00000000E+00  0.00000000E+00  0.00000000E+00
