Rb Tl Cl                                
   1.00000000000000     
    11.1637290000000000  -11.1637290000000000    0.0000000000000000
    11.1637290000000000   11.1637290000000000    0.0000000000000000
     0.0000000000000000    0.0000000000000000   22.3274569999999990
   Rb   Tl   Cl
    32    32    96
Direct
  0.0117181646682728  0.9925847407016644  0.9975486470664910
  0.9918375746464714  0.9893439385600492  0.2508826841347817
  0.9772498938584576  0.9903321191532961  0.5229981851139317
  0.9848539417023326  0.9932220174121112  0.7693979891666712
  0.4904935742728775  0.0284201364705784  0.9913832126469230
  0.5038838967042693  0.9948448271982072  0.2568213283738036
  0.5236367117218762  0.0242270935934255  0.4862662010237165
  0.4999838410727419  0.0163269746686934  0.7231493769255899
  0.2172231155452519  0.2157809188897111  0.9929829901673660
  0.2344409203806216  0.2403822770846173  0.2403456203853295
  0.2419507832353814  0.2378885985985783  0.5107927503104082
  0.2380052364093647  0.2305280726077412  0.7780457560706558
  0.0143991110945610  0.5344157357192469  0.0010054565635660
  0.0192437025503370  0.4960592682072838  0.2462070454246485
  0.0166950796569582  0.5036332822266255  0.4844484675220903
  0.0004246270261313  0.5048724931618883  0.7380686225138449
  0.7622556401452388  0.2524991977373820  0.0237895804124047
  0.7968427402335513  0.2937710661136226  0.2549163261225348
  0.7702472638679120  0.2719376684293069  0.4893906517450168
  0.7659480461952128  0.2445598254937875  0.7366968161904195
  0.5014794911817566  0.4865657426539958  0.0106730497489612
  0.4713550951086985  0.4803532546943681  0.2615179989105406
  0.4977725401820118  0.4976444819027210  0.5292217307011681
  0.4728794696774303  0.4675029016872792  0.7612772376830035
  0.2735942794663691  0.7690875939787101  0.0173598058829381
  0.2127710143042605  0.7150447141682977  0.2501128670519099
  0.2624711697927629  0.7514927782059874  0.4701844595613840
  0.2710451683350148  0.7676316314298025  0.7349351836570401
  0.7842657361000862  0.7934725983594700  0.0038797659800366
  0.7464990406826133  0.7216803358983094  0.2330249992929499
  0.7236232597053947  0.7495445457453658  0.5089998577695866
  0.7256954772726198  0.7451852483862270  0.7566088141820969
  0.0074774786497130  0.2459355908793989  0.1253086454004431
  0.0075105126462352  0.2432712908699422  0.3794382797118699
  0.0058478354631560  0.2525584239841645  0.6306649017245852
  0.9908311193815472  0.2525239974537706  0.8785084033882864
  0.5111657744580130  0.2473922716144779  0.1327573435083891
  0.5131650343829325  0.2531053522135949  0.3757010263066766
  0.4918784909140906  0.2530877939063358  0.6245777487543862
  0.5002020213308251  0.2470551314976570  0.8754083408958369
  0.2560738025091097  0.4929735409634056  0.1218728207231669
  0.2562547371358923  0.4940195331166433  0.3828054133364946
  0.2460216971409726  0.5035737285988112  0.6330510290060243
  0.2443899742793318  0.5055733443197105  0.8742144663971101
  0.0035988138500132  0.7566121381079319  0.1247234663026153
  0.9988097340511057  0.7575283254206648  0.3784782656882025
  0.9975383796139649  0.7484946144603938  0.6264124920249956
  0.9961278779970325  0.7450192036883644  0.8722232332270925
  0.7554441990398143  0.5009236193305477  0.1185668037238378
  0.7570349929409660  0.5117143673304602  0.3728277365530185
  0.7518885182456773  0.5014805615413999  0.6258396074893007
  0.7409281498531809  0.4864162869883607  0.8667297251374954
  0.5042621313669915  0.7375501402152017  0.1298517599314568
  0.5004021352602265  0.7482798541295885  0.3700269947382083
  0.4887975637834390  0.7581285537575083  0.6229853155826337
  0.4977286338780905  0.7464256962820971  0.8753216744559076
  0.2682460074062799  0.0011465130667728  0.1275835140726145
  0.2537475182511241  0.0035421674850320  0.3750789332355244
  0.2380532180743825  0.0027059621794475  0.6187423462678202
  0.2525020152837525  0.9872571007816124  0.8720743193382766
  0.7474971806516820  0.0023506074443397  0.1293985862816738
  0.7544263497493088  0.9993907011110161  0.3713740360502872
  0.7463900236402053  0.0021181672742543  0.6215650119340432
  0.7410352879919689 -0.0057333472198106  0.8713726861539389
 -0.0057455427339577  0.2009829231207674  0.0102769952281942
  0.0139588829501924  0.2859593441238220  0.2417079272480647
  0.9919152193450917  0.2185141578011070  0.5160759927657064
  0.0058452821017188  0.2901311271273141  0.7452678915578194
  0.5400063131311296  0.2468442715972396  0.0145471818151994
  0.4618680336005780  0.2476866710331680  0.2577809455892730
  0.5608183765841781  0.2428946488776408  0.4887498677091714
  0.4405716467737826  0.2506632384734752  0.7491822061675534
  0.2399256726547468  0.5578421738098784  0.9863128778929786
  0.2483116856157215  0.4586786728234339  0.2514011123263529
  0.2361322631742846  0.5495215377378627  0.5175732836573089
  0.2357813426836525  0.4483258565173623  0.7572129102957845
  0.0496012887979539  0.7619047328191192  0.9849372168083885
  0.9632207287098997  0.7620556844374172  0.2624677961272912
  0.0480957454815259  0.7657020071647386  0.4914671429020678
  0.9401638855047556  0.7316456813669167  0.7614097310215618
  0.7069336552335580  0.4570192101119616  0.9820324086127318
  0.8107557353901657  0.5127994814293614  0.2476524056178271
  0.7163324703831165  0.4859222158355810  0.5101443939709600
  0.7895030391116822  0.5199273590817224  0.7438160717060690
  0.4910638992367719  0.7030008876815458  0.0156057161178181
  0.5160464664505293  0.7887393265826833  0.2443410071335873
  0.4920279046149693  0.7069201897717994  0.4870069083937646
  0.4880870801854821  0.8091479397735489  0.7519733090207000
  0.2222029100715049  0.9956965587618389  0.0138634974875430
  0.2981014438307332  0.0258740006063897  0.2412709367493888
  0.1876260950189036  0.0247948611698724  0.5066351621806784
  0.2806315304091511  0.0016018034596280  0.7336456456132201
  0.7396324843545714  0.0235559069661942  0.9887910107163744
  0.7437882118436956  0.9419518337628084  0.2609180057449039
  0.7628568778080808  0.0504022892622102  0.4838705636505247
  0.7657283627081164  0.9585217433597557  0.7569288162311596
  0.1082689824240164  0.1064898233524312  0.1451573741697981
  0.1204577829630737  0.1103614950413652  0.3398158561999776
  0.1558977980994221  0.1661533475685838  0.6427071297013474
  0.1025339351648848  0.1081365309921261  0.8687916491027416
  0.5803856896861009  0.0985269527398459  0.1412597416202252
  0.6123486161006754  0.1061835899553798  0.3545798615152181
  0.6324427891795098  0.1454602861427025  0.6501067248332691
  0.5958001176937323  0.0735668632597801  0.8544451105029087
  0.4073521044909330  0.3760742669236948  0.1251259343890394
  0.4250582816420429  0.3939316503063172  0.3987727798157880
  0.3429404671631006  0.3726020884757041  0.6079982711921559
  0.3844208803036567  0.4133833898966799  0.8943376617821168
  0.1115492863252890  0.6013879724579405  0.1373867794472684
  0.0936930035682151  0.6164520233127563  0.3606854288768072
  0.1398198435939878  0.6243346863446481  0.6620621609756656
  0.0924483046911857  0.5962488593768481  0.8575695075873103
  0.9141064973781361  0.3828955082464904  0.0999392128907289
  0.8851721418095557  0.3863072648592546  0.3908056356823484
  0.8511784093996210  0.3505820272252195  0.6208553355321030
  0.8874647113926816  0.4152981190149391  0.8756876300959194
  0.5830015035790413  0.5936119337111405  0.1561247593939991
  0.6243891098686717  0.6400156256473526  0.3538582319780075
  0.6594260594285742  0.6432361065425878  0.6313509177159878
  0.6299542251430086  0.6061507879596513  0.8573459465296851
  0.4068333671391293  0.9051938723461462  0.1073635102521199
  0.4078753335777964  0.8870602211208044  0.3841768126500941
  0.3140874443717276  0.8548922257487603  0.5975059326936558
  0.3873608362324124  0.8748606876721451  0.9167382117202987
  0.9025544770820704  0.9123137963697655  0.1083954801545018
  0.9032871144549973  0.9061758036233961  0.3925720851227207
  0.8548452931184539  0.8519799098289941  0.5974710566853139
  0.8994498682591412  0.8932075426717732  0.8922094320607320
  0.8652823565411065  0.1587373320353258  0.1468853976505770
  0.8541483069471191  0.1221453759048827  0.3362494492303748
  0.9103562507345420  0.1194138636790522  0.6545544826735414
  0.8411572997262391  0.1287072786217481  0.8572341071184075
  0.3473152678572474  0.1473523040316540  0.1050541832122456
  0.3852963126299727  0.1499011909784201  0.3984032065057746
  0.3746592472651197  0.0959974758088714  0.5943123626909773
  0.3514747476328658  0.1390070901252659  0.8978117881610536
  0.1482036294679928  0.3338650977785593  0.1061796563333042
  0.1428680214084265  0.3552597181036165  0.4121100676980243
  0.0952482755250447  0.3952744094826264  0.6086002095062426
  0.1457259644964522  0.3736884644807599  0.8994604373619356
  0.8541353713287965  0.6562029582363339  0.1005289835165251
  0.8670891851361443  0.6639623797899843  0.4084238874381057
  0.8957549371833348  0.5811089429427264  0.6033380000937932
  0.8710853788647862  0.6491226164551596  0.9104183867623461
  0.6511990637682895  0.3359268516863147  0.1509217642134273
  0.6412723001007926  0.3506455632693525  0.3456435355130256
  0.6160235443263531  0.4076189643232491  0.6487806738653904
  0.6470703139668014  0.3620740137537128  0.8263826698582611
  0.3531703294924294  0.6710668624531143  0.1457297360819520
  0.3666849783198631  0.6504803427399598  0.3449615379794002
  0.3853371210615663  0.5937225504361576  0.6552083394872084
  0.3407178120127917  0.6301773321400148  0.8373392125106832
  0.1677200460206437  0.8727297543935925  0.1488196813589294
  0.1372312445088388  0.8509829356520926  0.3526895195918374
  0.0939082221335470  0.9256954390218867  0.6457445834545205
  0.1192230160269551  0.8415234667744907  0.8339406937870730
  0.6397285915632862  0.8321502524503596  0.1129778503527275
  0.6446986209977624  0.8791928210405529  0.4025869681488539
  0.5949951935122952  0.9051972979821546  0.5957313966381096
  0.6657419670735056  0.8468061463131820  0.8879127246315943
 
  0.00000000E+00  0.00000000E+00  0.00000000E+00
  0.00000000E+00  0.00000000E+00  0.00000000E+00
  0.00000000E+00  0.00000000E+00  0.00000000E+00
  0.00000000E+00  0.00000000E+00  0.00000000E+00
  0.00000000E+00  0.00000000E+00  0.00000000E+00
  0.00000000E+00  0.00000000E+00  0.00000000E+00
  0.00000000E+00  0.00000000E+00  0.00000000E+00
  0.00000000E+00  0.00000000E+00  0.00000000E+00
  0.00000000E+00  0.00000000E+00  0.00000000E+00
  0.00000000E+00  0.00000000E+00  0.00000000E+00
  0.00000000E+00  0.00000000E+00  0.00000000E+00
  0.00000000E+00  0.00000000E+00  0.00000000E+00
  0.00000000E+00  0.00000000E+00  0.00000000E+00
  0.00000000E+00  0.00000000E+00  0.00000000E+00
  0.00000000E+00  0.00000000E+00  0.00000000E+00
  0.00000000E+00  0.00000000E+00  0.00000000E+00
  0.00000000E+00  0.00000000E+00  0.00000000E+00
  0.00000000E+00  0.00000000E+00  0.00000000E+00
  0.00000000E+00  0.00000000E+00  0.00000000E+00
  0.00000000E+00  0.00000000E+00  0.00000000E+00
  0.00000000E+00  0.00000000E+00  0.00000000E+00
  0.00000000E+00  0.00000000E+00  0.00000000E+00
  0.00000000E+00  0.00000000E+00  0.00000000E+00
  0.00000000E+00  0.00000000E+00  0.00000000E+00
  0.00000000E+00  0.00000000E+00  0.00000000E+00
  0.00000000E+00  0.00000000E+00  0.00000000E+00
  0.00000000E+00  0.00000000E+00  0.00000000E+00
  0.00000000E+00  0.00000000E+00  0.00000000E+00
  0.00000000E+00  0.00000000E+00  0.00000000E+00
  0.00000000E+00  0.00000000E+00  0.00000000E+00
  0.00000000E+00  0.00000000E+00  0.00000000E+00
  0.00000000E+00  0.00000000E+00  0.00000000E+00
  0.00000000E+00  0.00000000E+00  0.00000000E+00
  0.00000000E+00  0.00000000E+00  0.00000000E+00
  0.00000000E+00  0.00000000E+00  0.00000000E+00
  0.00000000E+00  0.00000000E+00  0.00000000E+00
  0.00000000E+00  0.00000000E+00  0.00000000E+00
  0.00000000E+00  0.00000000E+00  0.00000000E+00
  0.00000000E+00  0.00000000E+00  0.00000000E+00
  0.00000000E+00  0.00000000E+00  0.00000000E+00
  0.00000000E+00  0.00000000E+00  0.00000000E+00
  0.00000000E+00  0.00000000E+00  0.00000000E+00
  0.00000000E+00  0.00000000E+00  0.00000000E+00
  0.00000000E+00  0.00000000E+00  0.00000000E+00
  0.00000000E+00  0.00000000E+00  0.00000000E+00
  0.00000000E+00  0.00000000E+00  0.00000000E+00
  0.00000000E+00  0.00000000E+00  0.00000000E+00
  0.00000000E+00  0.00000000E+00  0.00000000E+00
  0.00000000E+00  0.00000000E+00  0.00000000E+00
  0.00000000E+00  0.00000000E+00  0.00000000E+00
  0.00000000E+00  0.00000000E+00  0.00000000E+00
  0.00000000E+00  0.00000000E+00  0.00000000E+00
  0.00000000E+00  0.00000000E+00  0.00000000E+00
  0.00000000E+00  0.00000000E+00  0.00000000E+00
  0.00000000E+00  0.00000000E+00  0.00000000E+00
  0.00000000E+00  0.00000000E+00  0.00000000E+00
  0.00000000E+00  0.00000000E+00  0.00000000E+00
  0.00000000E+00  0.00000000E+00  0.00000000E+00
  0.00000000E+00  0.00000000E+00  0.00000000E+00
  0.00000000E+00  0.00000000E+00  0.00000000E+00
  0.00000000E+00  0.00000000E+00  0.00000000E+00
  0.00000000E+00  0.00000000E+00  0.00000000E+00
  0.00000000E+00  0.00000000E+00  0.00000000E+00
  0.00000000E+00  0.00000000E+00  0.00000000E+00
  0.00000000E+00  0.00000000E+00  0.00000000E+00
  0.00000000E+00  0.00000000E+00  0.00000000E+00
  0.00000000E+00  0.00000000E+00  0.00000000E+00
  0.00000000E+00  0.00000000E+00  0.00000000E+00
  0.00000000E+00  0.00000000E+00  0.00000000E+00
  0.00000000E+00  0.00000000E+00  0.00000000E+00
  0.00000000E+00  0.00000000E+00  0.00000000E+00
  0.00000000E+00  0.00000000E+00  0.00000000E+00
  0.00000000E+00  0.00000000E+00  0.00000000E+00
  0.00000000E+00  0.00000000E+00  0.00000000E+00
  0.00000000E+00  0.00000000E+00  0.00000000E+00
  0.00000000E+00  0.00000000E+00  0.00000000E+00
  0.00000000E+00  0.00000000E+00  0.00000000E+00
  0.00000000E+00  0.00000000E+00  0.00000000E+00
  0.00000000E+00  0.00000000E+00  0.00000000E+00
  0.00000000E+00  0.00000000E+00  0.00000000E+00
  0.00000000E+00  0.00000000E+00  0.00000000E+00
  0.00000000E+00  0.00000000E+00  0.00000000E+00
  0.00000000E+00  0.00000000E+00  0.00000000E+00
  0.00000000E+00  0.00000000E+00  0.00000000E+00
  0.00000000E+00  0.00000000E+00  0.00000000E+00
  0.00000000E+00  0.00000000E+00  0.00000000E+00
  0.00000000E+00  0.00000000E+00  0.00000000E+00
  0.00000000E+00  0.00000000E+00  0.00000000E+00
  0.00000000E+00  0.00000000E+00  0.00000000E+00
  0.00000000E+00  0.00000000E+00  0.00000000E+00
  0.00000000E+00  0.00000000E+00  0.00000000E+00
  0.00000000E+00  0.00000000E+00  0.00000000E+00
  0.00000000E+00  0.00000000E+00  0.00000000E+00
  0.00000000E+00  0.00000000E+00  0.00000000E+00
  0.00000000E+00  0.00000000E+00  0.00000000E+00
  0.00000000E+00  0.00000000E+00  0.00000000E+00
  0.00000000E+00  0.00000000E+00  0.00000000E+00
  0.00000000E+00  0.00000000E+00  0.00000000E+00
  0.00000000E+00  0.00000000E+00  0.00000000E+00
  0.00000000E+00  0.00000000E+00  0.00000000E+00
  0.00000000E+00  0.00000000E+00  0.00000000E+00
  0.00000000E+00  0.00000000E+00  0.00000000E+00
  0.00000000E+00  0.00000000E+00  0.00000000E+00
  0.00000000E+00  0.00000000E+00  0.00000000E+00
  0.00000000E+00  0.00000000E+00  0.00000000E+00
  0.00000000E+00  0.00000000E+00  0.00000000E+00
  0.00000000E+00  0.00000000E+00  0.00000000E+00
  0.00000000E+00  0.00000000E+00  0.00000000E+00
  0.00000000E+00  0.00000000E+00  0.00000000E+00
  0.00000000E+00  0.00000000E+00  0.00000000E+00
  0.00000000E+00  0.00000000E+00  0.00000000E+00
  0.00000000E+00  0.00000000E+00  0.00000000E+00
  0.00000000E+00  0.00000000E+00  0.00000000E+00
  0.00000000E+00  0.00000000E+00  0.00000000E+00
  0.00000000E+00  0.00000000E+00  0.00000000E+00
  0.00000000E+00  0.00000000E+00  0.00000000E+00
  0.00000000E+00  0.00000000E+00  0.00000000E+00
  0.00000000E+00  0.00000000E+00  0.00000000E+00
  0.00000000E+00  0.00000000E+00  0.00000000E+00
  0.00000000E+00  0.00000000E+00  0.00000000E+00
  0.00000000E+00  0.00000000E+00  0.00000000E+00
  0.00000000E+00  0.00000000E+00  0.00000000E+00
  0.00000000E+00  0.00000000E+00  0.00000000E+00
  0.00000000E+00  0.00000000E+00  0.00000000E+00
  0.00000000E+00  0.00000000E+00  0.00000000E+00
  0.00000000E+00  0.00000000E+00  0.00000000E+00
  0.00000000E+00  0.00000000E+00  0.00000000E+00
  0.00000000E+00  0.00000000E+00  0.00000000E+00
  0.00000000E+00  0.00000000E+00  0.00000000E+00
  0.00000000E+00  0.00000000E+00  0.00000000E+00
  0.00000000E+00  0.00000000E+00  0.00000000E+00
  0.00000000E+00  0.00000000E+00  0.00000000E+00
  0.00000000E+00  0.00000000E+00  0.00000000E+00
  0.00000000E+00  0.00000000E+00  0.00000000E+00
  0.00000000E+00  0.00000000E+00  0.00000000E+00
  0.00000000E+00  0.00000000E+00  0.00000000E+00
  0.00000000E+00  0.00000000E+00  0.00000000E+00
  0.00000000E+00  0.00000000E+00  0.00000000E+00
  0.00000000E+00  0.00000000E+00  0.00000000E+00
  0.00000000E+00  0.00000000E+00  0.00000000E+00
  0.00000000E+00  0.00000000E+00  0.00000000E+00
  0.00000000E+00  0.00000000E+00  0.00000000E+00
  0.00000000E+00  0.00000000E+00  0.00000000E+00
  0.00000000E+00  0.00000000E+00  0.00000000E+00
  0.00000000E+00  0.00000000E+00  0.00000000E+00
  0.00000000E+00  0.00000000E+00  0.00000000E+00
  0.00000000E+00  0.00000000E+00  0.00000000E+00
  0.00000000E+00  0.00000000E+00  0.00000000E+00
  0.00000000E+00  0.00000000E+00  0.00000000E+00
  0.00000000E+00  0.00000000E+00  0.00000000E+00
  0.00000000E+00  0.00000000E+00  0.00000000E+00
  0.00000000E+00  0.00000000E+00  0.00000000E+00
  0.00000000E+00  0.00000000E+00  0.00000000E+00
  0.00000000E+00  0.00000000E+00  0.00000000E+00
  0.00000000E+00  0.00000000E+00  0.00000000E+00
  0.00000000E+00  0.00000000E+00  0.00000000E+00
  0.00000000E+00  0.00000000E+00  0.00000000E+00
  0.00000000E+00  0.00000000E+00  0.00000000E+00
  0.00000000E+00  0.00000000E+00  0.00000000E+00
  0.00000000E+00  0.00000000E+00  0.00000000E+00
