Cs In Br                                
   1.00000000000000     
    11.5286679999999997  -11.5286679999999997    0.0000000000000000
    11.5286679999999997   11.5286679999999997    0.0000000000000000
     0.0000000000000000    0.0000000000000000   23.0573370000000004
   Cs   In   Br
    32    32    96
Direct
  0.0007016086398417 -0.0003656711616652  0.0001746388320181
 -0.0021334656784891  0.0002460025057560  0.2478981768615597
 -0.0014274687644017  0.0003043943478784  0.5002803880385615
 -0.0003256174019424  0.0001511604287928  0.7493369482017741
  0.4993796439773195  0.0002466357100140  0.0002842402236317
  0.5007629734589981 -0.0008775546174585  0.2488774278149786
  0.5013844816868035 -0.0023816988611555  0.4999016500612909
  0.5001512061026822 -0.0002226203726045  0.7497864792643197
  0.2509017817915046  0.2493069165829946  0.9993956424115588
  0.2499489938296263  0.2501922726923618  0.2491511000848382
  0.2490447334614675  0.2526672827572667  0.5002432314139945
  0.2495807271772869  0.2505051168325398  0.7505080639042535
  0.0000658114892174  0.4995514151982287  0.9997241665284452
 -0.0005131347397408  0.4997570969767336  0.2504562621610536
  0.0006536870394832  0.4997778676485747  0.4993529809158128
 -0.0001279231443964  0.5004069007372125  0.7503266063666512
  0.7494021365883126  0.2494938431572611 -0.0009184819832486
  0.7503085782244830  0.2494655079638217  0.2500236245409470
  0.7509000120988141  0.2497099201590595  0.4996579695113529
  0.7514070465472614  0.2492781743647311  0.7507646435984211
  0.5005350783366791  0.4972181190781696  0.0000611885553059
  0.5004884781108667  0.4986278156313865  0.2503274464819233
  0.4994492102295857  0.5004664585622681  0.4995072903107829
  0.4996100721395543  0.4998650367957656  0.7496632161819007
  0.2494139587226606  0.7520700908893866  0.0000558710177520
  0.2503491576506865  0.7493580313373734  0.2491702108060148
  0.2507781048457385  0.7489332732824788  0.5002209664294194
  0.2493547633633987  0.7510675650681652  0.7489339755514578
  0.7506571886190895  0.7503544242982936  0.0001954957698207
  0.7504954612360576  0.7495795733497602  0.2493818510710111
  0.7495646996811485  0.7502327285360859  0.5001968808716583
  0.7510803093334281  0.7502495436733174  0.7486815085679210
  0.0005124326815216  0.2504933677764472  0.1240258858494704
  0.0009296616711363  0.2492193618300572  0.3742560899371112
 -0.0011832656442899  0.2506263667495788  0.6246637534829872
 -0.0000705307171172  0.2502683194281819  0.8746126071212855
  0.5006770945256777  0.2498264344416450  0.1246861979165572
  0.4990278924587371  0.2481014693945690  0.3765315661212337
  0.5006633711800091  0.2498384431694775  0.6253319354394258
  0.5009919688849983  0.2506635973266049  0.8728030751830305
  0.2497191111122706  0.4999427100283321  0.1253304383608664
  0.2494246461494391  0.4988800435282448  0.3732902327733137
  0.2494365923414270  0.4999976477681301  0.6247550825214064
  0.2505027757801256  0.5015047237217314  0.8762014427258881
  0.0006103440229239  0.7488044560586712  0.1241267235300558
  0.0013209896665067  0.7508035034970791  0.3740265730900512
 -0.0000287650766818  0.7492547835337928  0.6244295561902310
 -0.0015098304991776  0.7492933237295565  0.8746385630988628
  0.7512869940493414  0.4995920562387705  0.1241023729022322
  0.7496409398584566  0.5005991678110443  0.3744838011488426
  0.7488891556398888  0.4990237844171253  0.6247271155821665
  0.7487954808140111  0.5005566023650528  0.8744022663786308
  0.5000647501681807  0.7484669368296391  0.1233235397116227
  0.5005175838757761  0.7497951359210470  0.3745872312034535
  0.5006910704096827  0.7508276505060862  0.6263759769684110
  0.5003507249272584  0.7495337733824913  0.8743276554956666
  0.2490207178432089 -0.0013405496072444  0.1265860578283780
  0.2491638577219115  0.0001364900450889  0.3740283146487089
  0.2506864264288968  0.0015651097672566  0.6225552624419165
  0.2493892681539111  0.0000895993394087  0.8745269655306301
  0.7505234463555881 -0.0003205367472178  0.1243999425430422
  0.7514009589625108 -0.0000251060090085  0.3739537778326735
  0.7493591058551171  0.0006424554968893  0.6241770975040875
  0.7494988447243532 -0.0008728035232386  0.8745016461146821
  0.0013534677922873  0.2481596982996236 -0.0051149244821296
 -0.0013967594970762  0.2504693130782680  0.2464716993892823
  0.0000048172872519  0.2531032233823448  0.5037805817896694
  0.0037580870827933  0.2494317569885333  0.7535274626926070
  0.5014433396913415  0.2489608993928106  0.0044812344161172
  0.5009576920812181  0.2495574801842654  0.2442471260297853
  0.4998666144677022  0.2532093981153189  0.5043856935639742
  0.4955544282644084  0.2509806025737426  0.7468961330109158
  0.2510148754193651  0.4961405620064224  0.0043668804780002
  0.2543975538883771  0.4977469608109791  0.2471508726379861
  0.2485318142577395  0.5014400910916603  0.5041916736058950
  0.2482517944856144  0.5010560694923816  0.7445162765115181
  0.0011438680443701  0.7517672011232951 -0.0044808139517704
  0.9976804272545585  0.7483431908819201  0.2512407390023296
  0.0014374371757831  0.7464688849670041  0.5048297367518193
  0.0031033067331321  0.7496932180575000  0.7455611672399188
  0.7493557108617097  0.4964403251574002  0.0037376559144751
  0.7462753653052773  0.5004435130937251  0.2541727436539530
  0.7482555970985242  0.5030794269701971  0.4940095689318678
  0.7514613297810918  0.5001036727408633  0.7467604296473693
  0.4986110245457643  0.7533439456066617  0.9949492459438107
  0.5034084023796682  0.7475657471170690  0.2555257648935572
  0.5017528165308960  0.7471531712814975  0.4941969625303584
  0.4955109533731714  0.7523345204134330  0.7531849695327119
  0.2489016839302845  0.0009604001111336  0.9940909707286630
  0.2542211224217952  0.9989364888718738  0.2534512791652650
  0.2516408473603154  0.9947960631175988  0.4943468516878337
  0.2483211103794239  0.0010515855850762  0.7553525166802467
  0.7489744868640797  0.0021245866975449  0.0039383274559301
  0.7467007225811495  0.0002279318047784  0.2463239613466563
  0.7498488783612540 -0.0024276418012702  0.4955368755531341
  0.7528555219401524 -0.0014475136019953  0.7513594110648100
  0.1251391946161562  0.1281471431356712  0.1210700959558988
  0.1283266477927065  0.1180758221768157  0.3749053692773832
  0.1245668362181463  0.1329001268185262  0.6274821298302726
  0.1259388838464843  0.1199211354924980  0.8746439175556345
  0.6238887350170599  0.1299174584118113  0.1249698003099308
  0.6249292564041228  0.1173099655162097  0.3714339368419197
  0.6229107265799875  0.1317538172672401  0.6253957031685750
  0.6211713796536772  0.1198490882868454  0.8768554069042097
  0.3810135012717070  0.3717137152726211  0.1244518955344285
  0.3784899321697846  0.3799231774897829  0.3757866641082034
  0.3693792652739407  0.3783173148832611  0.6245737569549300
  0.3730017668372086  0.3719326473831512  0.8758955719285807
  0.1283329683246699  0.6180051329439439  0.1253838519766586
  0.1269413819139042  0.6268200061338970  0.3772784497759339
  0.1242005055401918  0.6212882491216910  0.6250481835170378
  0.1251236785360686  0.6330661178357588  0.8709050066743899
  0.8695482147900145  0.3728748482201609  0.1260378248503363
  0.8686825344093796  0.3831628905170220  0.3741503751182507
  0.8797695782035562  0.3780143254284181  0.6250989570851415
  0.8818567186397679  0.3699662605549588  0.8739155944172294
  0.6252077147126514  0.6156426580903499  0.1288134155736355
  0.6245309833093581  0.6271102600224011  0.3743781090221743
  0.6248984227865751  0.6220178317205608  0.6211257919387050
  0.6191331863958736  0.6299704030480935  0.8738522492597377
  0.3778071356859629  0.8774545048551107  0.1241132191651983
  0.3807970643694584  0.8707805471716094  0.3742459535300358
  0.3716887964230973  0.8709794419836353  0.6241992963510145
  0.3703617536926397  0.8796388437789032  0.8749199115200187
  0.8700434808654647  0.8800407814098518  0.1249635290223870
  0.8693665520624658  0.8721272017907707  0.3741550699759671
  0.8801606304355372  0.8670657791205532  0.6246649696363772
  0.8814513257278961  0.8772998161478534  0.8736637916715498
  0.8679543030339401  0.1268029931644248  0.1242230123132872
  0.8717634881517450  0.1202385100770288  0.3724929577746124
  0.8782973066802507  0.1301240110518108  0.6268685871621688
  0.8825411337227059  0.1246172466636426  0.8748581898105787
  0.3810602021764472  0.1325677517011160  0.1236839459597673
  0.3744194502515175  0.1161537666252326  0.3744916107510067
  0.3756109874118068  0.1327397598399485  0.6250267540271435
  0.3677870175457356  0.1183307314755321  0.8751345670344609
  0.1312077181382745  0.3738231434024653  0.1242469163088939
  0.1277356573910221  0.3769604693497766  0.3755469625920155
  0.1276074951235027  0.3811706055398506  0.6257622123039966
  0.1243518950221143  0.3670666448910935  0.8748450004360053
  0.8720119749353245  0.6189506972194179  0.1265286409033548
  0.8652223108414743  0.6255831710898641  0.3745719851066467
  0.8829661502516567  0.6238315638988297  0.6247293787630120
  0.8770193331646757  0.6306809436311125  0.8724597246922199
  0.6217911539032432  0.3691159817904416  0.1258557090015847
  0.6271730247506154  0.3838333254832139  0.3750003227908254
  0.6191447600301218  0.3763522016967917  0.6240181377695523
  0.6242459367472665  0.3711891130870399  0.8753593117559633
  0.3754042062329900  0.6160535244328955  0.1254651886478527
  0.3818891909924820  0.6307763915157331  0.3750355690048314
  0.3679467243324692  0.6189198771326504  0.6235247066298637
  0.3733319348541033  0.6358434178278520  0.8745391201474075
  0.1260827914876176  0.8758189471912569  0.1233353910107748
  0.1324195248031868  0.8739829602712584  0.3749681977064149
  0.1219678550230117  0.8671950949739117  0.6244802058615792
  0.1301433740121618  0.8802434542623278  0.8732374401719256
  0.6266402479898204  0.8813408281910071  0.1248543339478371
  0.6214947661153930  0.8683108504873618  0.3740356461246114
  0.6235500871029918  0.8735821595776668  0.6233732319600148
  0.6187817981527716  0.8739498350477338  0.8752397621173775
 
  0.00000000E+00  0.00000000E+00  0.00000000E+00
  0.00000000E+00  0.00000000E+00  0.00000000E+00
  0.00000000E+00  0.00000000E+00  0.00000000E+00
  0.00000000E+00  0.00000000E+00  0.00000000E+00
  0.00000000E+00  0.00000000E+00  0.00000000E+00
  0.00000000E+00  0.00000000E+00  0.00000000E+00
  0.00000000E+00  0.00000000E+00  0.00000000E+00
  0.00000000E+00  0.00000000E+00  0.00000000E+00
  0.00000000E+00  0.00000000E+00  0.00000000E+00
  0.00000000E+00  0.00000000E+00  0.00000000E+00
  0.00000000E+00  0.00000000E+00  0.00000000E+00
  0.00000000E+00  0.00000000E+00  0.00000000E+00
  0.00000000E+00  0.00000000E+00  0.00000000E+00
  0.00000000E+00  0.00000000E+00  0.00000000E+00
  0.00000000E+00  0.00000000E+00  0.00000000E+00
  0.00000000E+00  0.00000000E+00  0.00000000E+00
  0.00000000E+00  0.00000000E+00  0.00000000E+00
  0.00000000E+00  0.00000000E+00  0.00000000E+00
  0.00000000E+00  0.00000000E+00  0.00000000E+00
  0.00000000E+00  0.00000000E+00  0.00000000E+00
  0.00000000E+00  0.00000000E+00  0.00000000E+00
  0.00000000E+00  0.00000000E+00  0.00000000E+00
  0.00000000E+00  0.00000000E+00  0.00000000E+00
  0.00000000E+00  0.00000000E+00  0.00000000E+00
  0.00000000E+00  0.00000000E+00  0.00000000E+00
  0.00000000E+00  0.00000000E+00  0.00000000E+00
  0.00000000E+00  0.00000000E+00  0.00000000E+00
  0.00000000E+00  0.00000000E+00  0.00000000E+00
  0.00000000E+00  0.00000000E+00  0.00000000E+00
  0.00000000E+00  0.00000000E+00  0.00000000E+00
  0.00000000E+00  0.00000000E+00  0.00000000E+00
  0.00000000E+00  0.00000000E+00  0.00000000E+00
  0.00000000E+00  0.00000000E+00  0.00000000E+00
  0.00000000E+00  0.00000000E+00  0.00000000E+00
  0.00000000E+00  0.00000000E+00  0.00000000E+00
  0.00000000E+00  0.00000000E+00  0.00000000E+00
  0.00000000E+00  0.00000000E+00  0.00000000E+00
  0.00000000E+00  0.00000000E+00  0.00000000E+00
  0.00000000E+00  0.00000000E+00  0.00000000E+00
  0.00000000E+00  0.00000000E+00  0.00000000E+00
  0.00000000E+00  0.00000000E+00  0.00000000E+00
  0.00000000E+00  0.00000000E+00  0.00000000E+00
  0.00000000E+00  0.00000000E+00  0.00000000E+00
  0.00000000E+00  0.00000000E+00  0.00000000E+00
  0.00000000E+00  0.00000000E+00  0.00000000E+00
  0.00000000E+00  0.00000000E+00  0.00000000E+00
  0.00000000E+00  0.00000000E+00  0.00000000E+00
  0.00000000E+00  0.00000000E+00  0.00000000E+00
  0.00000000E+00  0.00000000E+00  0.00000000E+00
  0.00000000E+00  0.00000000E+00  0.00000000E+00
  0.00000000E+00  0.00000000E+00  0.00000000E+00
  0.00000000E+00  0.00000000E+00  0.00000000E+00
  0.00000000E+00  0.00000000E+00  0.00000000E+00
  0.00000000E+00  0.00000000E+00  0.00000000E+00
  0.00000000E+00  0.00000000E+00  0.00000000E+00
  0.00000000E+00  0.00000000E+00  0.00000000E+00
  0.00000000E+00  0.00000000E+00  0.00000000E+00
  0.00000000E+00  0.00000000E+00  0.00000000E+00
  0.00000000E+00  0.00000000E+00  0.00000000E+00
  0.00000000E+00  0.00000000E+00  0.00000000E+00
  0.00000000E+00  0.00000000E+00  0.00000000E+00
  0.00000000E+00  0.00000000E+00  0.00000000E+00
  0.00000000E+00  0.00000000E+00  0.00000000E+00
  0.00000000E+00  0.00000000E+00  0.00000000E+00
  0.00000000E+00  0.00000000E+00  0.00000000E+00
  0.00000000E+00  0.00000000E+00  0.00000000E+00
  0.00000000E+00  0.00000000E+00  0.00000000E+00
  0.00000000E+00  0.00000000E+00  0.00000000E+00
  0.00000000E+00  0.00000000E+00  0.00000000E+00
  0.00000000E+00  0.00000000E+00  0.00000000E+00
  0.00000000E+00  0.00000000E+00  0.00000000E+00
  0.00000000E+00  0.00000000E+00  0.00000000E+00
  0.00000000E+00  0.00000000E+00  0.00000000E+00
  0.00000000E+00  0.00000000E+00  0.00000000E+00
  0.00000000E+00  0.00000000E+00  0.00000000E+00
  0.00000000E+00  0.00000000E+00  0.00000000E+00
  0.00000000E+00  0.00000000E+00  0.00000000E+00
  0.00000000E+00  0.00000000E+00  0.00000000E+00
  0.00000000E+00  0.00000000E+00  0.00000000E+00
  0.00000000E+00  0.00000000E+00  0.00000000E+00
  0.00000000E+00  0.00000000E+00  0.00000000E+00
  0.00000000E+00  0.00000000E+00  0.00000000E+00
  0.00000000E+00  0.00000000E+00  0.00000000E+00
  0.00000000E+00  0.00000000E+00  0.00000000E+00
  0.00000000E+00  0.00000000E+00  0.00000000E+00
  0.00000000E+00  0.00000000E+00  0.00000000E+00
  0.00000000E+00  0.00000000E+00  0.00000000E+00
  0.00000000E+00  0.00000000E+00  0.00000000E+00
  0.00000000E+00  0.00000000E+00  0.00000000E+00
  0.00000000E+00  0.00000000E+00  0.00000000E+00
  0.00000000E+00  0.00000000E+00  0.00000000E+00
  0.00000000E+00  0.00000000E+00  0.00000000E+00
  0.00000000E+00  0.00000000E+00  0.00000000E+00
  0.00000000E+00  0.00000000E+00  0.00000000E+00
  0.00000000E+00  0.00000000E+00  0.00000000E+00
  0.00000000E+00  0.00000000E+00  0.00000000E+00
  0.00000000E+00  0.00000000E+00  0.00000000E+00
  0.00000000E+00  0.00000000E+00  0.00000000E+00
  0.00000000E+00  0.00000000E+00  0.00000000E+00
  0.00000000E+00  0.00000000E+00  0.00000000E+00
  0.00000000E+00  0.00000000E+00  0.00000000E+00
  0.00000000E+00  0.00000000E+00  0.00000000E+00
  0.00000000E+00  0.00000000E+00  0.00000000E+00
  0.00000000E+00  0.00000000E+00  0.00000000E+00
  0.00000000E+00  0.00000000E+00  0.00000000E+00
  0.00000000E+00  0.00000000E+00  0.00000000E+00
  0.00000000E+00  0.00000000E+00  0.00000000E+00
  0.00000000E+00  0.00000000E+00  0.00000000E+00
  0.00000000E+00  0.00000000E+00  0.00000000E+00
  0.00000000E+00  0.00000000E+00  0.00000000E+00
  0.00000000E+00  0.00000000E+00  0.00000000E+00
  0.00000000E+00  0.00000000E+00  0.00000000E+00
  0.00000000E+00  0.00000000E+00  0.00000000E+00
  0.00000000E+00  0.00000000E+00  0.00000000E+00
  0.00000000E+00  0.00000000E+00  0.00000000E+00
  0.00000000E+00  0.00000000E+00  0.00000000E+00
  0.00000000E+00  0.00000000E+00  0.00000000E+00
  0.00000000E+00  0.00000000E+00  0.00000000E+00
  0.00000000E+00  0.00000000E+00  0.00000000E+00
  0.00000000E+00  0.00000000E+00  0.00000000E+00
  0.00000000E+00  0.00000000E+00  0.00000000E+00
  0.00000000E+00  0.00000000E+00  0.00000000E+00
  0.00000000E+00  0.00000000E+00  0.00000000E+00
  0.00000000E+00  0.00000000E+00  0.00000000E+00
  0.00000000E+00  0.00000000E+00  0.00000000E+00
  0.00000000E+00  0.00000000E+00  0.00000000E+00
  0.00000000E+00  0.00000000E+00  0.00000000E+00
  0.00000000E+00  0.00000000E+00  0.00000000E+00
  0.00000000E+00  0.00000000E+00  0.00000000E+00
  0.00000000E+00  0.00000000E+00  0.00000000E+00
  0.00000000E+00  0.00000000E+00  0.00000000E+00
  0.00000000E+00  0.00000000E+00  0.00000000E+00
  0.00000000E+00  0.00000000E+00  0.00000000E+00
  0.00000000E+00  0.00000000E+00  0.00000000E+00
  0.00000000E+00  0.00000000E+00  0.00000000E+00
  0.00000000E+00  0.00000000E+00  0.00000000E+00
  0.00000000E+00  0.00000000E+00  0.00000000E+00
  0.00000000E+00  0.00000000E+00  0.00000000E+00
  0.00000000E+00  0.00000000E+00  0.00000000E+00
  0.00000000E+00  0.00000000E+00  0.00000000E+00
  0.00000000E+00  0.00000000E+00  0.00000000E+00
  0.00000000E+00  0.00000000E+00  0.00000000E+00
  0.00000000E+00  0.00000000E+00  0.00000000E+00
  0.00000000E+00  0.00000000E+00  0.00000000E+00
  0.00000000E+00  0.00000000E+00  0.00000000E+00
  0.00000000E+00  0.00000000E+00  0.00000000E+00
  0.00000000E+00  0.00000000E+00  0.00000000E+00
  0.00000000E+00  0.00000000E+00  0.00000000E+00
  0.00000000E+00  0.00000000E+00  0.00000000E+00
  0.00000000E+00  0.00000000E+00  0.00000000E+00
  0.00000000E+00  0.00000000E+00  0.00000000E+00
  0.00000000E+00  0.00000000E+00  0.00000000E+00
  0.00000000E+00  0.00000000E+00  0.00000000E+00
  0.00000000E+00  0.00000000E+00  0.00000000E+00
  0.00000000E+00  0.00000000E+00  0.00000000E+00
  0.00000000E+00  0.00000000E+00  0.00000000E+00
  0.00000000E+00  0.00000000E+00  0.00000000E+00
  0.00000000E+00  0.00000000E+00  0.00000000E+00
  0.00000000E+00  0.00000000E+00  0.00000000E+00
  0.00000000E+00  0.00000000E+00  0.00000000E+00
