Pb Tl F                                 
   1.00000000000000     
     9.6207960000000003   -9.6207960000000003    0.0000000000000000
     9.6207960000000003    9.6207960000000003    0.0000000000000000
     0.0000000000000000    0.0000000000000000   19.2415920000000007
   F    Pb   Tl
    96    32    32
Direct
  0.0351826725099674  0.2732300634679335  0.9932178225464423
  0.0350345272663482  0.2216480031713823  0.2446676101901386
  0.0220029918931928  0.2661924827133697  0.4950027406364416
  0.9767068154246284  0.2835894319090005  0.7460279302645985
  0.4620909417807308  0.2357228717381744  0.9959898867745098
  0.5345490769044270  0.2505237664705693  0.2471700871252706
  0.5479736836438198  0.2659725812324635  0.4974072949399043
  0.4654245447742203  0.2064600797810171  0.7452256045757072
  0.2230162200804256  0.4552538124839943 -0.0008308643768690
  0.2195139801784603  0.5423485072989079  0.2466756524371382
  0.2878950507422556  0.5367090499421854  0.4965939349373726
  0.2224036360811102  0.5084493684292088  0.7489740351401437
  0.9675028186867785  0.7890612438823251  0.9953676068888458
  0.0456685613303043  0.7304946792050678  0.2449896171083895
  0.9648486685178208  0.7865137614521760  0.4943346437195181
  0.9789674998972082  0.7725260715453069  0.7431236266408102
  0.7402749646399227  0.4922896423049845  0.9984805859047975
  0.7320472022389992  0.4566363993251309  0.2459637945282076
  0.7237439072242384  0.4703322266304606  0.4929035015161571
  0.7833910161905878  0.4665711441813849  0.7427093535183793
  0.4500087976092562  0.7254413236461162  0.9948190370363189
  0.5237160584726249  0.7258382419404253  0.2426475698582229
  0.4715914106246085  0.7102177261443486  0.4932132843640180
  0.4927262293255011  0.7915510647175568  0.7457163855697787
  0.2502157400242388  0.9929703914424800  0.9940385826478700
  0.2114348484863147  0.0365424717023040  0.2447988274406477
  0.2298333010611953  0.0221519954783985  0.4981232508162093
  0.2909949731867095  0.0338300352739198  0.7456942322777131
  0.7909009565654204  0.9644553261425761  0.9951447034930435
  0.7215773398986192  0.9785599779818620  0.2447730174868496
  0.7944082271510362  0.9654532540952605  0.4966880806127052
  0.7667510668250527  0.9707166568138269  0.7431873792256536
  0.1588461882164028  0.1640822786494315  0.1180157696948659
  0.1496981811023270  0.1516355448065339  0.3866204523175221
  0.1543380625058461  0.1494231455265489  0.6186710228140085
  0.1552782247688504  0.1553759126489636  0.8745951491709547
  0.6157901764673035  0.1196060155435800  0.1395648472030267
  0.6252381932980663  0.1319056767941605  0.3552878384123095
  0.6447346129621666  0.1508524085679060  0.6425534678776942
  0.5989468145323149  0.1043431563701072  0.8914984469053805
  0.3800827963979844  0.3880845986554026  0.1542741092353591
  0.4163893499892777  0.4180693838848140  0.3859090455235898
  0.3789758954392225  0.3799798902878524  0.6576982679811658
  0.3364889909098689  0.3345178783355959  0.8657397355775309
  0.1657658031380663  0.6642530891412565  0.1122798371797348
  0.1247998781648295  0.6215505894686855  0.3996403361738861
  0.1504168510414289  0.6424013708822804  0.6394964562328147
  0.1431336697648861  0.6393010870478283  0.8715929591155664
  0.8694547429631402  0.3761991604797654  0.0995011053560990
  0.8670081060105234  0.3780913047160250  0.3895403198736035
  0.8419072565071218  0.3412539734057330  0.6146095865676999
  0.8694580647587651  0.3675894075938382  0.9053201137374988
  0.5984355183115163  0.6023365020048912  0.1166091764322122
  0.5889211018921190  0.6027318127699880  0.3854376530414313
  0.6063151371513336  0.6063303490845126  0.6565328318393694
  0.6251950641067783  0.6213797213378979  0.9019212186602134
  0.3439135695627414  0.8490354712421946  0.1222407589064110
  0.3745555524233194  0.8818082490503707  0.4105736878875973
  0.3865793119396215  0.8847478972964548  0.5958588122451719
  0.3892364534422050  0.8906198201952714  0.8818237999305766
  0.8792051844675988  0.8793666102369616  0.1572285034669589
  0.8614773489380951  0.8587508601689707  0.3465788350511969
  0.8692087610004023  0.8698601878184539  0.6339400214919212
  0.8413490373025659  0.8441067474014488  0.8697359725600403
  0.9067025667577808  0.1057888727426509  0.1356039415152993
  0.8938175758491410  0.1018852760836301  0.3678891083848089
  0.8906096908373946  0.0965558044898212  0.6363874857531523
  0.9002879399663943  0.0940441963038557  0.8875519795709725
  0.3802950585396142  0.1332048796785817  0.1595601339024534
  0.3775626857127115  0.1203998064828497  0.4084461280123764
  0.3757038973102503  0.1140746723191579  0.5935858254717394
  0.3851758878859006  0.1053442339336266  0.8809870761878735
  0.1110372221199867  0.3972727249104981  0.1536767386413153
  0.0922314335344324  0.4047727030175710  0.3639449302134992
  0.0935852227287195  0.3960257557931822  0.6357275210512290
  0.0924197545689931  0.4039243692643767  0.8656601939088883
  0.8697716897548425  0.6486136893881681  0.1474160125080589
  0.8963459467538474  0.6063678050811830  0.3835591297546172
  0.8495711342133032  0.6449618842965275  0.6326292288706957
  0.8886809240930500  0.6040700950667141  0.8981293547558907
  0.6346232710373014  0.3774945033989669  0.1027740990093475
  0.6508886795590257  0.3507980588053635  0.3711466932035172
  0.6169467158273633  0.3752952313581214  0.6597949745143047
  0.6268569128693640  0.3727081770579748  0.9071158308000407
  0.3830994213783212  0.6254813571720381  0.1479566902312979
  0.3459987254863742  0.6553891074979009  0.3668033489365257
  0.3734174961035789  0.6137890752632094  0.6603471318865782
  0.3756980175911758  0.6226245823751629  0.8440914749177474
  0.1036248847684327  0.9130300928115069  0.1297588328886253
  0.1093613114857997  0.8941722279952191  0.3958319766106916
  0.0843186167209407  0.9013859973472144  0.6222660274628984
  0.0851693155662954  0.9006473081467807  0.8823724567404868
  0.6632091116470509  0.8513706064923103  0.1195320200207156
  0.6380763367217769  0.8580793498296069  0.4067276428847402
  0.6502098836412563  0.8392437842300086  0.6164233270608530
  0.6207073753575199  0.8770247868798815  0.9084065539481878
  0.0061329665684271  0.2551072135952715  0.1220028901728859
  0.0019419777556277  0.2443828743303220  0.3715287294961899
  0.0004943225751758  0.2491543415719936  0.6195077444908340
  0.9973089491766538  0.2432032250675253  0.8717590505185795
  0.4957396142314230  0.2566176460274230  0.1243173255796004
  0.5008367761503175  0.2575401796247253  0.3799529695801783
  0.5022552717716687  0.2476354112045635  0.6257003196751177
  0.4961366716767245  0.2471821028720680  0.8781232058086106
  0.2492834969714703  0.5004727792503051  0.1226843091446682
  0.2570906020055417  0.5092068911374861  0.3762337535479658
  0.2460315740261707  0.4980561462760653  0.6243581494725503
  0.2455701593503803  0.4970990642240201  0.8753079003531488
  0.0040334720839355  0.7589012318815973  0.1253241910765971
  0.0018385674044389  0.7526972690755926  0.3723452645733430
  0.9998703749519799  0.7454348384471389  0.6208092260881399
  0.9947318182515110  0.7480352660274142  0.8737272671330484
  0.7572564265067602  0.5053354754281660  0.1273055577047558
  0.7447611398488400  0.5037665550752497  0.3711525317364320
  0.7432352764117338  0.5014732182386324  0.6266121238918786
  0.7529624767959899  0.5001611466807914  0.8744186571464236
  0.5026297480291699  0.7504642106704308  0.1216351753255724
  0.5022181048018949  0.7529565229441176  0.3738739398201206
  0.4988194789706749  0.7494068049267018  0.6282757354556934
  0.4979848784185167  0.7467262028967988  0.8739965588047566
  0.2505355427229455  0.0098316790448209  0.1243254967159730
  0.2456526778911568  0.0028041269343749  0.3752701874722249
  0.2498408627395464  0.9997143690101742  0.6235558413629800
  0.2394814346436713 -0.0006718505021524  0.8720645395086876
  0.7566802465112188  0.0018277589782649  0.1225196634660703
  0.7560862759835418  0.9923071908930471  0.3731105278016413
  0.7475853810081424  0.0026360828087555  0.6216922984468269
  0.7508559371811943  0.9940748098965085  0.8749124249745583
  0.9918105842183879  0.9845831427199534  0.9892944302492207
  0.0021223564965823  0.0113906397817926  0.2355019122732649
  0.0028206537460298  0.9777877150066934  0.5012034308915985
  0.9734665033155270  0.9723827447354616  0.7296857584576861
  0.4874181243290112  0.0016487854027867  0.9739247976904575
  0.5311238172222309  0.0488196454198995  0.2469239560690783
  0.4693779323473316  0.9975726457970382  0.4968142212127509
  0.4769812015565768  0.0078039038507023  0.7700321848933837
  0.2441452402135152  0.2530290303841437  0.9821033037234205
  0.2326190228075396  0.2299203980013087  0.2365365283172247
  0.2431670115490500  0.2132366066695647  0.5014700941236166
  0.2746524873566225  0.2411185370795726  0.7506491939364602
  0.9990686626801670  0.4704600600946496  0.9812845880360285
  0.0311969657224543  0.5106095436691229  0.2548131272168601
  0.9964531235644482  0.4879353325668979  0.4641760229180030
  0.0124921008299522  0.4744039762433459  0.7469747962486265
  0.7462049989239090  0.2933227369011367  0.0041834167019866
  0.7235657652021175  0.2614383851351780  0.2624881690549499
  0.7466730101339720  0.2824008630700142  0.4881733261024357
  0.7608668058132823  0.2700421848242159  0.7247258577306098
  0.5433492639047571  0.5071247353016984  0.9989851197565413
  0.5007248943045657  0.5238113991156927  0.2310363364481184
  0.4993438125803387  0.5128946041875966  0.4878095755644433
  0.4881054337272349  0.4975098915657710  0.7340776850384351
  0.2642166409564112  0.7742989855056083  0.0118026968938436
  0.2492918652226910  0.7329770393462379  0.2287138226740464
  0.2783143928075252  0.7399501683375789  0.4854299007590188
  0.2529754040582500  0.7041688546216418  0.7526053203286776
  0.7595934237124056  0.7697273005219566  0.9860178514767831
  0.7549577576782176  0.7768257002150832  0.2314774490305162
  0.7594847503711406  0.7776392091752098  0.5027108909029169
  0.7642071541307059  0.7672606807427667  0.7260158550052299
 
  0.00000000E+00  0.00000000E+00  0.00000000E+00
  0.00000000E+00  0.00000000E+00  0.00000000E+00
  0.00000000E+00  0.00000000E+00  0.00000000E+00
  0.00000000E+00  0.00000000E+00  0.00000000E+00
  0.00000000E+00  0.00000000E+00  0.00000000E+00
  0.00000000E+00  0.00000000E+00  0.00000000E+00
  0.00000000E+00  0.00000000E+00  0.00000000E+00
  0.00000000E+00  0.00000000E+00  0.00000000E+00
  0.00000000E+00  0.00000000E+00  0.00000000E+00
  0.00000000E+00  0.00000000E+00  0.00000000E+00
  0.00000000E+00  0.00000000E+00  0.00000000E+00
  0.00000000E+00  0.00000000E+00  0.00000000E+00
  0.00000000E+00  0.00000000E+00  0.00000000E+00
  0.00000000E+00  0.00000000E+00  0.00000000E+00
  0.00000000E+00  0.00000000E+00  0.00000000E+00
  0.00000000E+00  0.00000000E+00  0.00000000E+00
  0.00000000E+00  0.00000000E+00  0.00000000E+00
  0.00000000E+00  0.00000000E+00  0.00000000E+00
  0.00000000E+00  0.00000000E+00  0.00000000E+00
  0.00000000E+00  0.00000000E+00  0.00000000E+00
  0.00000000E+00  0.00000000E+00  0.00000000E+00
  0.00000000E+00  0.00000000E+00  0.00000000E+00
  0.00000000E+00  0.00000000E+00  0.00000000E+00
  0.00000000E+00  0.00000000E+00  0.00000000E+00
  0.00000000E+00  0.00000000E+00  0.00000000E+00
  0.00000000E+00  0.00000000E+00  0.00000000E+00
  0.00000000E+00  0.00000000E+00  0.00000000E+00
  0.00000000E+00  0.00000000E+00  0.00000000E+00
  0.00000000E+00  0.00000000E+00  0.00000000E+00
  0.00000000E+00  0.00000000E+00  0.00000000E+00
  0.00000000E+00  0.00000000E+00  0.00000000E+00
  0.00000000E+00  0.00000000E+00  0.00000000E+00
  0.00000000E+00  0.00000000E+00  0.00000000E+00
  0.00000000E+00  0.00000000E+00  0.00000000E+00
  0.00000000E+00  0.00000000E+00  0.00000000E+00
  0.00000000E+00  0.00000000E+00  0.00000000E+00
  0.00000000E+00  0.00000000E+00  0.00000000E+00
  0.00000000E+00  0.00000000E+00  0.00000000E+00
  0.00000000E+00  0.00000000E+00  0.00000000E+00
  0.00000000E+00  0.00000000E+00  0.00000000E+00
  0.00000000E+00  0.00000000E+00  0.00000000E+00
  0.00000000E+00  0.00000000E+00  0.00000000E+00
  0.00000000E+00  0.00000000E+00  0.00000000E+00
  0.00000000E+00  0.00000000E+00  0.00000000E+00
  0.00000000E+00  0.00000000E+00  0.00000000E+00
  0.00000000E+00  0.00000000E+00  0.00000000E+00
  0.00000000E+00  0.00000000E+00  0.00000000E+00
  0.00000000E+00  0.00000000E+00  0.00000000E+00
  0.00000000E+00  0.00000000E+00  0.00000000E+00
  0.00000000E+00  0.00000000E+00  0.00000000E+00
  0.00000000E+00  0.00000000E+00  0.00000000E+00
  0.00000000E+00  0.00000000E+00  0.00000000E+00
  0.00000000E+00  0.00000000E+00  0.00000000E+00
  0.00000000E+00  0.00000000E+00  0.00000000E+00
  0.00000000E+00  0.00000000E+00  0.00000000E+00
  0.00000000E+00  0.00000000E+00  0.00000000E+00
  0.00000000E+00  0.00000000E+00  0.00000000E+00
  0.00000000E+00  0.00000000E+00  0.00000000E+00
  0.00000000E+00  0.00000000E+00  0.00000000E+00
  0.00000000E+00  0.00000000E+00  0.00000000E+00
  0.00000000E+00  0.00000000E+00  0.00000000E+00
  0.00000000E+00  0.00000000E+00  0.00000000E+00
  0.00000000E+00  0.00000000E+00  0.00000000E+00
  0.00000000E+00  0.00000000E+00  0.00000000E+00
  0.00000000E+00  0.00000000E+00  0.00000000E+00
  0.00000000E+00  0.00000000E+00  0.00000000E+00
  0.00000000E+00  0.00000000E+00  0.00000000E+00
  0.00000000E+00  0.00000000E+00  0.00000000E+00
  0.00000000E+00  0.00000000E+00  0.00000000E+00
  0.00000000E+00  0.00000000E+00  0.00000000E+00
  0.00000000E+00  0.00000000E+00  0.00000000E+00
  0.00000000E+00  0.00000000E+00  0.00000000E+00
  0.00000000E+00  0.00000000E+00  0.00000000E+00
  0.00000000E+00  0.00000000E+00  0.00000000E+00
  0.00000000E+00  0.00000000E+00  0.00000000E+00
  0.00000000E+00  0.00000000E+00  0.00000000E+00
  0.00000000E+00  0.00000000E+00  0.00000000E+00
  0.00000000E+00  0.00000000E+00  0.00000000E+00
  0.00000000E+00  0.00000000E+00  0.00000000E+00
  0.00000000E+00  0.00000000E+00  0.00000000E+00
  0.00000000E+00  0.00000000E+00  0.00000000E+00
  0.00000000E+00  0.00000000E+00  0.00000000E+00
  0.00000000E+00  0.00000000E+00  0.00000000E+00
  0.00000000E+00  0.00000000E+00  0.00000000E+00
  0.00000000E+00  0.00000000E+00  0.00000000E+00
  0.00000000E+00  0.00000000E+00  0.00000000E+00
  0.00000000E+00  0.00000000E+00  0.00000000E+00
  0.00000000E+00  0.00000000E+00  0.00000000E+00
  0.00000000E+00  0.00000000E+00  0.00000000E+00
  0.00000000E+00  0.00000000E+00  0.00000000E+00
  0.00000000E+00  0.00000000E+00  0.00000000E+00
  0.00000000E+00  0.00000000E+00  0.00000000E+00
  0.00000000E+00  0.00000000E+00  0.00000000E+00
  0.00000000E+00  0.00000000E+00  0.00000000E+00
  0.00000000E+00  0.00000000E+00  0.00000000E+00
  0.00000000E+00  0.00000000E+00  0.00000000E+00
  0.00000000E+00  0.00000000E+00  0.00000000E+00
  0.00000000E+00  0.00000000E+00  0.00000000E+00
  0.00000000E+00  0.00000000E+00  0.00000000E+00
  0.00000000E+00  0.00000000E+00  0.00000000E+00
  0.00000000E+00  0.00000000E+00  0.00000000E+00
  0.00000000E+00  0.00000000E+00  0.00000000E+00
  0.00000000E+00  0.00000000E+00  0.00000000E+00
  0.00000000E+00  0.00000000E+00  0.00000000E+00
  0.00000000E+00  0.00000000E+00  0.00000000E+00
  0.00000000E+00  0.00000000E+00  0.00000000E+00
  0.00000000E+00  0.00000000E+00  0.00000000E+00
  0.00000000E+00  0.00000000E+00  0.00000000E+00
  0.00000000E+00  0.00000000E+00  0.00000000E+00
  0.00000000E+00  0.00000000E+00  0.00000000E+00
  0.00000000E+00  0.00000000E+00  0.00000000E+00
  0.00000000E+00  0.00000000E+00  0.00000000E+00
  0.00000000E+00  0.00000000E+00  0.00000000E+00
  0.00000000E+00  0.00000000E+00  0.00000000E+00
  0.00000000E+00  0.00000000E+00  0.00000000E+00
  0.00000000E+00  0.00000000E+00  0.00000000E+00
  0.00000000E+00  0.00000000E+00  0.00000000E+00
  0.00000000E+00  0.00000000E+00  0.00000000E+00
  0.00000000E+00  0.00000000E+00  0.00000000E+00
  0.00000000E+00  0.00000000E+00  0.00000000E+00
  0.00000000E+00  0.00000000E+00  0.00000000E+00
  0.00000000E+00  0.00000000E+00  0.00000000E+00
  0.00000000E+00  0.00000000E+00  0.00000000E+00
  0.00000000E+00  0.00000000E+00  0.00000000E+00
  0.00000000E+00  0.00000000E+00  0.00000000E+00
  0.00000000E+00  0.00000000E+00  0.00000000E+00
  0.00000000E+00  0.00000000E+00  0.00000000E+00
  0.00000000E+00  0.00000000E+00  0.00000000E+00
  0.00000000E+00  0.00000000E+00  0.00000000E+00
  0.00000000E+00  0.00000000E+00  0.00000000E+00
  0.00000000E+00  0.00000000E+00  0.00000000E+00
  0.00000000E+00  0.00000000E+00  0.00000000E+00
  0.00000000E+00  0.00000000E+00  0.00000000E+00
  0.00000000E+00  0.00000000E+00  0.00000000E+00
  0.00000000E+00  0.00000000E+00  0.00000000E+00
  0.00000000E+00  0.00000000E+00  0.00000000E+00
  0.00000000E+00  0.00000000E+00  0.00000000E+00
  0.00000000E+00  0.00000000E+00  0.00000000E+00
  0.00000000E+00  0.00000000E+00  0.00000000E+00
  0.00000000E+00  0.00000000E+00  0.00000000E+00
  0.00000000E+00  0.00000000E+00  0.00000000E+00
  0.00000000E+00  0.00000000E+00  0.00000000E+00
  0.00000000E+00  0.00000000E+00  0.00000000E+00
  0.00000000E+00  0.00000000E+00  0.00000000E+00
  0.00000000E+00  0.00000000E+00  0.00000000E+00
  0.00000000E+00  0.00000000E+00  0.00000000E+00
  0.00000000E+00  0.00000000E+00  0.00000000E+00
  0.00000000E+00  0.00000000E+00  0.00000000E+00
  0.00000000E+00  0.00000000E+00  0.00000000E+00
  0.00000000E+00  0.00000000E+00  0.00000000E+00
  0.00000000E+00  0.00000000E+00  0.00000000E+00
  0.00000000E+00  0.00000000E+00  0.00000000E+00
  0.00000000E+00  0.00000000E+00  0.00000000E+00
  0.00000000E+00  0.00000000E+00  0.00000000E+00
  0.00000000E+00  0.00000000E+00  0.00000000E+00
  0.00000000E+00  0.00000000E+00  0.00000000E+00
  0.00000000E+00  0.00000000E+00  0.00000000E+00
  0.00000000E+00  0.00000000E+00  0.00000000E+00
  0.00000000E+00  0.00000000E+00  0.00000000E+00
  0.00000000E+00  0.00000000E+00  0.00000000E+00
