Zn Ag Cl                                
   1.00000000000000     
     9.7438739999999999   -9.7438739999999999    0.0000000000000000
     9.7438739999999999    9.7438739999999999    0.0000000000000000
     0.0000000000000000    0.0000000000000000   19.4877469999999988
   Ag   Cl   Zn
    32    96    32
Direct
  0.0036597824486268  0.0231566227909384  0.9462370848118110
  0.9490854689978593  0.9826842483966970  0.2551251733542825
  0.0939608815437039  0.9557639164433460  0.4480153598659041
  0.0485929421715112  0.9785473300987334  0.6720579373867933
  0.5568128375061668  0.9361552533223743  0.0186449118186869
  0.4706236511919609  0.0247576901562083  0.2783041145448561
  0.5559806883332682  0.0518851527779098  0.4595672754973682
  0.4553413760089198  0.9642563674639710  0.8183040591443395
  0.1569146776003112  0.2548804788892199  0.9744505504158881
  0.2343992819106585  0.3220724744067430  0.2184999711433665
  0.3052115668343571  0.2961033275892012  0.5364426474200564
  0.1477582571896280  0.2699236195473576  0.7582236438760003
  0.0304731911255906  0.5185612449170296  0.0386430840933357
  0.0368536914531503  0.4783521921439441  0.3154839312037193
  0.0570704571657242  0.4383731931804156  0.5136645367088752
  0.9699814591001842  0.5005579467674506  0.8338436628905393
  0.7436072165355110  0.2650395361914827  0.0468401379275451
  0.7310367411869907  0.2259977908322169  0.2521498760318459
  0.7960664672809012  0.3129597330975354  0.5087708677666654
  0.6655444624260202  0.2456036046647249  0.7880465725053969
  0.4635918228165948  0.4183144753541056  0.0221245299299158
  0.5087701982089986  0.4724041784125634  0.1939858224012171
  0.5364843445045697  0.4284444164422684  0.5168111133112816
  0.5523825269606386  0.4483809617616458  0.7162847583619915
  0.1841324737768267  0.7629867421309540  0.9432445172476004
  0.1742274294077904  0.8086685293037211  0.2324754075776908
  0.3296512660941727  0.8061432566846241  0.4469948561160719
  0.1774837244638412  0.7676671716207989  0.7656300602782568
  0.7193411163349109  0.6200760585054175  0.0394136195843036
  0.7260931813969664  0.7615423824123146  0.2154081661668960
  0.7417279662047972  0.8047733965626059  0.4746073731857816
  0.6509327628715800  0.7899599209858104  0.7878234538743947
  0.9665750639612715  0.2019312090704232  0.9827163985024365
  0.0322754210955532  0.3042456733597764  0.2623678660428677
  0.9886216719663973  0.1196231819000984  0.4934672219762809
  0.9682942357355990  0.3226473152782152  0.7950611080529637
  0.5475549857137932  0.2541023926135563  0.0269951425758551
  0.5494340015435552  0.2920111989297937  0.2072620113877496
  0.4776393780360708  0.2308975926666546  0.4735557002550461
  0.3788625309261214  0.1458960893096858  0.7769329785039297
  0.2710405755039896  0.6014195989588357  0.9987383454416253
  0.2261700674666647  0.4769746095501145  0.2963670529317348
  0.3670248936682868  0.4743203398315471  0.4949343439499271
  0.2421463285501897  0.4261698192512510  0.7806724751809243
  0.9464307617587141  0.6969368479178430  0.0036472961953631
  0.9954276075234938  0.8043151412325420  0.2045049089467855
  0.9916070233181329  0.7443388865758698  0.5113173031455777
  0.9877317264144211  0.8132721477670509  0.7000811520356953
  0.8031330259274264  0.5084437063959394  0.9491272512889143
  0.7894253635396394  0.4098520883117986  0.2708474376131904
  0.7854562059890829  0.6222898468998592  0.4776601431739557
  0.7464525417401904  0.4244559520873898  0.7578824194850864
  0.5302219001250262  0.5850401549024961  0.9968734842746104
  0.5276404520296315  0.8281206222750707  0.2709595809952777
  0.5597241779723432  0.7376633195005521  0.4679770571331741
  0.4794580313910023  0.8279589418039821  0.7270144516258287
  0.1772435349828017  0.0429242389712115  0.0275561564366517
  0.2904550034037184  0.9565470946432656  0.2182365668512583
  0.2378362226744522  0.1330550638192074  0.5042933808403774
  0.2426451008823826  0.9294953277679852  0.7327610733649162
  0.7005605628955663  0.0527789276121398  0.0201560943009165
  0.7686724179519135  0.9443084375142480  0.2122859964102909
  0.7345403671437291  0.1353118577123005  0.5101741723817897
  0.7536867229813082  0.9133451608902837  0.7213397150862227
  0.0624829709546515  0.0856343979823290  0.1758717816048674
  0.1326803164982626  0.0756172746272451  0.3411827171816052
  0.1225355669702808  0.1481849091402229  0.6610008617993288
  0.1624645111520650  0.1361150493220395  0.8632931260612539
  0.5444084746614787  0.0369259031443457  0.1591464570648822
  0.6039933966170765  0.1527161279601384  0.3344498591038418
  0.6330326928309664  0.1529030997834554  0.6771595103216929
  0.6156697538326755  0.0615883939640233  0.8481741537933174
  0.3433107048673880  0.4415845133045336  0.1287609812231209
  0.4719260721040635  0.4340821575257550  0.3323552731454372
  0.4363954730952974  0.3186076596429838  0.6445934394901793
  0.3176214935828135  0.3521488972610363  0.9381558600369940
  0.0956965475852846  0.5722016778702411  0.1528147491475615
  0.1661661337504066  0.5738652149501822  0.4606611596871322
  0.1749266772667236  0.6493757935548075  0.6512168329164595
  0.1178514813605598  0.6363119861588851  0.8451411016692186
  0.9100682371393444  0.3948591107052926  0.0967276151009550
  0.9089742573804716  0.4244136000566058  0.4209489551763367
  0.9354942248266619  0.3432890360093281  0.5963459829987739
  0.7449393432666173  0.2726715512002608  0.9097285243997244
  0.5661790794511737  0.6390900762130073  0.1665323299088428
  0.6828175039267567  0.6255555149634153  0.3199580047223026
  0.6595720253751286  0.6946460497871271  0.6409307413494606
  0.6062694731479483  0.6094036995805288  0.8158877359919735
  0.4179068738662932  0.8446531600724057  0.0733615609234651
  0.3905798304535836  0.9801913319807047  0.3979538380793359
  0.3768673536709441  0.7903091428051782  0.5738562381952839
  0.3059449945338389  0.8907348778469443  0.8945874879323530
  0.9288586276636458  0.9451674459553194  0.0579087646134041
  0.9352213301710445  0.9160982467930328  0.3795022663558909
  0.8495902344439801  0.9237317284867881  0.5465041714844191
  0.7796426823769448  0.8622720782558680  0.9049534979913726
  0.8366358688314240  0.1774944457966405  0.1494435924013855
  0.8711204298241182  0.1567538326453146  0.3503384905993207
  0.8722405642178660  0.1112350997990019  0.6673965290498506
  0.8983615153205344  0.0766332036875221  0.8312729418641235
  0.3286223912976119  0.1877934275037859  0.1303964345759463
  0.3440007221982426  0.2118340878889214  0.3141565982684135
  0.4035518724488509  0.0506044292706623  0.6055494167990837
  0.4115064967155594  0.1119735679125059  0.9468690171467643
  0.1301132667652818  0.3047056812762616  0.1016290982528032
  0.1291125415889639  0.3154058391651970  0.4196652330049426
  0.1832778416437128  0.3930249352806354  0.6152714521050767
  0.0905568378759286  0.4361406532229636  0.9328372386017832
  0.8399034540166869  0.6315727890234335  0.1613934965264757
  0.9588559769876761  0.6417832566512223  0.3333542870744148
  0.9059209378986492  0.5739746138047563  0.6444863705546622
  0.8688873931498076  0.6585341810499882  0.8125416563720864
  0.6710722537917391  0.4387845546716635  0.0966346451201271
  0.6659800471074717  0.3832327819846271  0.4220739551641917
  0.6782667120239945  0.4362536795444229  0.5983023320312711
  0.5226050189337771  0.3544757225382456  0.8394609982019452
  0.3129285603241748  0.6845567072744244  0.1971030318739850
  0.3822721481573395  0.6644730444534528  0.3591383738262170
  0.4190030176952504  0.5647904530403147  0.6670304268747322
  0.3578398848231150  0.6214223513070951  0.8411384738633882
  0.1682370946379616  0.8080946716283286  0.0702904132806985
  0.1715957476603622  0.8034934759744395  0.3712958233201967
  0.1592663549434158  0.9052956815885599  0.5626122053504075
  0.0422701661635395  0.8702045423830105  0.8754204359999006
  0.6943788628903925  0.8010183388913455  0.0697602358296582
  0.6925423294524656  0.9457960946667424  0.3927880882751933
  0.6056348810641461  0.9404477520307430  0.5712891820511655
  0.5398958656762344  0.8193504609604175  0.9050150746014871
  0.9878947062438261  0.2525560343699020  0.1514561949039720
  0.0280963491129737  0.2059369752787940  0.3738864169201451
  0.9858969293059594  0.1888773430362809  0.5997194620341473
  0.8964085910593832  0.2343355902606473  0.8795453281330858
  0.4978912755874889  0.1844513079715684  0.1262266991564938
  0.4954748785081304  0.2734260224998560  0.3596489752018557
  0.4681202364788247  0.1658598542429760  0.6765709234140141
  0.4126748146992441  0.2451351965555595  0.8734895193303006
  0.2488099142559139  0.5777277365091341  0.1154954702310648
  0.3283750989857337  0.5058504907304007  0.3842755095670599
  0.2694227472859130  0.5058278850185527  0.6728657665144228
  0.2335243868042756  0.5159742427002876  0.8895483217713701
  0.0086071910457873  0.8038349635898648  0.0886525389804338
  0.0666067303826179  0.6850948434137591  0.4133211202912928
  0.0173441005571695  0.6957480822661458  0.6209336100901648
  0.9168521852775730  0.7686389928178199  0.8966029079234140
  0.7983068855725020  0.4753933482100182  0.1651024832352525
  0.7693014447203435  0.5030311645836111  0.3833489146925251
  0.7585842654584107  0.5795777837426491  0.5884923215850455
  0.7491166124450418  0.5318333427116962  0.8440487273184518
  0.4576406405919058  0.7620714935946699  0.1665593113510032
  0.5458387504509018  0.7072687882786204  0.3557014877522956
  0.5351747823651096  0.8045468238721613  0.6176595917016401
  0.4894298201023439  0.6635816830078135  0.9017942780204142
  0.2223912061122817  0.0581475786841564  0.1433094935314569
  0.2800812916931524  0.1104301879382314  0.3964385558661306
  0.2977737749147975  0.9257010356110688  0.6242839321919564
  0.2643994860857594  0.0404429719567138  0.9263800466531628
  0.7674033797444748  0.9483966052909883  0.0953234822858147
  0.8304451973510025  0.0258406427383266  0.4363201095048956
  0.7487587392109609  0.0248367418900843  0.6116233145838740
  0.7575003767743698  0.9890271836316357  0.8264686941003923
 
  0.00000000E+00  0.00000000E+00  0.00000000E+00
  0.00000000E+00  0.00000000E+00  0.00000000E+00
  0.00000000E+00  0.00000000E+00  0.00000000E+00
  0.00000000E+00  0.00000000E+00  0.00000000E+00
  0.00000000E+00  0.00000000E+00  0.00000000E+00
  0.00000000E+00  0.00000000E+00  0.00000000E+00
  0.00000000E+00  0.00000000E+00  0.00000000E+00
  0.00000000E+00  0.00000000E+00  0.00000000E+00
  0.00000000E+00  0.00000000E+00  0.00000000E+00
  0.00000000E+00  0.00000000E+00  0.00000000E+00
  0.00000000E+00  0.00000000E+00  0.00000000E+00
  0.00000000E+00  0.00000000E+00  0.00000000E+00
  0.00000000E+00  0.00000000E+00  0.00000000E+00
  0.00000000E+00  0.00000000E+00  0.00000000E+00
  0.00000000E+00  0.00000000E+00  0.00000000E+00
  0.00000000E+00  0.00000000E+00  0.00000000E+00
  0.00000000E+00  0.00000000E+00  0.00000000E+00
  0.00000000E+00  0.00000000E+00  0.00000000E+00
  0.00000000E+00  0.00000000E+00  0.00000000E+00
  0.00000000E+00  0.00000000E+00  0.00000000E+00
  0.00000000E+00  0.00000000E+00  0.00000000E+00
  0.00000000E+00  0.00000000E+00  0.00000000E+00
  0.00000000E+00  0.00000000E+00  0.00000000E+00
  0.00000000E+00  0.00000000E+00  0.00000000E+00
  0.00000000E+00  0.00000000E+00  0.00000000E+00
  0.00000000E+00  0.00000000E+00  0.00000000E+00
  0.00000000E+00  0.00000000E+00  0.00000000E+00
  0.00000000E+00  0.00000000E+00  0.00000000E+00
  0.00000000E+00  0.00000000E+00  0.00000000E+00
  0.00000000E+00  0.00000000E+00  0.00000000E+00
  0.00000000E+00  0.00000000E+00  0.00000000E+00
  0.00000000E+00  0.00000000E+00  0.00000000E+00
  0.00000000E+00  0.00000000E+00  0.00000000E+00
  0.00000000E+00  0.00000000E+00  0.00000000E+00
  0.00000000E+00  0.00000000E+00  0.00000000E+00
  0.00000000E+00  0.00000000E+00  0.00000000E+00
  0.00000000E+00  0.00000000E+00  0.00000000E+00
  0.00000000E+00  0.00000000E+00  0.00000000E+00
  0.00000000E+00  0.00000000E+00  0.00000000E+00
  0.00000000E+00  0.00000000E+00  0.00000000E+00
  0.00000000E+00  0.00000000E+00  0.00000000E+00
  0.00000000E+00  0.00000000E+00  0.00000000E+00
  0.00000000E+00  0.00000000E+00  0.00000000E+00
  0.00000000E+00  0.00000000E+00  0.00000000E+00
  0.00000000E+00  0.00000000E+00  0.00000000E+00
  0.00000000E+00  0.00000000E+00  0.00000000E+00
  0.00000000E+00  0.00000000E+00  0.00000000E+00
  0.00000000E+00  0.00000000E+00  0.00000000E+00
  0.00000000E+00  0.00000000E+00  0.00000000E+00
  0.00000000E+00  0.00000000E+00  0.00000000E+00
  0.00000000E+00  0.00000000E+00  0.00000000E+00
  0.00000000E+00  0.00000000E+00  0.00000000E+00
  0.00000000E+00  0.00000000E+00  0.00000000E+00
  0.00000000E+00  0.00000000E+00  0.00000000E+00
  0.00000000E+00  0.00000000E+00  0.00000000E+00
  0.00000000E+00  0.00000000E+00  0.00000000E+00
  0.00000000E+00  0.00000000E+00  0.00000000E+00
  0.00000000E+00  0.00000000E+00  0.00000000E+00
  0.00000000E+00  0.00000000E+00  0.00000000E+00
  0.00000000E+00  0.00000000E+00  0.00000000E+00
  0.00000000E+00  0.00000000E+00  0.00000000E+00
  0.00000000E+00  0.00000000E+00  0.00000000E+00
  0.00000000E+00  0.00000000E+00  0.00000000E+00
  0.00000000E+00  0.00000000E+00  0.00000000E+00
  0.00000000E+00  0.00000000E+00  0.00000000E+00
  0.00000000E+00  0.00000000E+00  0.00000000E+00
  0.00000000E+00  0.00000000E+00  0.00000000E+00
  0.00000000E+00  0.00000000E+00  0.00000000E+00
  0.00000000E+00  0.00000000E+00  0.00000000E+00
  0.00000000E+00  0.00000000E+00  0.00000000E+00
  0.00000000E+00  0.00000000E+00  0.00000000E+00
  0.00000000E+00  0.00000000E+00  0.00000000E+00
  0.00000000E+00  0.00000000E+00  0.00000000E+00
  0.00000000E+00  0.00000000E+00  0.00000000E+00
  0.00000000E+00  0.00000000E+00  0.00000000E+00
  0.00000000E+00  0.00000000E+00  0.00000000E+00
  0.00000000E+00  0.00000000E+00  0.00000000E+00
  0.00000000E+00  0.00000000E+00  0.00000000E+00
  0.00000000E+00  0.00000000E+00  0.00000000E+00
  0.00000000E+00  0.00000000E+00  0.00000000E+00
  0.00000000E+00  0.00000000E+00  0.00000000E+00
  0.00000000E+00  0.00000000E+00  0.00000000E+00
  0.00000000E+00  0.00000000E+00  0.00000000E+00
  0.00000000E+00  0.00000000E+00  0.00000000E+00
  0.00000000E+00  0.00000000E+00  0.00000000E+00
  0.00000000E+00  0.00000000E+00  0.00000000E+00
  0.00000000E+00  0.00000000E+00  0.00000000E+00
  0.00000000E+00  0.00000000E+00  0.00000000E+00
  0.00000000E+00  0.00000000E+00  0.00000000E+00
  0.00000000E+00  0.00000000E+00  0.00000000E+00
  0.00000000E+00  0.00000000E+00  0.00000000E+00
  0.00000000E+00  0.00000000E+00  0.00000000E+00
  0.00000000E+00  0.00000000E+00  0.00000000E+00
  0.00000000E+00  0.00000000E+00  0.00000000E+00
  0.00000000E+00  0.00000000E+00  0.00000000E+00
  0.00000000E+00  0.00000000E+00  0.00000000E+00
  0.00000000E+00  0.00000000E+00  0.00000000E+00
  0.00000000E+00  0.00000000E+00  0.00000000E+00
  0.00000000E+00  0.00000000E+00  0.00000000E+00
  0.00000000E+00  0.00000000E+00  0.00000000E+00
  0.00000000E+00  0.00000000E+00  0.00000000E+00
  0.00000000E+00  0.00000000E+00  0.00000000E+00
  0.00000000E+00  0.00000000E+00  0.00000000E+00
  0.00000000E+00  0.00000000E+00  0.00000000E+00
  0.00000000E+00  0.00000000E+00  0.00000000E+00
  0.00000000E+00  0.00000000E+00  0.00000000E+00
  0.00000000E+00  0.00000000E+00  0.00000000E+00
  0.00000000E+00  0.00000000E+00  0.00000000E+00
  0.00000000E+00  0.00000000E+00  0.00000000E+00
  0.00000000E+00  0.00000000E+00  0.00000000E+00
  0.00000000E+00  0.00000000E+00  0.00000000E+00
  0.00000000E+00  0.00000000E+00  0.00000000E+00
  0.00000000E+00  0.00000000E+00  0.00000000E+00
  0.00000000E+00  0.00000000E+00  0.00000000E+00
  0.00000000E+00  0.00000000E+00  0.00000000E+00
  0.00000000E+00  0.00000000E+00  0.00000000E+00
  0.00000000E+00  0.00000000E+00  0.00000000E+00
  0.00000000E+00  0.00000000E+00  0.00000000E+00
  0.00000000E+00  0.00000000E+00  0.00000000E+00
  0.00000000E+00  0.00000000E+00  0.00000000E+00
  0.00000000E+00  0.00000000E+00  0.00000000E+00
  0.00000000E+00  0.00000000E+00  0.00000000E+00
  0.00000000E+00  0.00000000E+00  0.00000000E+00
  0.00000000E+00  0.00000000E+00  0.00000000E+00
  0.00000000E+00  0.00000000E+00  0.00000000E+00
  0.00000000E+00  0.00000000E+00  0.00000000E+00
  0.00000000E+00  0.00000000E+00  0.00000000E+00
  0.00000000E+00  0.00000000E+00  0.00000000E+00
  0.00000000E+00  0.00000000E+00  0.00000000E+00
  0.00000000E+00  0.00000000E+00  0.00000000E+00
  0.00000000E+00  0.00000000E+00  0.00000000E+00
  0.00000000E+00  0.00000000E+00  0.00000000E+00
  0.00000000E+00  0.00000000E+00  0.00000000E+00
  0.00000000E+00  0.00000000E+00  0.00000000E+00
  0.00000000E+00  0.00000000E+00  0.00000000E+00
  0.00000000E+00  0.00000000E+00  0.00000000E+00
  0.00000000E+00  0.00000000E+00  0.00000000E+00
  0.00000000E+00  0.00000000E+00  0.00000000E+00
  0.00000000E+00  0.00000000E+00  0.00000000E+00
  0.00000000E+00  0.00000000E+00  0.00000000E+00
  0.00000000E+00  0.00000000E+00  0.00000000E+00
  0.00000000E+00  0.00000000E+00  0.00000000E+00
  0.00000000E+00  0.00000000E+00  0.00000000E+00
  0.00000000E+00  0.00000000E+00  0.00000000E+00
  0.00000000E+00  0.00000000E+00  0.00000000E+00
  0.00000000E+00  0.00000000E+00  0.00000000E+00
  0.00000000E+00  0.00000000E+00  0.00000000E+00
  0.00000000E+00  0.00000000E+00  0.00000000E+00
  0.00000000E+00  0.00000000E+00  0.00000000E+00
  0.00000000E+00  0.00000000E+00  0.00000000E+00
  0.00000000E+00  0.00000000E+00  0.00000000E+00
  0.00000000E+00  0.00000000E+00  0.00000000E+00
  0.00000000E+00  0.00000000E+00  0.00000000E+00
  0.00000000E+00  0.00000000E+00  0.00000000E+00
  0.00000000E+00  0.00000000E+00  0.00000000E+00
  0.00000000E+00  0.00000000E+00  0.00000000E+00
  0.00000000E+00  0.00000000E+00  0.00000000E+00
  0.00000000E+00  0.00000000E+00  0.00000000E+00
  0.00000000E+00  0.00000000E+00  0.00000000E+00
  0.00000000E+00  0.00000000E+00  0.00000000E+00
