Ge Rb Br                                
   1.00000000000000     
    11.1239080000000001  -11.1239080000000001    0.0000000000000000
    11.1239080000000001   11.1239080000000001    0.0000000000000000
     0.0000000000000000    0.0000000000000000   22.2478149999999992
   Br   Ge   Rb
    96    32    32
Direct
  0.1039327261995146  0.1380451686683052  0.9805801589319681
  0.1386324488043899  0.0948806535407898  0.2759600447810450
  0.1047783453422494  0.1377321205126275  0.4789469090682281
  0.1386361655038605  0.0995072208603208  0.7810200334155922
  0.6135917977094199  0.1484525805130838  0.0229969514483322
  0.6530710220853271  0.1124343051091344  0.2278315918298391
  0.5994262019796507  0.1369862886424080  0.5226944075109224
  0.6333511654442688  0.0926198360483140  0.7226276653559640
  0.3907384611240057  0.3524834261263143  0.0242546900189748
  0.3480937934797451  0.3851883436208618  0.2267946800674911
  0.3895449078692329  0.3544639722652616  0.5254415429559314
  0.3517964493372865  0.3851440974020241  0.7278267549016546
  0.1126698540754976  0.6456662463022801  0.0260237662671518
  0.1596334465676513  0.6126604481651001  0.2275411885313744
  0.0916758685818694  0.6392968803257902  0.5218534923504852
  0.1384251532360425  0.5943735040163488  0.7239343526518558
  0.8999750922505938  0.3595219201350308  0.9744704208729407
  0.8681468376144768  0.4021983436019593  0.2693886360934037
  0.8903159991887066  0.3448115909678633  0.4719629399483012
  0.8410823948179081  0.3871805439649430  0.7653351987953146
  0.6039571780692773  0.6361351426203251  0.9724983901570484
  0.6415837198193077  0.5959876079327299  0.2669505028274139
  0.6049743931884304  0.6348026735729299  0.4719806478830483
  0.6407941438018091  0.6005889399401876  0.7692684384260939
  0.4000905147498808  0.8605047474365169  0.9794964717534903
  0.3625028504733638  0.9047646611869792  0.2776630274013308
  0.3845163660487965  0.8475643550561490  0.4770247352032013
  0.3434347696141966  0.8877927453491932  0.7750757556949424
  0.8907143957352768  0.8479468249258328  0.0229622664751914
  0.8502120134613637  0.8876088828028116  0.2244810353813566
  0.8891967682251591  0.8493622910088220  0.5231068838743010
  0.8527640336124889  0.8889425447418967  0.7263277148488592
  0.8462123302828966  0.1131617472874090  0.9803870773427329
  0.8864580994109715  0.1489069818736748  0.2667565175206628
  0.8481868502247395  0.1066265447299028  0.4799879558619040
  0.8988823337101755  0.1359680347427960  0.7701626639355694
  0.3652296803610848  0.0994001721316016  0.9849104460750003
  0.4008087455736716  0.1434277071925966  0.2695847907711580
  0.3666283877324740  0.1027208883897990  0.4844322231488823
  0.3837970297695939  0.1486035015857979  0.7683521288884236
  0.1515248908932210  0.3898255517430260  0.0213158594948158
  0.1098583215913728  0.3490838467415479  0.2289186869268323
  0.1507563775285094  0.3913677679332575  0.5190998909403625
  0.0934255946787356  0.3575710274075942  0.7321944019324088
  0.8608958418463593  0.5981976849921252  0.9763862915552204
  0.9035134377915698  0.6409182948045009  0.2679837369150407
  0.8595697817689808  0.5977249520498905  0.4764224279139669
  0.8836629568180008  0.6516104942958303  0.7683592086045407
  0.6369770937557973  0.4036753814059645  0.0149489432987594
  0.6022167471970322  0.3650030447776887  0.2264903799158898
  0.6352820480300341  0.3981900386073297  0.5126546296613432
  0.6085672367005198  0.3489304947676079  0.7253160654796933
  0.3464630321339516  0.6152667755045034  0.9821568785900459
  0.3923002157836095  0.6513369049142143  0.2726698123017176
  0.3450313819793123  0.6104476672056406  0.4818244165246183
  0.3999941191486777  0.6383164987658839  0.7723222885719534
  0.1354932809376020  0.9038193964943766  0.0240206396105745
  0.1023369603149588  0.8606504301761280  0.2346749875616010
  0.1381777467856456  0.9021496615030726  0.5224503457121312
  0.1109880643241878  0.8469290265878058  0.7338253404907883
  0.6518705796588544  0.8852247679400951  0.0223429981077086
  0.6123274941092233  0.8527748456575406  0.2341650176839208
  0.6484691198694510  0.8828183218539047  0.5201896830568823
  0.5915238963681451  0.8552335518034290  0.7299507788101416
  0.0000118038931320  0.0461148984580136  0.1222447176530820
  0.9914859214620655  0.9584726161542931  0.3715889584152420
  0.0033403983409413  0.0451454063286187  0.6213217847138979
  0.9888984796970411  0.9607985746559295  0.8729517461858168
  0.4617340101739165  0.9993773043104917  0.1350261300125233
  0.5437698613922826  0.0088155167705347  0.3831270759270287
  0.4521581383394168  0.9907047822939484  0.6297784289414228
  0.5361468756190367  0.0053217609738326  0.8809342598543694
  0.2477263755308140  0.2064545357191048  0.1318599217086407
  0.2589528964262803  0.2907031686294720  0.3841042435039646
  0.2439356972736697  0.2103425278582193  0.6345066327147891
  0.2561530187583176  0.2938068571374250  0.8844495853775954
  0.9603244739861099  0.4942431269162421  0.1144416826051232
  0.0428862332817801  0.4992941503227709  0.3679823367269999
  0.9513790633908180  0.4948844249087826  0.6171189531733535
  0.0429720030799907  0.5012081020979826  0.8653247811454806
  0.7890019459243344  0.2553480744046807  0.1153619897440168
  0.7084639441618646  0.2437699266004462  0.3654037744711714
  0.7919233254029827  0.2485353478550227  0.6142646914913122
  0.7024259396089738  0.2460745180369442  0.8650802524944802
  0.5034980153063630  0.5429067008186370  0.1303359271135217
  0.4953061801584422  0.4606102928564089  0.3802516226372836
  0.5028310097479979  0.5432252484514005  0.6321910462454627
  0.4974823852255565  0.4582165789561141  0.8807297905299403
  0.2965708482211514  0.7592007880247543  0.1315262955531293
  0.2073911643180853  0.7512359478197728  0.3805543246920767
  0.2867214089855381  0.7570796412098868  0.6332608778397526
  0.2009943452396774  0.7448278388633910  0.8830222272992445
  0.7466688861394108  0.7056205439947735  0.1186423861307724
  0.7540384463359898  0.7891855667721084  0.3670810825388262
  0.7430688234039226  0.7088826386121969  0.6193155634157023
  0.7501296141079713  0.7963288143328655  0.8689293668096508
  0.0092201178656180  0.0090652808688525  0.0090219086132627
  0.0100438513828541  0.9927045727128647  0.2584681894666001
  0.0122899301045360  0.0075473013231130  0.5080020677459535
  0.0030895853861277  0.0080089759697453  0.7622457904329257
  0.4928604945012136  0.9958392634367677  0.9931797681490542
  0.4873028676896333  0.0061125762968076  0.2512850694621746
  0.5020533386725929  0.0097766663693492  0.4969009623485577
  0.5030529947609362  0.9929323458211960  0.7404653327785702
  0.2544518529588899  0.2660105955551390  0.0004724220931905
  0.2456454061074869  0.2575767803954067  0.2420264479272951
  0.2548382387782239  0.2667653686572122  0.5001160086967064
  0.2582715121898995  0.2519547412403015  0.7474066757811731
  0.9861060139229056  0.4966909832886903  0.9988342895028899
  0.9958413736234151  0.5053025937912561  0.2571365233963328
  0.9921231409597158  0.5091593218608553  0.5044170595539481
  0.0115774256599670  0.4971798823134940  0.7504680953269718
  0.7474181194244089  0.2417174625628368  0.0024328338448456
  0.7504550098493229  0.2404851654455801  0.2522326118721243
  0.7643341220520145  0.2451143288798081  0.4984968627105372
  0.7402420229060918  0.2586988419188555  0.7515396971394985
  0.5096854900881795  0.5034485221113749  0.9933383761476912
  0.5114475485146984  0.5014693231869187  0.2436457841621164
  0.5104830829074496  0.5023951211589974  0.4928049445399669
  0.5043209526194795  0.5148786112876441  0.7485661389300506
  0.2401992373200302  0.7399704929233174  0.9961805026006195
  0.2603534823774418  0.7422775362880948  0.2450344272896364
  0.2543792154495895  0.7470405814830621  0.4914438051158269
  0.2493724013874408  0.7581199871264779  0.7468473125199886
  0.7546113330669181  0.7570575805625092  0.0082170525468993
  0.7483054331663246  0.7633979686630415  0.2509705609133135
  0.7544615188153450  0.7561456236056325  0.5084633508137966
  0.7592490567252527  0.7593110017421369  0.7549407386552217
  0.0096531985641079  0.2640856339785957  0.1046979803375526
  0.0227206231004323  0.2633236333070359  0.3611709593236052
  0.0110343817829716  0.2647914686175903  0.6035588209192007
  0.0218957636577831  0.2631002427704843  0.8642200450354496
  0.4831893775782486  0.2294921995795242  0.1362051731537125
  0.4904142188070400  0.2407684513223391  0.3959390711862151
  0.4768919934329022  0.2247528507629388  0.6360729742880998
  0.4849153431316428  0.2376278271734626  0.8936050358557640
  0.2739248155735314  0.5183546324191491  0.1132561750270877
  0.2645030895097963  0.5091423919588988  0.3546165632887129
  0.2731499645750742  0.5175866925154048  0.6139021751703591
  0.2630674042710425  0.5115459562843848  0.8565666253648859
  0.9849925395164071  0.7321918563802295  0.1378110055022549
  0.9868343905920298  0.7397281454280913  0.3943193243769548
  0.9808973927353952  0.7307623084596938  0.6387376088172542
  0.9827338321633391  0.7404591564413981  0.8922524178425477
  0.7425640719679028  0.4855892856938234  0.1396392932560934
  0.7325650697845473  0.4759081683022146  0.3816181194866292
  0.7329532202954557  0.4882450472840599  0.6378995815259592
  0.7315690773308189  0.4784424075077044  0.8832349873101737
  0.5144621620419175  0.7617738664769113  0.1082537677014526
  0.5213262153246517  0.7742256856272990  0.3658535048360899
  0.5058814355037909  0.7596428906220178  0.6027701033471292
  0.5183777021629861  0.7700234869692867  0.8646092177199947
  0.2414969916572845  0.9867116798212913  0.1477253987300825
  0.2334681636739639  0.9837179371664896  0.3917662054683783
  0.2324573786846146  0.9908267451684294  0.6492211781572850
  0.2318512887890519  0.9793311278744123  0.8930093865026190
  0.7698544610566890  0.0200130181918605  0.1129226340819501
  0.7617641285748650  0.0089531928788506  0.3536470839270501
  0.7696795885056092  0.0162453840600004  0.6122905852928241
  0.7559320563958840  0.0160980957339987  0.8550141194949272
 
  0.00000000E+00  0.00000000E+00  0.00000000E+00
  0.00000000E+00  0.00000000E+00  0.00000000E+00
  0.00000000E+00  0.00000000E+00  0.00000000E+00
  0.00000000E+00  0.00000000E+00  0.00000000E+00
  0.00000000E+00  0.00000000E+00  0.00000000E+00
  0.00000000E+00  0.00000000E+00  0.00000000E+00
  0.00000000E+00  0.00000000E+00  0.00000000E+00
  0.00000000E+00  0.00000000E+00  0.00000000E+00
  0.00000000E+00  0.00000000E+00  0.00000000E+00
  0.00000000E+00  0.00000000E+00  0.00000000E+00
  0.00000000E+00  0.00000000E+00  0.00000000E+00
  0.00000000E+00  0.00000000E+00  0.00000000E+00
  0.00000000E+00  0.00000000E+00  0.00000000E+00
  0.00000000E+00  0.00000000E+00  0.00000000E+00
  0.00000000E+00  0.00000000E+00  0.00000000E+00
  0.00000000E+00  0.00000000E+00  0.00000000E+00
  0.00000000E+00  0.00000000E+00  0.00000000E+00
  0.00000000E+00  0.00000000E+00  0.00000000E+00
  0.00000000E+00  0.00000000E+00  0.00000000E+00
  0.00000000E+00  0.00000000E+00  0.00000000E+00
  0.00000000E+00  0.00000000E+00  0.00000000E+00
  0.00000000E+00  0.00000000E+00  0.00000000E+00
  0.00000000E+00  0.00000000E+00  0.00000000E+00
  0.00000000E+00  0.00000000E+00  0.00000000E+00
  0.00000000E+00  0.00000000E+00  0.00000000E+00
  0.00000000E+00  0.00000000E+00  0.00000000E+00
  0.00000000E+00  0.00000000E+00  0.00000000E+00
  0.00000000E+00  0.00000000E+00  0.00000000E+00
  0.00000000E+00  0.00000000E+00  0.00000000E+00
  0.00000000E+00  0.00000000E+00  0.00000000E+00
  0.00000000E+00  0.00000000E+00  0.00000000E+00
  0.00000000E+00  0.00000000E+00  0.00000000E+00
  0.00000000E+00  0.00000000E+00  0.00000000E+00
  0.00000000E+00  0.00000000E+00  0.00000000E+00
  0.00000000E+00  0.00000000E+00  0.00000000E+00
  0.00000000E+00  0.00000000E+00  0.00000000E+00
  0.00000000E+00  0.00000000E+00  0.00000000E+00
  0.00000000E+00  0.00000000E+00  0.00000000E+00
  0.00000000E+00  0.00000000E+00  0.00000000E+00
  0.00000000E+00  0.00000000E+00  0.00000000E+00
  0.00000000E+00  0.00000000E+00  0.00000000E+00
  0.00000000E+00  0.00000000E+00  0.00000000E+00
  0.00000000E+00  0.00000000E+00  0.00000000E+00
  0.00000000E+00  0.00000000E+00  0.00000000E+00
  0.00000000E+00  0.00000000E+00  0.00000000E+00
  0.00000000E+00  0.00000000E+00  0.00000000E+00
  0.00000000E+00  0.00000000E+00  0.00000000E+00
  0.00000000E+00  0.00000000E+00  0.00000000E+00
  0.00000000E+00  0.00000000E+00  0.00000000E+00
  0.00000000E+00  0.00000000E+00  0.00000000E+00
  0.00000000E+00  0.00000000E+00  0.00000000E+00
  0.00000000E+00  0.00000000E+00  0.00000000E+00
  0.00000000E+00  0.00000000E+00  0.00000000E+00
  0.00000000E+00  0.00000000E+00  0.00000000E+00
  0.00000000E+00  0.00000000E+00  0.00000000E+00
  0.00000000E+00  0.00000000E+00  0.00000000E+00
  0.00000000E+00  0.00000000E+00  0.00000000E+00
  0.00000000E+00  0.00000000E+00  0.00000000E+00
  0.00000000E+00  0.00000000E+00  0.00000000E+00
  0.00000000E+00  0.00000000E+00  0.00000000E+00
  0.00000000E+00  0.00000000E+00  0.00000000E+00
  0.00000000E+00  0.00000000E+00  0.00000000E+00
  0.00000000E+00  0.00000000E+00  0.00000000E+00
  0.00000000E+00  0.00000000E+00  0.00000000E+00
  0.00000000E+00  0.00000000E+00  0.00000000E+00
  0.00000000E+00  0.00000000E+00  0.00000000E+00
  0.00000000E+00  0.00000000E+00  0.00000000E+00
  0.00000000E+00  0.00000000E+00  0.00000000E+00
  0.00000000E+00  0.00000000E+00  0.00000000E+00
  0.00000000E+00  0.00000000E+00  0.00000000E+00
  0.00000000E+00  0.00000000E+00  0.00000000E+00
  0.00000000E+00  0.00000000E+00  0.00000000E+00
  0.00000000E+00  0.00000000E+00  0.00000000E+00
  0.00000000E+00  0.00000000E+00  0.00000000E+00
  0.00000000E+00  0.00000000E+00  0.00000000E+00
  0.00000000E+00  0.00000000E+00  0.00000000E+00
  0.00000000E+00  0.00000000E+00  0.00000000E+00
  0.00000000E+00  0.00000000E+00  0.00000000E+00
  0.00000000E+00  0.00000000E+00  0.00000000E+00
  0.00000000E+00  0.00000000E+00  0.00000000E+00
  0.00000000E+00  0.00000000E+00  0.00000000E+00
  0.00000000E+00  0.00000000E+00  0.00000000E+00
  0.00000000E+00  0.00000000E+00  0.00000000E+00
  0.00000000E+00  0.00000000E+00  0.00000000E+00
  0.00000000E+00  0.00000000E+00  0.00000000E+00
  0.00000000E+00  0.00000000E+00  0.00000000E+00
  0.00000000E+00  0.00000000E+00  0.00000000E+00
  0.00000000E+00  0.00000000E+00  0.00000000E+00
  0.00000000E+00  0.00000000E+00  0.00000000E+00
  0.00000000E+00  0.00000000E+00  0.00000000E+00
  0.00000000E+00  0.00000000E+00  0.00000000E+00
  0.00000000E+00  0.00000000E+00  0.00000000E+00
  0.00000000E+00  0.00000000E+00  0.00000000E+00
  0.00000000E+00  0.00000000E+00  0.00000000E+00
  0.00000000E+00  0.00000000E+00  0.00000000E+00
  0.00000000E+00  0.00000000E+00  0.00000000E+00
  0.00000000E+00  0.00000000E+00  0.00000000E+00
  0.00000000E+00  0.00000000E+00  0.00000000E+00
  0.00000000E+00  0.00000000E+00  0.00000000E+00
  0.00000000E+00  0.00000000E+00  0.00000000E+00
  0.00000000E+00  0.00000000E+00  0.00000000E+00
  0.00000000E+00  0.00000000E+00  0.00000000E+00
  0.00000000E+00  0.00000000E+00  0.00000000E+00
  0.00000000E+00  0.00000000E+00  0.00000000E+00
  0.00000000E+00  0.00000000E+00  0.00000000E+00
  0.00000000E+00  0.00000000E+00  0.00000000E+00
  0.00000000E+00  0.00000000E+00  0.00000000E+00
  0.00000000E+00  0.00000000E+00  0.00000000E+00
  0.00000000E+00  0.00000000E+00  0.00000000E+00
  0.00000000E+00  0.00000000E+00  0.00000000E+00
  0.00000000E+00  0.00000000E+00  0.00000000E+00
  0.00000000E+00  0.00000000E+00  0.00000000E+00
  0.00000000E+00  0.00000000E+00  0.00000000E+00
  0.00000000E+00  0.00000000E+00  0.00000000E+00
  0.00000000E+00  0.00000000E+00  0.00000000E+00
  0.00000000E+00  0.00000000E+00  0.00000000E+00
  0.00000000E+00  0.00000000E+00  0.00000000E+00
  0.00000000E+00  0.00000000E+00  0.00000000E+00
  0.00000000E+00  0.00000000E+00  0.00000000E+00
  0.00000000E+00  0.00000000E+00  0.00000000E+00
  0.00000000E+00  0.00000000E+00  0.00000000E+00
  0.00000000E+00  0.00000000E+00  0.00000000E+00
  0.00000000E+00  0.00000000E+00  0.00000000E+00
  0.00000000E+00  0.00000000E+00  0.00000000E+00
  0.00000000E+00  0.00000000E+00  0.00000000E+00
  0.00000000E+00  0.00000000E+00  0.00000000E+00
  0.00000000E+00  0.00000000E+00  0.00000000E+00
  0.00000000E+00  0.00000000E+00  0.00000000E+00
  0.00000000E+00  0.00000000E+00  0.00000000E+00
  0.00000000E+00  0.00000000E+00  0.00000000E+00
  0.00000000E+00  0.00000000E+00  0.00000000E+00
  0.00000000E+00  0.00000000E+00  0.00000000E+00
  0.00000000E+00  0.00000000E+00  0.00000000E+00
  0.00000000E+00  0.00000000E+00  0.00000000E+00
  0.00000000E+00  0.00000000E+00  0.00000000E+00
  0.00000000E+00  0.00000000E+00  0.00000000E+00
  0.00000000E+00  0.00000000E+00  0.00000000E+00
  0.00000000E+00  0.00000000E+00  0.00000000E+00
  0.00000000E+00  0.00000000E+00  0.00000000E+00
  0.00000000E+00  0.00000000E+00  0.00000000E+00
  0.00000000E+00  0.00000000E+00  0.00000000E+00
  0.00000000E+00  0.00000000E+00  0.00000000E+00
  0.00000000E+00  0.00000000E+00  0.00000000E+00
  0.00000000E+00  0.00000000E+00  0.00000000E+00
  0.00000000E+00  0.00000000E+00  0.00000000E+00
  0.00000000E+00  0.00000000E+00  0.00000000E+00
  0.00000000E+00  0.00000000E+00  0.00000000E+00
  0.00000000E+00  0.00000000E+00  0.00000000E+00
  0.00000000E+00  0.00000000E+00  0.00000000E+00
  0.00000000E+00  0.00000000E+00  0.00000000E+00
  0.00000000E+00  0.00000000E+00  0.00000000E+00
  0.00000000E+00  0.00000000E+00  0.00000000E+00
  0.00000000E+00  0.00000000E+00  0.00000000E+00
  0.00000000E+00  0.00000000E+00  0.00000000E+00
  0.00000000E+00  0.00000000E+00  0.00000000E+00
  0.00000000E+00  0.00000000E+00  0.00000000E+00
  0.00000000E+00  0.00000000E+00  0.00000000E+00
  0.00000000E+00  0.00000000E+00  0.00000000E+00
  0.00000000E+00  0.00000000E+00  0.00000000E+00
  0.00000000E+00  0.00000000E+00  0.00000000E+00
