Rb Br Cl                                
   1.00000000000000     
    10.8153089999999992  -10.8153089999999992    0.0000000000000000
    10.8153089999999992   10.8153089999999992    0.0000000000000000
     0.0000000000000000    0.0000000000000000   21.6306189999999994
   Rb   Br   Cl
    32    32    96
Direct
  0.9505423627407125  0.0041905802627415  0.0460174644086546
  0.9931207611429993  0.9708772542960428  0.2763792851202831
  0.9789813067025657  0.0514404460990269  0.4930879544121042
  0.0218869317860673  0.0044334175548930  0.7373937880385651
  0.4860783011845345  0.0585230030113170  0.0293080296853960
  0.4721850750057224  0.0175969341426907  0.2648230406463161
  0.5394501895044489  0.0149023673568192  0.5443898064311138
  0.5588918466399821  0.9578872612499562  0.7518050029664136
  0.2873746014774939  0.2690322614813417  0.0340964301372167
  0.2019987656917975  0.2163913687514293  0.2737826298181731
  0.1948951876881379  0.2021791658658429  0.4769242998147821
  0.2472866412048286  0.2423960880717796  0.7684644793487480
  0.0335425938473669  0.4404485713084515  0.0193064281598526
  0.0099817459566173  0.4645945808159230  0.2268839960217250
  0.0031299365993272  0.4888707879767041  0.4985794964976382
  0.0039405195399113  0.5580638954808881  0.7320068810230291
  0.7282730732308323  0.2611137555592929  0.0362630470403852
  0.7383494451623919  0.2096699398126808  0.2571589299876135
  0.7574624357457678  0.2486141496225603  0.5444609179068340
  0.7861837166470829  0.2386532767265656  0.7640145836522628
  0.4841040892956056  0.5038439825492206  0.9655027495775260
  0.4678391391950855  0.4950700848334645  0.2372147430322709
  0.4969553954718554  0.4609178920024095  0.5442220514336344
  0.4980782872393242  0.5043099251278343  0.7553688003892283
  0.2018147092748597  0.7458358422721664  0.9790235765567948
  0.1930502726643961  0.7297535085458295  0.2198120406844442
  0.2216189142391198  0.7654463264658140  0.4747152244220016
  0.2554950923855218  0.7099535193232895  0.7284016931559323
  0.7300781112504813  0.7238389826553364  0.9816099973056065
  0.7342443813950059  0.7659175749548268  0.2362151744115411
  0.7722440971227053  0.7688933089522693  0.5014840216159513
  0.7880921935066233  0.7602058351246337  0.7321953092964502
  0.0110191951495681  0.2227393818160885  0.1641771590012023
  0.9310114641975149  0.2984278391823807  0.4062713320346337
  0.0241136685783898  0.2712229422314950  0.6629334805351162
  0.0069215045971980  0.2207524921557336  0.9085908469909579
  0.4932102932323536  0.2531103232184931  0.1754778277564583
  0.4683920017952170  0.2653946854228750  0.4083746374881856
  0.5128187446531624  0.2365342015779939  0.6709314912286184
  0.5516718137944305  0.3034589372935619  0.9074600016429861
  0.2641490762111714  0.5095414777728460  0.1107418170380594
  0.2333783193839476  0.4930377816962472  0.3578485700185259
  0.2695367909249899  0.4720012199352533  0.6006620049271281
  0.2251752657563428  0.5025620387636850  0.8593591150683333
  0.9873386139552518  0.7210705928008762  0.0590658691495679
  0.9597487086897988  0.7235972798529249  0.3433926392426164
  0.0357336209206585  0.7530771350208952  0.5863668036009672
  0.0301072907134766  0.8354630622760282  0.8458472882103989
  0.7480737531199791  0.5114040899794016  0.1310266251834298
  0.6886344321933399  0.5060133646460185  0.3806401261432521
  0.7480042976969887  0.5089324239919283  0.6308915379277986
  0.8264979348750594  0.5014683414511298  0.8777595777997090
  0.4777813345768322  0.7668698904306349  0.1041774692692698
  0.5187729126626399  0.7418122479029174  0.3485515127175006
  0.5020680191721237  0.7494804646780959  0.5933515426887812
  0.5202797085841009  0.7179794480154076  0.8474721853658285
  0.2380815544249571  0.9874065802089617  0.1075153445004954
  0.2465782896899800  0.9646432253044568  0.3562806858833841
  0.2741662907205228  0.0080504725515430  0.6154204508261778
  0.3167033790306206  0.0033479917658212  0.8692225625104054
  0.7349099730040104  0.9721694003007103  0.1243729585771648
  0.7230120917566522  0.0125307356107484  0.3844603017951493
  0.7872006346751274  0.9959558976463394  0.6355737437681379
  0.7329081841966490  0.0068009963680054  0.8857650782206955
  0.9715965209087699  0.2265956638721593  0.0191355345552237
  0.9011315250353760  0.3233576428753008  0.3004426874866735
  0.9681503379803070  0.2674466838642279  0.5139109767856255
  0.0253671182145858  0.2230947248644386  0.7983058610484201
  0.5083583606039240  0.2733769574105351  0.0148625152289688
  0.3947973750276657  0.3085090730348534  0.3177309604004245
  0.5446434027751422  0.2313713432509724  0.5046415827741799
  0.5963884976929333  0.3338123179994854  0.8054466951655314
  0.2377677121662706  0.5217027848886168  0.9696657041925991
  0.2419507957887977  0.4379764726953527  0.2538757154994353
  0.2196141126893734  0.5515227929212685  0.4594357753277996
  0.2111132665259702  0.4779892789677879  0.7485183297912402
  0.0642502198791210  0.8976005823329198  0.9419847733761656
  0.9546293468197349  0.7527140765123936  0.2324588382467151
  0.9774886486092426  0.7048055392444715  0.4526138319703935
  0.0036611018319378  0.7787292500126102  0.7401191391501281
  0.6922428642260181  0.4762022823372217  0.0300190907153459
  0.8021820270706802  0.5491054932488575  0.2307815971477998
  0.7728778878435915  0.4644160863959738  0.5262381908875035
  0.7260150131032994  0.5487349307863897  0.7359050154449102
  0.4057764789786842  0.6868603139400786  0.0238841904036216
  0.5495623902882942  0.8490609226087839  0.1837244526816953
  0.5772866200170839  0.6655974793613399  0.5167005765454840
  0.4251805245565024  0.8326074351679008  0.6703152817140439
  0.1663171066915865  0.0793302706301909  0.0334753428579915
  0.3144655866446687  0.9019675327100442  0.1831785799754030
  0.1943245314746521  0.9788395146038883  0.5204917183557269
  0.3514284890992043  0.0443691755986258  0.7079468480341876
  0.6867024635118281  0.0587000233012000  0.9841356429447383
  0.7015281963961573  0.9879788720782384  0.2751486140952640
  0.7508685346816039  0.0314760308336027  0.4944609352759265
  0.7879583515233129  0.9688617581557524  0.7841433101180526
  0.1499044119155425  0.0460495032086255  0.1888996805579817
  0.0747678135011351  0.1144654103650621  0.3693604400833154
  0.1301294172332134  0.1602549439594390  0.6441701590630072
  0.1760762090759245  0.0614525256112059  0.8424124740774529
  0.6453461760660463  0.1039901882301314  0.1346951164602795
  0.5695497604967289  0.1758560811756763  0.3508994380547473
  0.6325444817831750  0.1337754180599397  0.6567680904541988
  0.6403679760563696  0.1129046219493494  0.8374723411064835
  0.4018575350053875  0.4391188809794298  0.0960702745781421
  0.3619979058037938  0.3440877931552986  0.4668172876330711
  0.3985307338662059  0.3391066549080274  0.6832379938213345
  0.3376828031596310  0.3907574748137031  0.8667620907275398
  0.1234692951386674  0.5784316633185099  0.1238644941882080
  0.0656883613473362  0.6128644727307277  0.3277173654438095
  0.1287189092877772  0.6301679539283287  0.6061298842211192
  0.1312030162146517  0.6290262791665832  0.8525414511249242
  0.8562664472560331  0.3949370414946021  0.1233064405404135
  0.6951252914648537  0.3542440279081540  0.3908346621844966
  0.9098434791007510  0.3778483507592740  0.6803417429335957
  0.9748089101714420  0.4536462241663616  0.8687007300643238
  0.6383754410387255  0.6219959635606636  0.1385189435568436
  0.6776922003947569  0.6686289896281348  0.3686160648616740
  0.5826205093005039  0.6764097252125530  0.6719501356262584
  0.6762463442323667  0.5542001263443180  0.8830856965743978
  0.3224926583767407  0.9213292850266347  0.0275211454670850
  0.4004742795190648  0.8280774463294841  0.3398789920274150
  0.4237152988980857  0.8295103997419617  0.5134471761130813
  0.4611016498828945  0.9514399065244458  0.8928201651215369
  0.8208529233869910  0.8439752031746649  0.1089864148256544
  0.8551204801301792  0.8395446632870109  0.3622359985629106
  0.9395287978670140  0.8745354601419543  0.5686233629523041
  0.8283130127746702  0.9038838625180076  0.9342266800286028
  0.8987132638519024  0.1158058545486151  0.1788100394639069
  0.8581045536455311  0.0870603041082447  0.3638599168766636
  0.8848883846102205  0.1151718550570664  0.6435757483909710
  0.8811564421057212  0.1365425775208547  0.8940326490010433
  0.3713988715806653  0.1535092210189763  0.1584746484348614
  0.3358804595722801  0.0897545341489467  0.3713476851630557
  0.3558980124142689  0.1177522584105061  0.5616174978840797
  0.3636285269882678  0.1493495528476308  0.8964809634393065
  0.1278804628507554  0.3256171764913229  0.1408451483290122
  0.1309817102027180  0.3771748126000895  0.3813044998918479
  0.1637217635958532  0.3756682935453244  0.5629686444045735
  0.1415960688549109  0.3037674619445521  0.9234476108999707
  0.8976513346295598  0.6047382103733293  0.0208095794348176
  0.8426226938328008  0.5258885306877300  0.3794414581729679
  0.8573554206502629  0.6273286237255893  0.6158193066969050
  0.8733588257394861  0.6476706952762389  0.8539619467178707
  0.6135095068746426  0.3511039090672864  0.1886903585398749
  0.5312157691304192  0.5007982548595806  0.3858951224678041
  0.6461351876242863  0.3886120202908723  0.6454540834117342
  0.7892470396699925  0.3528013122720907  0.9005232965695561
  0.4010928385224660  0.6857161483506826  0.1823406563161852
  0.3260201434416581  0.6127961607438180  0.3290673796508712
  0.3777658860851235  0.5775806127158771  0.6401691034155708
  0.3880295454812162  0.6337295357836356  0.8500173349150746
  0.0812600489376031  0.8338769689026175  0.1012944379474570
  0.1460713890425197  0.8424354143835109  0.3438241813215336
  0.1869801997503372  0.9008864080852141  0.6678706584193563
  0.2748359100644914  0.8562737383254322  0.8461492905586994
  0.5588150612476964  0.8452301659552920  0.0275869327196496
  0.5890635302297262  0.9379737979074960  0.4085071097283626
  0.6803332015033957  0.8769899831319664  0.6252035805348105
  0.6517437253940037  0.8028789089123300  0.8444714289387687
 
  0.00000000E+00  0.00000000E+00  0.00000000E+00
  0.00000000E+00  0.00000000E+00  0.00000000E+00
  0.00000000E+00  0.00000000E+00  0.00000000E+00
  0.00000000E+00  0.00000000E+00  0.00000000E+00
  0.00000000E+00  0.00000000E+00  0.00000000E+00
  0.00000000E+00  0.00000000E+00  0.00000000E+00
  0.00000000E+00  0.00000000E+00  0.00000000E+00
  0.00000000E+00  0.00000000E+00  0.00000000E+00
  0.00000000E+00  0.00000000E+00  0.00000000E+00
  0.00000000E+00  0.00000000E+00  0.00000000E+00
  0.00000000E+00  0.00000000E+00  0.00000000E+00
  0.00000000E+00  0.00000000E+00  0.00000000E+00
  0.00000000E+00  0.00000000E+00  0.00000000E+00
  0.00000000E+00  0.00000000E+00  0.00000000E+00
  0.00000000E+00  0.00000000E+00  0.00000000E+00
  0.00000000E+00  0.00000000E+00  0.00000000E+00
  0.00000000E+00  0.00000000E+00  0.00000000E+00
  0.00000000E+00  0.00000000E+00  0.00000000E+00
  0.00000000E+00  0.00000000E+00  0.00000000E+00
  0.00000000E+00  0.00000000E+00  0.00000000E+00
  0.00000000E+00  0.00000000E+00  0.00000000E+00
  0.00000000E+00  0.00000000E+00  0.00000000E+00
  0.00000000E+00  0.00000000E+00  0.00000000E+00
  0.00000000E+00  0.00000000E+00  0.00000000E+00
  0.00000000E+00  0.00000000E+00  0.00000000E+00
  0.00000000E+00  0.00000000E+00  0.00000000E+00
  0.00000000E+00  0.00000000E+00  0.00000000E+00
  0.00000000E+00  0.00000000E+00  0.00000000E+00
  0.00000000E+00  0.00000000E+00  0.00000000E+00
  0.00000000E+00  0.00000000E+00  0.00000000E+00
  0.00000000E+00  0.00000000E+00  0.00000000E+00
  0.00000000E+00  0.00000000E+00  0.00000000E+00
  0.00000000E+00  0.00000000E+00  0.00000000E+00
  0.00000000E+00  0.00000000E+00  0.00000000E+00
  0.00000000E+00  0.00000000E+00  0.00000000E+00
  0.00000000E+00  0.00000000E+00  0.00000000E+00
  0.00000000E+00  0.00000000E+00  0.00000000E+00
  0.00000000E+00  0.00000000E+00  0.00000000E+00
  0.00000000E+00  0.00000000E+00  0.00000000E+00
  0.00000000E+00  0.00000000E+00  0.00000000E+00
  0.00000000E+00  0.00000000E+00  0.00000000E+00
  0.00000000E+00  0.00000000E+00  0.00000000E+00
  0.00000000E+00  0.00000000E+00  0.00000000E+00
  0.00000000E+00  0.00000000E+00  0.00000000E+00
  0.00000000E+00  0.00000000E+00  0.00000000E+00
  0.00000000E+00  0.00000000E+00  0.00000000E+00
  0.00000000E+00  0.00000000E+00  0.00000000E+00
  0.00000000E+00  0.00000000E+00  0.00000000E+00
  0.00000000E+00  0.00000000E+00  0.00000000E+00
  0.00000000E+00  0.00000000E+00  0.00000000E+00
  0.00000000E+00  0.00000000E+00  0.00000000E+00
  0.00000000E+00  0.00000000E+00  0.00000000E+00
  0.00000000E+00  0.00000000E+00  0.00000000E+00
  0.00000000E+00  0.00000000E+00  0.00000000E+00
  0.00000000E+00  0.00000000E+00  0.00000000E+00
  0.00000000E+00  0.00000000E+00  0.00000000E+00
  0.00000000E+00  0.00000000E+00  0.00000000E+00
  0.00000000E+00  0.00000000E+00  0.00000000E+00
  0.00000000E+00  0.00000000E+00  0.00000000E+00
  0.00000000E+00  0.00000000E+00  0.00000000E+00
  0.00000000E+00  0.00000000E+00  0.00000000E+00
  0.00000000E+00  0.00000000E+00  0.00000000E+00
  0.00000000E+00  0.00000000E+00  0.00000000E+00
  0.00000000E+00  0.00000000E+00  0.00000000E+00
  0.00000000E+00  0.00000000E+00  0.00000000E+00
  0.00000000E+00  0.00000000E+00  0.00000000E+00
  0.00000000E+00  0.00000000E+00  0.00000000E+00
  0.00000000E+00  0.00000000E+00  0.00000000E+00
  0.00000000E+00  0.00000000E+00  0.00000000E+00
  0.00000000E+00  0.00000000E+00  0.00000000E+00
  0.00000000E+00  0.00000000E+00  0.00000000E+00
  0.00000000E+00  0.00000000E+00  0.00000000E+00
  0.00000000E+00  0.00000000E+00  0.00000000E+00
  0.00000000E+00  0.00000000E+00  0.00000000E+00
  0.00000000E+00  0.00000000E+00  0.00000000E+00
  0.00000000E+00  0.00000000E+00  0.00000000E+00
  0.00000000E+00  0.00000000E+00  0.00000000E+00
  0.00000000E+00  0.00000000E+00  0.00000000E+00
  0.00000000E+00  0.00000000E+00  0.00000000E+00
  0.00000000E+00  0.00000000E+00  0.00000000E+00
  0.00000000E+00  0.00000000E+00  0.00000000E+00
  0.00000000E+00  0.00000000E+00  0.00000000E+00
  0.00000000E+00  0.00000000E+00  0.00000000E+00
  0.00000000E+00  0.00000000E+00  0.00000000E+00
  0.00000000E+00  0.00000000E+00  0.00000000E+00
  0.00000000E+00  0.00000000E+00  0.00000000E+00
  0.00000000E+00  0.00000000E+00  0.00000000E+00
  0.00000000E+00  0.00000000E+00  0.00000000E+00
  0.00000000E+00  0.00000000E+00  0.00000000E+00
  0.00000000E+00  0.00000000E+00  0.00000000E+00
  0.00000000E+00  0.00000000E+00  0.00000000E+00
  0.00000000E+00  0.00000000E+00  0.00000000E+00
  0.00000000E+00  0.00000000E+00  0.00000000E+00
  0.00000000E+00  0.00000000E+00  0.00000000E+00
  0.00000000E+00  0.00000000E+00  0.00000000E+00
  0.00000000E+00  0.00000000E+00  0.00000000E+00
  0.00000000E+00  0.00000000E+00  0.00000000E+00
  0.00000000E+00  0.00000000E+00  0.00000000E+00
  0.00000000E+00  0.00000000E+00  0.00000000E+00
  0.00000000E+00  0.00000000E+00  0.00000000E+00
  0.00000000E+00  0.00000000E+00  0.00000000E+00
  0.00000000E+00  0.00000000E+00  0.00000000E+00
  0.00000000E+00  0.00000000E+00  0.00000000E+00
  0.00000000E+00  0.00000000E+00  0.00000000E+00
  0.00000000E+00  0.00000000E+00  0.00000000E+00
  0.00000000E+00  0.00000000E+00  0.00000000E+00
  0.00000000E+00  0.00000000E+00  0.00000000E+00
  0.00000000E+00  0.00000000E+00  0.00000000E+00
  0.00000000E+00  0.00000000E+00  0.00000000E+00
  0.00000000E+00  0.00000000E+00  0.00000000E+00
  0.00000000E+00  0.00000000E+00  0.00000000E+00
  0.00000000E+00  0.00000000E+00  0.00000000E+00
  0.00000000E+00  0.00000000E+00  0.00000000E+00
  0.00000000E+00  0.00000000E+00  0.00000000E+00
  0.00000000E+00  0.00000000E+00  0.00000000E+00
  0.00000000E+00  0.00000000E+00  0.00000000E+00
  0.00000000E+00  0.00000000E+00  0.00000000E+00
  0.00000000E+00  0.00000000E+00  0.00000000E+00
  0.00000000E+00  0.00000000E+00  0.00000000E+00
  0.00000000E+00  0.00000000E+00  0.00000000E+00
  0.00000000E+00  0.00000000E+00  0.00000000E+00
  0.00000000E+00  0.00000000E+00  0.00000000E+00
  0.00000000E+00  0.00000000E+00  0.00000000E+00
  0.00000000E+00  0.00000000E+00  0.00000000E+00
  0.00000000E+00  0.00000000E+00  0.00000000E+00
  0.00000000E+00  0.00000000E+00  0.00000000E+00
  0.00000000E+00  0.00000000E+00  0.00000000E+00
  0.00000000E+00  0.00000000E+00  0.00000000E+00
  0.00000000E+00  0.00000000E+00  0.00000000E+00
  0.00000000E+00  0.00000000E+00  0.00000000E+00
  0.00000000E+00  0.00000000E+00  0.00000000E+00
  0.00000000E+00  0.00000000E+00  0.00000000E+00
  0.00000000E+00  0.00000000E+00  0.00000000E+00
  0.00000000E+00  0.00000000E+00  0.00000000E+00
  0.00000000E+00  0.00000000E+00  0.00000000E+00
  0.00000000E+00  0.00000000E+00  0.00000000E+00
  0.00000000E+00  0.00000000E+00  0.00000000E+00
  0.00000000E+00  0.00000000E+00  0.00000000E+00
  0.00000000E+00  0.00000000E+00  0.00000000E+00
  0.00000000E+00  0.00000000E+00  0.00000000E+00
  0.00000000E+00  0.00000000E+00  0.00000000E+00
  0.00000000E+00  0.00000000E+00  0.00000000E+00
  0.00000000E+00  0.00000000E+00  0.00000000E+00
  0.00000000E+00  0.00000000E+00  0.00000000E+00
  0.00000000E+00  0.00000000E+00  0.00000000E+00
  0.00000000E+00  0.00000000E+00  0.00000000E+00
  0.00000000E+00  0.00000000E+00  0.00000000E+00
  0.00000000E+00  0.00000000E+00  0.00000000E+00
  0.00000000E+00  0.00000000E+00  0.00000000E+00
  0.00000000E+00  0.00000000E+00  0.00000000E+00
  0.00000000E+00  0.00000000E+00  0.00000000E+00
  0.00000000E+00  0.00000000E+00  0.00000000E+00
  0.00000000E+00  0.00000000E+00  0.00000000E+00
  0.00000000E+00  0.00000000E+00  0.00000000E+00
  0.00000000E+00  0.00000000E+00  0.00000000E+00
  0.00000000E+00  0.00000000E+00  0.00000000E+00
  0.00000000E+00  0.00000000E+00  0.00000000E+00
  0.00000000E+00  0.00000000E+00  0.00000000E+00
  0.00000000E+00  0.00000000E+00  0.00000000E+00
  0.00000000E+00  0.00000000E+00  0.00000000E+00
