Rb Hg Br                                
   1.00000000000000     
    11.3033999999999999  -11.3033999999999999    0.0000000000000000
    11.3033999999999999   11.3033999999999999    0.0000000000000000
     0.0000000000000000    0.0000000000000000   22.6067999999999998
   Br   Hg   Rb
    96    32    32
Direct
  0.9570726303827873  0.2806373120021941  0.0133385194977256
  0.0200267970612057  0.2112479174757992  0.2667358050960846
  0.9900989951484049  0.2558518299707782  0.5366501373589659
  0.0590776884771608  0.2323726883857528  0.7518170264953020
  0.5099337503718272  0.1820132213649481  0.9816052775077647
  0.4278385481379396  0.2871172605916749  0.2388896272969421
  0.5634021672058046  0.2798547530827905  0.4957695981466516
  0.4860692386030858  0.1954837037849988  0.7653686899001972
  0.2565080592422849  0.4932455526355781  0.9783374671486147
  0.2067103384952550  0.4972244335476092  0.2761770564391350
  0.2068474518721383  0.5438161571554222  0.4860427462895706
  0.2769294859646593  0.4518768396995397  0.7591944154028371
  0.9891795962909644  0.7436532769684027  0.0091168630016963
  0.0684680903877657  0.7596059615137052  0.2245962679262044
  0.9726883242131518  0.6895044702367901  0.4905686727422422
  0.0188341039219810  0.8008982409911487  0.7415135836091059
  0.7931092973572766  0.4631790963216576  0.0110742022982512
  0.7382607152958648  0.5160486522415220  0.2437478953647885
  0.7797580802312640  0.4576281023147497  0.5222102118772599
  0.7259826523851703  0.5426982953014818  0.7339379484704546
  0.4390207330072511  0.7479769158590516  0.0144062276357802
  0.5219580236694603  0.7237338882898643  0.2257989857872716
  0.4339496488748160  0.7139882469193459  0.4965975129100186
  0.5903047127131043  0.7517214138199318  0.7466071865365671
  0.3136940848763853  0.9772222360194108  0.9693540454956577
  0.2205293405200169  0.0330420711489569  0.2693474259575180
  0.2984700353321273  0.9518137487411664  0.4763214858129455
  0.2223193990826659  0.0247211680660922  0.7666073568411964
  0.7579981839133672  0.0300076436837922  0.0135171944381278
  0.6454793504146671  0.9484385633167391  0.2228451173595932
  0.7642825968428069  0.0071498782291236  0.5087209471528901
  0.7407593875861098  0.9631745582309328  0.7364185521494140
  0.0631163828451222  0.1050146763802008  0.1150217537122655
  0.1376802171336320  0.1345456027834296  0.4245183722293091
  0.1505374427189117  0.1173270007558856  0.6025306773136100
  0.0866871369625747  0.0968651622264709  0.9227951050686078
  0.5682800648703848  0.1207492306960099  0.1303177227405706
  0.6322628415029444  0.1324765424772873  0.3526281583019418
  0.6340736246844995  0.1220649632547876  0.6285641315365477
  0.6129307310108553  0.0551749773620049  0.8613982886999207
  0.3899418338962273  0.3617168185937089  0.0674172929154162
  0.3541367456667504  0.3891463332419985  0.4065937883079611
  0.3933802230033884  0.4310079614149860  0.5940214420908209
  0.4580409888761768  0.4078037699906897  0.8730349802294139
  0.1198060357684991  0.5841602877201690  0.0981513741517331
  0.1935301518278072  0.7158032180998101  0.3659354542205377
  0.1695412825671239  0.6369670041667628  0.6495436981116686
  0.1440411351672614  0.6113009494371638  0.8540768101237052
  0.8970302551763315  0.3684280246558079  0.1660002409325050
  0.8891375815633304  0.4319894480092453  0.3746050012726468
  0.8525120391733723  0.3482701637037911  0.6753402601035535
  0.8876522421122518  0.4113599650068873  0.8523683724847576
  0.6153795320028405  0.5958278369805085  0.0943631728133883
  0.6579272864475130  0.6383914267973171  0.3852903682817908
  0.6425713597789005  0.6338252718380120  0.5694055482482306
  0.6467920627217337  0.5825246117556445  0.8848534631550476
  0.4093345841532553  0.9117167696211571  0.1430187028166380
  0.3754765160037974  0.8781119410080813  0.3169164073474834
  0.3344090515962310  0.8756705331547827  0.6385851643396054
  0.3975586031361937  0.9008933443789614  0.8256899792751844
  0.8895519829498546  0.8842066543882807  0.1470684004144203
  0.8348839943479597  0.9033148243640746  0.3440715648038813
  0.8220755064626930  0.8091140972897489  0.6126909058610933
  0.8740896625352098  0.8907417424154945  0.8840765164099873
  0.8148036789290647  0.1312099907556122  0.1709353088673074
  0.8619778955907145  0.1717161266779157  0.4023223989562053
  0.9065366133055884  0.0816297052524294  0.6483352601069020
  0.8656927163736924  0.1467351492719886  0.8608531093450362
  0.3034543501104190  0.1433660171417686  0.1251580013196922
  0.3915346475912364  0.1512113900068160  0.3892105129232463
  0.3873968064055986  0.1607733828235479  0.6035191317323096
  0.2960391513751015  0.2197411384421155  0.8800732235644645
  0.1594935525770680  0.3434233365235037  0.1518289859301568
  0.1009154830759350  0.3697762168395464  0.4038998110266356
  0.1458062105518449  0.3837830561974732  0.6259559060141319
  0.1049782529255621  0.3566487854598706  0.8880124383733509
  0.8688669918882532  0.6234098913635945  0.1331513284262875
  0.9024123580002361  0.6762154509705096  0.3265073087295712
  0.9342183969670903  0.5966636418174766  0.6479171478474486
  0.8941890970983161  0.6439362117358877  0.8711901965759639
  0.6430443691747602  0.3462081096414222  0.1434670004596622
  0.6036364833100889  0.3844665499383448  0.3493038314771599
  0.6021294285949814  0.3693051425548974  0.6694677065879384
  0.6670755288659365  0.2985674348122951  0.8865142237383705
  0.3638615542607378  0.5806436194611901  0.1355303876137557
  0.4193220356813702  0.6149611267717617  0.3422609994739802
  0.3988441757641739  0.6676635867342283  0.6582685575415680
  0.3943394947561783  0.6507718137708752  0.8630115868473736
  0.1612722736528527  0.8767630112944031  0.0907434018216148
  0.0581136949856713  0.9108656731007240  0.3886273315246540
  0.0787228480294930  0.8742273659215053  0.5866392558157835
  0.1196256248415616  0.8599786541274902  0.8915584260845432
  0.6641450861407270  0.8341861980041340  0.0824639069723562
  0.5910653679615478  0.8830661727628542  0.4036388960504574
  0.5800361564620853  0.8889036229965043  0.5901151076094848
  0.6342926694484683  0.8142808624354286  0.9148334443355535
  0.9653243120819835  0.2273644973530145  0.1386143391286168
  0.0043856239964098  0.2427944660987756  0.3862068248935744
  0.9810632364575328  0.2421085117931366  0.6519268716954270
  0.9797963549999129  0.2517343168818660  0.8912805419798943
  0.4791388338037819  0.2491116183112702  0.1131241954278176
  0.4802052860911341  0.2817259068911214  0.3614017797339075
  0.5194231976828558  0.2576890031412598  0.6113832865247405
  0.4764902960648215  0.2326603821566240  0.8768877370345703
  0.2457534025327977  0.4755090930464175  0.1450085065577396
  0.2764855090055793  0.5460238628640242  0.3788466164039818
  0.2609500846133838  0.5148058351029094  0.6145593467769043
  0.2900665345318609  0.4654390023050862  0.8706299232466820
  0.0075707383731553  0.7303893345864165  0.1223151517996165
  0.0313916084245556  0.7424503021880752  0.3848622741306579
  0.9848434072232403  0.7478545008745993  0.6189472898735398
  0.0255535551518157  0.7359935247722597  0.8573998705773288
  0.7417185125044294  0.4841937502639621  0.1234683433973524
  0.7792017267544424  0.5424591729417017  0.3704807941605455
  0.7531374624031798  0.5030888007941056  0.6280025306337578
  0.7336995984264916  0.4486805704529103  0.8811337965108764
  0.5142777766712987  0.7575563851401945  0.1154654583233800
  0.4367043112487135  0.7920498972218123  0.3997233786753096
  0.5390452094475700  0.7382221359420601  0.6254340050362990
  0.5009101493648048  0.7787953208035152  0.8507917253099736
  0.2728350404039335  0.9923643753960437  0.0951557387680480
  0.2249957393486787  0.9922193420654094  0.3790873410037197
  0.2421320114703819  0.9957897007125032  0.6193218793740090
  0.2422715521367427  0.0563995895362818  0.8803554736945528
  0.7513584408489987  0.9810919700839132  0.1298169203117031
  0.7025282616814744  0.9905300220202009  0.3370045093335075
  0.7597598151445550  0.9770093574469694  0.6222944969613681
  0.7379635118871668  0.9684709152086289  0.8849786561393627
  0.9778147301247757  0.9641855782255773  0.0136199803287224
  0.0001647565876796  0.9962317373588926  0.2496387024933104
  0.9814975782351324  0.0342972225093710  0.5052444362218056
  0.0029689806712002  0.0148880903678806  0.7816553220015098
  0.5280189201952109  0.9682968265313187  0.0049003241676894
  0.4526460496060907  0.0626861675358879  0.2510815334727784
  0.5298471085012529  0.0555758083164162  0.4912987068701948
  0.5212245386486365  0.9847425917140987  0.7206301460456799
  0.1888157385028423  0.2476297788643186  0.0141760781281830
  0.2269997119085318  0.2652549074038332  0.2947946168737133
  0.2470926522925761  0.2791162207829587  0.5108090260850211
  0.2718483120882182  0.2375582368428670  0.7254312029126173
  0.0036532137680618  0.5023983856034084  0.9783406431151952
  0.0015993281704733  0.5276611407421650  0.2376431356636964
  0.0019751299328057  0.4758434833423592  0.5226947541498793
  0.0458715842183920  0.4713741774454820  0.7518500283917134
  0.7374142348612035  0.2424905836242993  0.0269134494291941
  0.7663860210599657  0.2821687540207357  0.2757244772833815
  0.7706847843618954  0.2379993454198056  0.5405123817537203
  0.7214661333550316  0.2106625694859050  0.7537786519525042
  0.4802441011576669  0.5347518307601766  0.9905421049584041
  0.5199674752528562  0.4939656604608224  0.2259111161993894
  0.5227779401060709  0.5026557025784272  0.4737026524046595
  0.5057137547523646  0.5328706498850512  0.7516676781537520
  0.2239416149885693  0.7198732766292667  0.9859409664965371
  0.2853709941539116  0.7445253737744041  0.2187113272789422
  0.2242787545025729  0.7523909822081428  0.5203524451620023
  0.2470241441505230  0.7684150356526732  0.7670287806300190
  0.7688457856465830  0.6853658531697944  0.9988685639494973
  0.7427476107240738  0.7475249313651955  0.2248580147156295
  0.7575020671648264  0.7857533715679768  0.4726695002020327
  0.8017515482936216  0.7489695739252955  0.7574393471358516
 
  0.00000000E+00  0.00000000E+00  0.00000000E+00
  0.00000000E+00  0.00000000E+00  0.00000000E+00
  0.00000000E+00  0.00000000E+00  0.00000000E+00
  0.00000000E+00  0.00000000E+00  0.00000000E+00
  0.00000000E+00  0.00000000E+00  0.00000000E+00
  0.00000000E+00  0.00000000E+00  0.00000000E+00
  0.00000000E+00  0.00000000E+00  0.00000000E+00
  0.00000000E+00  0.00000000E+00  0.00000000E+00
  0.00000000E+00  0.00000000E+00  0.00000000E+00
  0.00000000E+00  0.00000000E+00  0.00000000E+00
  0.00000000E+00  0.00000000E+00  0.00000000E+00
  0.00000000E+00  0.00000000E+00  0.00000000E+00
  0.00000000E+00  0.00000000E+00  0.00000000E+00
  0.00000000E+00  0.00000000E+00  0.00000000E+00
  0.00000000E+00  0.00000000E+00  0.00000000E+00
  0.00000000E+00  0.00000000E+00  0.00000000E+00
  0.00000000E+00  0.00000000E+00  0.00000000E+00
  0.00000000E+00  0.00000000E+00  0.00000000E+00
  0.00000000E+00  0.00000000E+00  0.00000000E+00
  0.00000000E+00  0.00000000E+00  0.00000000E+00
  0.00000000E+00  0.00000000E+00  0.00000000E+00
  0.00000000E+00  0.00000000E+00  0.00000000E+00
  0.00000000E+00  0.00000000E+00  0.00000000E+00
  0.00000000E+00  0.00000000E+00  0.00000000E+00
  0.00000000E+00  0.00000000E+00  0.00000000E+00
  0.00000000E+00  0.00000000E+00  0.00000000E+00
  0.00000000E+00  0.00000000E+00  0.00000000E+00
  0.00000000E+00  0.00000000E+00  0.00000000E+00
  0.00000000E+00  0.00000000E+00  0.00000000E+00
  0.00000000E+00  0.00000000E+00  0.00000000E+00
  0.00000000E+00  0.00000000E+00  0.00000000E+00
  0.00000000E+00  0.00000000E+00  0.00000000E+00
  0.00000000E+00  0.00000000E+00  0.00000000E+00
  0.00000000E+00  0.00000000E+00  0.00000000E+00
  0.00000000E+00  0.00000000E+00  0.00000000E+00
  0.00000000E+00  0.00000000E+00  0.00000000E+00
  0.00000000E+00  0.00000000E+00  0.00000000E+00
  0.00000000E+00  0.00000000E+00  0.00000000E+00
  0.00000000E+00  0.00000000E+00  0.00000000E+00
  0.00000000E+00  0.00000000E+00  0.00000000E+00
  0.00000000E+00  0.00000000E+00  0.00000000E+00
  0.00000000E+00  0.00000000E+00  0.00000000E+00
  0.00000000E+00  0.00000000E+00  0.00000000E+00
  0.00000000E+00  0.00000000E+00  0.00000000E+00
  0.00000000E+00  0.00000000E+00  0.00000000E+00
  0.00000000E+00  0.00000000E+00  0.00000000E+00
  0.00000000E+00  0.00000000E+00  0.00000000E+00
  0.00000000E+00  0.00000000E+00  0.00000000E+00
  0.00000000E+00  0.00000000E+00  0.00000000E+00
  0.00000000E+00  0.00000000E+00  0.00000000E+00
  0.00000000E+00  0.00000000E+00  0.00000000E+00
  0.00000000E+00  0.00000000E+00  0.00000000E+00
  0.00000000E+00  0.00000000E+00  0.00000000E+00
  0.00000000E+00  0.00000000E+00  0.00000000E+00
  0.00000000E+00  0.00000000E+00  0.00000000E+00
  0.00000000E+00  0.00000000E+00  0.00000000E+00
  0.00000000E+00  0.00000000E+00  0.00000000E+00
  0.00000000E+00  0.00000000E+00  0.00000000E+00
  0.00000000E+00  0.00000000E+00  0.00000000E+00
  0.00000000E+00  0.00000000E+00  0.00000000E+00
  0.00000000E+00  0.00000000E+00  0.00000000E+00
  0.00000000E+00  0.00000000E+00  0.00000000E+00
  0.00000000E+00  0.00000000E+00  0.00000000E+00
  0.00000000E+00  0.00000000E+00  0.00000000E+00
  0.00000000E+00  0.00000000E+00  0.00000000E+00
  0.00000000E+00  0.00000000E+00  0.00000000E+00
  0.00000000E+00  0.00000000E+00  0.00000000E+00
  0.00000000E+00  0.00000000E+00  0.00000000E+00
  0.00000000E+00  0.00000000E+00  0.00000000E+00
  0.00000000E+00  0.00000000E+00  0.00000000E+00
  0.00000000E+00  0.00000000E+00  0.00000000E+00
  0.00000000E+00  0.00000000E+00  0.00000000E+00
  0.00000000E+00  0.00000000E+00  0.00000000E+00
  0.00000000E+00  0.00000000E+00  0.00000000E+00
  0.00000000E+00  0.00000000E+00  0.00000000E+00
  0.00000000E+00  0.00000000E+00  0.00000000E+00
  0.00000000E+00  0.00000000E+00  0.00000000E+00
  0.00000000E+00  0.00000000E+00  0.00000000E+00
  0.00000000E+00  0.00000000E+00  0.00000000E+00
  0.00000000E+00  0.00000000E+00  0.00000000E+00
  0.00000000E+00  0.00000000E+00  0.00000000E+00
  0.00000000E+00  0.00000000E+00  0.00000000E+00
  0.00000000E+00  0.00000000E+00  0.00000000E+00
  0.00000000E+00  0.00000000E+00  0.00000000E+00
  0.00000000E+00  0.00000000E+00  0.00000000E+00
  0.00000000E+00  0.00000000E+00  0.00000000E+00
  0.00000000E+00  0.00000000E+00  0.00000000E+00
  0.00000000E+00  0.00000000E+00  0.00000000E+00
  0.00000000E+00  0.00000000E+00  0.00000000E+00
  0.00000000E+00  0.00000000E+00  0.00000000E+00
  0.00000000E+00  0.00000000E+00  0.00000000E+00
  0.00000000E+00  0.00000000E+00  0.00000000E+00
  0.00000000E+00  0.00000000E+00  0.00000000E+00
  0.00000000E+00  0.00000000E+00  0.00000000E+00
  0.00000000E+00  0.00000000E+00  0.00000000E+00
  0.00000000E+00  0.00000000E+00  0.00000000E+00
  0.00000000E+00  0.00000000E+00  0.00000000E+00
  0.00000000E+00  0.00000000E+00  0.00000000E+00
  0.00000000E+00  0.00000000E+00  0.00000000E+00
  0.00000000E+00  0.00000000E+00  0.00000000E+00
  0.00000000E+00  0.00000000E+00  0.00000000E+00
  0.00000000E+00  0.00000000E+00  0.00000000E+00
  0.00000000E+00  0.00000000E+00  0.00000000E+00
  0.00000000E+00  0.00000000E+00  0.00000000E+00
  0.00000000E+00  0.00000000E+00  0.00000000E+00
  0.00000000E+00  0.00000000E+00  0.00000000E+00
  0.00000000E+00  0.00000000E+00  0.00000000E+00
  0.00000000E+00  0.00000000E+00  0.00000000E+00
  0.00000000E+00  0.00000000E+00  0.00000000E+00
  0.00000000E+00  0.00000000E+00  0.00000000E+00
  0.00000000E+00  0.00000000E+00  0.00000000E+00
  0.00000000E+00  0.00000000E+00  0.00000000E+00
  0.00000000E+00  0.00000000E+00  0.00000000E+00
  0.00000000E+00  0.00000000E+00  0.00000000E+00
  0.00000000E+00  0.00000000E+00  0.00000000E+00
  0.00000000E+00  0.00000000E+00  0.00000000E+00
  0.00000000E+00  0.00000000E+00  0.00000000E+00
  0.00000000E+00  0.00000000E+00  0.00000000E+00
  0.00000000E+00  0.00000000E+00  0.00000000E+00
  0.00000000E+00  0.00000000E+00  0.00000000E+00
  0.00000000E+00  0.00000000E+00  0.00000000E+00
  0.00000000E+00  0.00000000E+00  0.00000000E+00
  0.00000000E+00  0.00000000E+00  0.00000000E+00
  0.00000000E+00  0.00000000E+00  0.00000000E+00
  0.00000000E+00  0.00000000E+00  0.00000000E+00
  0.00000000E+00  0.00000000E+00  0.00000000E+00
  0.00000000E+00  0.00000000E+00  0.00000000E+00
  0.00000000E+00  0.00000000E+00  0.00000000E+00
  0.00000000E+00  0.00000000E+00  0.00000000E+00
  0.00000000E+00  0.00000000E+00  0.00000000E+00
  0.00000000E+00  0.00000000E+00  0.00000000E+00
  0.00000000E+00  0.00000000E+00  0.00000000E+00
  0.00000000E+00  0.00000000E+00  0.00000000E+00
  0.00000000E+00  0.00000000E+00  0.00000000E+00
  0.00000000E+00  0.00000000E+00  0.00000000E+00
  0.00000000E+00  0.00000000E+00  0.00000000E+00
  0.00000000E+00  0.00000000E+00  0.00000000E+00
  0.00000000E+00  0.00000000E+00  0.00000000E+00
  0.00000000E+00  0.00000000E+00  0.00000000E+00
  0.00000000E+00  0.00000000E+00  0.00000000E+00
  0.00000000E+00  0.00000000E+00  0.00000000E+00
  0.00000000E+00  0.00000000E+00  0.00000000E+00
  0.00000000E+00  0.00000000E+00  0.00000000E+00
  0.00000000E+00  0.00000000E+00  0.00000000E+00
  0.00000000E+00  0.00000000E+00  0.00000000E+00
  0.00000000E+00  0.00000000E+00  0.00000000E+00
  0.00000000E+00  0.00000000E+00  0.00000000E+00
  0.00000000E+00  0.00000000E+00  0.00000000E+00
  0.00000000E+00  0.00000000E+00  0.00000000E+00
  0.00000000E+00  0.00000000E+00  0.00000000E+00
  0.00000000E+00  0.00000000E+00  0.00000000E+00
  0.00000000E+00  0.00000000E+00  0.00000000E+00
  0.00000000E+00  0.00000000E+00  0.00000000E+00
  0.00000000E+00  0.00000000E+00  0.00000000E+00
  0.00000000E+00  0.00000000E+00  0.00000000E+00
  0.00000000E+00  0.00000000E+00  0.00000000E+00
  0.00000000E+00  0.00000000E+00  0.00000000E+00
  0.00000000E+00  0.00000000E+00  0.00000000E+00
  0.00000000E+00  0.00000000E+00  0.00000000E+00
  0.00000000E+00  0.00000000E+00  0.00000000E+00
