Sr In Br                                
   1.00000000000000     
    11.6387359999999997  -11.6387359999999997    0.0000000000000000
    11.6387359999999997   11.6387359999999997    0.0000000000000000
     0.0000000000000000    0.0000000000000000   23.2774709999999985
   Sr   In   Br
    32    32    96
Direct
  0.0464835187899772  0.9597527666965594  0.0224754960969836
  0.0394391165406092  0.0147029837232065  0.2215473343031949
  0.0018025379982918  0.0192592831453771  0.5347757720002375
 -0.0004428889521240  0.0155136569143731  0.7708069723132485
  0.5189033845564970  0.0464163078805992  0.0150962406180452
  0.5183632987042427  0.9909806953862206  0.2722166257915776
  0.4894701475065697  0.0055903331085321  0.4894742054807791
  0.4980274331537033  0.0145884322393558  0.7535508860430838
  0.3725040376917653  0.2774455090625301  0.9564673169473429
  0.2602870859257843  0.2805737865918869  0.2874180963762147
  0.2240788531918911  0.2798298246608263  0.5441730859904514
  0.2570174984836353  0.3226812755284343  0.7454783129072863
  0.9474751006940922  0.4969355314851893  0.0253792257882292
  0.9918308506884871  0.5163094775032943  0.2730578102401170
  0.9841383370103367  0.5032659180650939  0.4845577266386175
  0.9799585028954176  0.4924597445304916  0.7464356986016145
  0.7275773160841459  0.2567699860197825  0.0266238963172309
  0.7678796253617935  0.2507484060224925  0.2285015084004801
  0.7155650215895948  0.2589605427471681  0.5016658732003512
  0.7690109108469186  0.2817294647747907  0.7769875699964749
  0.4135023249092003  0.5522619969856841  0.0068770641310848
  0.4702954354412775  0.5600410291765278  0.2549123298749037
  0.4623212789590990  0.3623223659678595  0.4514138713361138
  0.4819805904622164  0.5155893800957743  0.7876829722253668
  0.2223311092677238  0.7511088334810707  0.0640406368572056
  0.2037646917155137  0.7949902526194446  0.2566023394226974
  0.2771903380566847  0.8386936995540866  0.5112773986774277
  0.2534495479918856  0.7640347577476047  0.7528381988158167
  0.8816543231890390  0.7451415134114501  0.9609497547303302
  0.7044689352775761  0.7258082380330819  0.3087067451321588
  0.7511213113238440  0.7854100114910931  0.5060472361881998
  0.7456534567166588  0.7714980280596303  0.7547628141649708
  0.0443052877242987  0.2755669340062755  0.1307218888756786
  0.9577957745907028  0.1927761443048271  0.3883636564134135
  0.9197560311291841  0.2564993891669817  0.6192723870366933
  0.9864154465530394  0.2601790406735046  0.8853373391228639
  0.4264137304264851  0.2525444196358782  0.1475561567171930
  0.5287379199509552  0.2299341692348794  0.3332657885757781
  0.5374251367641582  0.3547062379041066  0.6232208234742829
  0.5178894359926933  0.2496591256382124  0.8442905195018741
  0.2216015114941526  0.4878063768355200  0.1555534903459916
  0.2397700055068465  0.5617415969241659  0.3856702934123669
  0.2157353317208072  0.5238460263448671  0.6115654880990474
  0.1996535203634420  0.5440718675527055  0.8649831587224545
  0.9617228694967855  0.7579198491590161  0.1626696195646112
  0.0172847938432990  0.7998498870983692  0.4130098352268511
  0.9840111557259623  0.7307044280945707  0.6245579520159972
  0.0428361904316558  0.7635297286976536  0.8470929493798274
  0.7094309853961104  0.5087884341822154  0.1440803929899692
  0.7692743226032338  0.4534539246021925  0.3702526624670363
  0.7117055126091406  0.5544997790718353  0.6469821188880815
  0.7306187833430658  0.5394123304178274  0.8846811725993659
  0.5127424444693114  0.7863169723088606  0.1095630593730704
  0.4508233756800966  0.7328450023469660  0.3943861181370119
  0.4882802018613714  0.7298428756263760  0.6542541174577469
  0.5243730744992078  0.7785888334751477  0.8964072028436615
  0.2774071662193182  0.0043660678005515  0.1297931441304433
  0.1908454447995216  0.0673864347359858  0.3860480576757859
  0.2680803009010143  0.0098168085042347  0.6415927201058812
  0.2742437275844204  0.0219847051310934  0.8941738003771917
  0.7589345246104922  0.0304785724319869  0.1573037147506981
  0.7755012458744684  0.0052412797712304  0.3717834712890933
  0.7446631364241568  0.0238543079491877  0.6150456237716136
  0.7336877337516637  0.0096789498155018  0.9032050838931842
  0.0334696265089109  0.3380176294476205  0.0050692975995870
  0.0994418542790947  0.1805125835515057  0.2934034313819390
  0.0882156760273814  0.1781460901524090  0.4953593661492278
  0.9213418002513061  0.1820908496011483  0.7589795804229309
  0.5463896110148164  0.2358956828840705  0.9957760466044824
  0.6103609180491393  0.1526555757715031  0.2345579283486682
  0.5334611613696130  0.2019914415995798  0.5051694949844413
  0.4449123128725890  0.3324668213020041  0.7403291545738322
  0.2275911881035065  0.5724008383847199  0.0260461473028707
  0.4144250641365020  0.3783561378992769  0.2479882340079241
  0.1566647429766643  0.4386114473608937  0.4904995065594845
  0.2953564695810088  0.5047416052941608  0.7456550601971337
  0.0482215233916680  0.7719033016543089  0.0120713306584807
  0.0224417253319892  0.8419523542207463  0.2806332992635533
  0.8838680076029379  0.6565848417929738  0.5144792855684901
  0.1058112985788314  0.6340495326192881  0.7627224357010672
  0.8473579134121668  0.6459203234806443  0.0656396597924933
  0.8363011067033094  0.4180898421547262  0.2370083813819751
  0.8616671082965401  0.3713827985507396  0.5181638394812880
  0.6541295300123684  0.6069761996612463  0.7675641586771206
  0.3951424318894707  0.7362748724053416  0.0068264487317211
  0.5264948068801800  0.7430541299155539  0.2680101389002520
  0.4584870252464034  0.8228957544334796  0.5215643760301717
  0.5864489649184899  0.8609402257640733  0.7575063921104503
  0.2304522573802144  0.9216328993086960  0.0070386459571833
  0.2149380019501648  0.9808841652351508  0.2677675757198855
  0.3026517332252892  0.0219853245181630  0.5041450744604085
  0.3298631261362930  0.9380428570360815  0.7650117368502173
  0.7022674224409878  0.0710529221832639  0.0291716104386088
  0.6883867485228430  0.9089931398181338  0.2675129975404492
  0.6660204612156903  0.9513606285713644  0.5068784035109805
  0.8391987795712547  0.9304972884746791  0.7666880429700722
  0.0963819693099601  0.0964911950305616  0.1051804075045560
  0.0096821234096537  0.0034427251602026  0.4027754581393964
  0.0624747707148657  0.0674195717826902  0.6531552222568874
  0.0753907173530024  0.0347649179275322  0.8911801544263783
  0.4929072039605146  0.9891073804520987  0.1402679789448377
  0.5873049985598692  0.0723450113096504  0.3814166329864641
  0.7284319620794576  0.2277253349573544  0.6317525709885908
  0.6237792763797690  0.1527193462390266  0.7692988925859934
  0.3752854197963719  0.3869152960133693  0.0590622072655987
  0.3072153576764109  0.2668014304343818  0.4187112994136848
  0.3718475297608009  0.3925019278938134  0.5618679212308842
  0.3765050512436612  0.4423278767623917  0.8954102289087367
  0.1308141906470728  0.6631496283132066  0.1763263901856673
  0.0478180930720760  0.6111096160112619  0.3817843507311054
  0.0257977968663217  0.5445252216260207  0.6149795881695821
  0.2128167887839825  0.7525093242641454  0.8792503820298553
  0.7781177633032628  0.4317120143612282  0.0106163754115274
  0.9553608938594336  0.4018971790416278  0.3735320349161100
  0.8440589102400918  0.4018647478437016  0.6865941216674571
  0.8782825769050130  0.4038789772242474  0.8435747094557204
  0.5014163352159545  0.5761689839291355  0.1241227749861331
  0.6504773718942639  0.5460552843779257  0.2754577592354031
  0.5140530026552057  0.5349843464391492  0.6546517227696694
  0.5467590025072562  0.5868790280707731  0.9166439834618999
  0.3348748633784584  0.8119760479734712  0.1611924120896621
  0.4242774422653627  0.9188510848905957  0.3727682520328390
  0.4726812597035337  0.0211105842898579  0.6262637444230699
  0.4846477050411599  0.0389150428217348  0.8842369581978347
  0.9148681878063203  0.9489983091091398  0.1282718258728368
  0.8227783454828056  0.8239682087516367  0.3883757372206861
  0.8739782377141589  0.8940322377991439  0.5764437547906027
  0.8849735042463245  0.9290118145230379  0.9578888292560126
  0.8522340587944639  0.2037131387169022  0.1164482517532321
  0.8775239048655753  0.1035340931855702  0.2659022636600190
  0.8421698985750548  0.1169868934205657  0.5103750403346867
  0.7835236808305285  0.2033521908229424  0.9031239302194874
  0.3451131996809101  0.1194772471402973  0.0172030573019523
  0.3895379158632796  0.1387073249277994  0.2795700598192505
  0.2936974553698591  0.1897834699771228  0.6512643912485094
  0.2815172812919369  0.2141647403845249  0.8513938284042606
  0.2380288717898600  0.2737712577000537  0.1604558068638580
  0.1660697203558135  0.4411073159542176  0.2888535949389201
  0.1367399321117229  0.3561041247519288  0.6480812702971619
  0.1067737778347641  0.3879270619957871  0.8134092680693462
  0.0256744444141482  0.4742998776299588  0.1440618443067798
  0.8633637164251198  0.6521361334489024  0.2605905148359288
  0.8776541485775701  0.6488491151939233  0.7269695991554210
  0.9635641971006507  0.5916188686841111  0.9144120977958167
  0.6518562294920346  0.3315417547287745  0.1396281708092817
  0.7360158161100220  0.2695895507984780  0.3645094598172137
  0.6258552929384344  0.4196793452248458  0.4931042706114275
  0.6313096414078577  0.3916180513089120  0.8247142328399283
  0.3075676320326093  0.6384490852004394  0.2747751663487451
  0.4407122475449566  0.5159259012863608  0.3842725540830338
  0.2819621070556198  0.7386195884015331  0.6238878680915749
  0.4184933908148918  0.6925661996846740  0.7816054428562235
  0.1235250791625993  0.8807220021807003  0.1412848552251823
  0.2207697573567282  0.7821238340599314  0.3944620908079555
  0.1038125056516344  0.8660877157739927  0.5429048341457602
  0.0945938098523634  0.8623639215134792  0.7416547490109394
  0.5890622801512055  0.8780717901098249 -0.0006229615251781
  0.6351605932543746  0.6923517922357629  0.4271304713826291
  0.6900087434221999  0.7430055864309972  0.6270370021174548
  0.7356304657478393  0.7533656943028127  0.8849463880974371
 
  0.00000000E+00  0.00000000E+00  0.00000000E+00
  0.00000000E+00  0.00000000E+00  0.00000000E+00
  0.00000000E+00  0.00000000E+00  0.00000000E+00
  0.00000000E+00  0.00000000E+00  0.00000000E+00
  0.00000000E+00  0.00000000E+00  0.00000000E+00
  0.00000000E+00  0.00000000E+00  0.00000000E+00
  0.00000000E+00  0.00000000E+00  0.00000000E+00
  0.00000000E+00  0.00000000E+00  0.00000000E+00
  0.00000000E+00  0.00000000E+00  0.00000000E+00
  0.00000000E+00  0.00000000E+00  0.00000000E+00
  0.00000000E+00  0.00000000E+00  0.00000000E+00
  0.00000000E+00  0.00000000E+00  0.00000000E+00
  0.00000000E+00  0.00000000E+00  0.00000000E+00
  0.00000000E+00  0.00000000E+00  0.00000000E+00
  0.00000000E+00  0.00000000E+00  0.00000000E+00
  0.00000000E+00  0.00000000E+00  0.00000000E+00
  0.00000000E+00  0.00000000E+00  0.00000000E+00
  0.00000000E+00  0.00000000E+00  0.00000000E+00
  0.00000000E+00  0.00000000E+00  0.00000000E+00
  0.00000000E+00  0.00000000E+00  0.00000000E+00
  0.00000000E+00  0.00000000E+00  0.00000000E+00
  0.00000000E+00  0.00000000E+00  0.00000000E+00
  0.00000000E+00  0.00000000E+00  0.00000000E+00
  0.00000000E+00  0.00000000E+00  0.00000000E+00
  0.00000000E+00  0.00000000E+00  0.00000000E+00
  0.00000000E+00  0.00000000E+00  0.00000000E+00
  0.00000000E+00  0.00000000E+00  0.00000000E+00
  0.00000000E+00  0.00000000E+00  0.00000000E+00
  0.00000000E+00  0.00000000E+00  0.00000000E+00
  0.00000000E+00  0.00000000E+00  0.00000000E+00
  0.00000000E+00  0.00000000E+00  0.00000000E+00
  0.00000000E+00  0.00000000E+00  0.00000000E+00
  0.00000000E+00  0.00000000E+00  0.00000000E+00
  0.00000000E+00  0.00000000E+00  0.00000000E+00
  0.00000000E+00  0.00000000E+00  0.00000000E+00
  0.00000000E+00  0.00000000E+00  0.00000000E+00
  0.00000000E+00  0.00000000E+00  0.00000000E+00
  0.00000000E+00  0.00000000E+00  0.00000000E+00
  0.00000000E+00  0.00000000E+00  0.00000000E+00
  0.00000000E+00  0.00000000E+00  0.00000000E+00
  0.00000000E+00  0.00000000E+00  0.00000000E+00
  0.00000000E+00  0.00000000E+00  0.00000000E+00
  0.00000000E+00  0.00000000E+00  0.00000000E+00
  0.00000000E+00  0.00000000E+00  0.00000000E+00
  0.00000000E+00  0.00000000E+00  0.00000000E+00
  0.00000000E+00  0.00000000E+00  0.00000000E+00
  0.00000000E+00  0.00000000E+00  0.00000000E+00
  0.00000000E+00  0.00000000E+00  0.00000000E+00
  0.00000000E+00  0.00000000E+00  0.00000000E+00
  0.00000000E+00  0.00000000E+00  0.00000000E+00
  0.00000000E+00  0.00000000E+00  0.00000000E+00
  0.00000000E+00  0.00000000E+00  0.00000000E+00
  0.00000000E+00  0.00000000E+00  0.00000000E+00
  0.00000000E+00  0.00000000E+00  0.00000000E+00
  0.00000000E+00  0.00000000E+00  0.00000000E+00
  0.00000000E+00  0.00000000E+00  0.00000000E+00
  0.00000000E+00  0.00000000E+00  0.00000000E+00
  0.00000000E+00  0.00000000E+00  0.00000000E+00
  0.00000000E+00  0.00000000E+00  0.00000000E+00
  0.00000000E+00  0.00000000E+00  0.00000000E+00
  0.00000000E+00  0.00000000E+00  0.00000000E+00
  0.00000000E+00  0.00000000E+00  0.00000000E+00
  0.00000000E+00  0.00000000E+00  0.00000000E+00
  0.00000000E+00  0.00000000E+00  0.00000000E+00
  0.00000000E+00  0.00000000E+00  0.00000000E+00
  0.00000000E+00  0.00000000E+00  0.00000000E+00
  0.00000000E+00  0.00000000E+00  0.00000000E+00
  0.00000000E+00  0.00000000E+00  0.00000000E+00
  0.00000000E+00  0.00000000E+00  0.00000000E+00
  0.00000000E+00  0.00000000E+00  0.00000000E+00
  0.00000000E+00  0.00000000E+00  0.00000000E+00
  0.00000000E+00  0.00000000E+00  0.00000000E+00
  0.00000000E+00  0.00000000E+00  0.00000000E+00
  0.00000000E+00  0.00000000E+00  0.00000000E+00
  0.00000000E+00  0.00000000E+00  0.00000000E+00
  0.00000000E+00  0.00000000E+00  0.00000000E+00
  0.00000000E+00  0.00000000E+00  0.00000000E+00
  0.00000000E+00  0.00000000E+00  0.00000000E+00
  0.00000000E+00  0.00000000E+00  0.00000000E+00
  0.00000000E+00  0.00000000E+00  0.00000000E+00
  0.00000000E+00  0.00000000E+00  0.00000000E+00
  0.00000000E+00  0.00000000E+00  0.00000000E+00
  0.00000000E+00  0.00000000E+00  0.00000000E+00
  0.00000000E+00  0.00000000E+00  0.00000000E+00
  0.00000000E+00  0.00000000E+00  0.00000000E+00
  0.00000000E+00  0.00000000E+00  0.00000000E+00
  0.00000000E+00  0.00000000E+00  0.00000000E+00
  0.00000000E+00  0.00000000E+00  0.00000000E+00
  0.00000000E+00  0.00000000E+00  0.00000000E+00
  0.00000000E+00  0.00000000E+00  0.00000000E+00
  0.00000000E+00  0.00000000E+00  0.00000000E+00
  0.00000000E+00  0.00000000E+00  0.00000000E+00
  0.00000000E+00  0.00000000E+00  0.00000000E+00
  0.00000000E+00  0.00000000E+00  0.00000000E+00
  0.00000000E+00  0.00000000E+00  0.00000000E+00
  0.00000000E+00  0.00000000E+00  0.00000000E+00
  0.00000000E+00  0.00000000E+00  0.00000000E+00
  0.00000000E+00  0.00000000E+00  0.00000000E+00
  0.00000000E+00  0.00000000E+00  0.00000000E+00
  0.00000000E+00  0.00000000E+00  0.00000000E+00
  0.00000000E+00  0.00000000E+00  0.00000000E+00
  0.00000000E+00  0.00000000E+00  0.00000000E+00
  0.00000000E+00  0.00000000E+00  0.00000000E+00
  0.00000000E+00  0.00000000E+00  0.00000000E+00
  0.00000000E+00  0.00000000E+00  0.00000000E+00
  0.00000000E+00  0.00000000E+00  0.00000000E+00
  0.00000000E+00  0.00000000E+00  0.00000000E+00
  0.00000000E+00  0.00000000E+00  0.00000000E+00
  0.00000000E+00  0.00000000E+00  0.00000000E+00
  0.00000000E+00  0.00000000E+00  0.00000000E+00
  0.00000000E+00  0.00000000E+00  0.00000000E+00
  0.00000000E+00  0.00000000E+00  0.00000000E+00
  0.00000000E+00  0.00000000E+00  0.00000000E+00
  0.00000000E+00  0.00000000E+00  0.00000000E+00
  0.00000000E+00  0.00000000E+00  0.00000000E+00
  0.00000000E+00  0.00000000E+00  0.00000000E+00
  0.00000000E+00  0.00000000E+00  0.00000000E+00
  0.00000000E+00  0.00000000E+00  0.00000000E+00
  0.00000000E+00  0.00000000E+00  0.00000000E+00
  0.00000000E+00  0.00000000E+00  0.00000000E+00
  0.00000000E+00  0.00000000E+00  0.00000000E+00
  0.00000000E+00  0.00000000E+00  0.00000000E+00
  0.00000000E+00  0.00000000E+00  0.00000000E+00
  0.00000000E+00  0.00000000E+00  0.00000000E+00
  0.00000000E+00  0.00000000E+00  0.00000000E+00
  0.00000000E+00  0.00000000E+00  0.00000000E+00
  0.00000000E+00  0.00000000E+00  0.00000000E+00
  0.00000000E+00  0.00000000E+00  0.00000000E+00
  0.00000000E+00  0.00000000E+00  0.00000000E+00
  0.00000000E+00  0.00000000E+00  0.00000000E+00
  0.00000000E+00  0.00000000E+00  0.00000000E+00
  0.00000000E+00  0.00000000E+00  0.00000000E+00
  0.00000000E+00  0.00000000E+00  0.00000000E+00
  0.00000000E+00  0.00000000E+00  0.00000000E+00
  0.00000000E+00  0.00000000E+00  0.00000000E+00
  0.00000000E+00  0.00000000E+00  0.00000000E+00
  0.00000000E+00  0.00000000E+00  0.00000000E+00
  0.00000000E+00  0.00000000E+00  0.00000000E+00
  0.00000000E+00  0.00000000E+00  0.00000000E+00
  0.00000000E+00  0.00000000E+00  0.00000000E+00
  0.00000000E+00  0.00000000E+00  0.00000000E+00
  0.00000000E+00  0.00000000E+00  0.00000000E+00
  0.00000000E+00  0.00000000E+00  0.00000000E+00
  0.00000000E+00  0.00000000E+00  0.00000000E+00
  0.00000000E+00  0.00000000E+00  0.00000000E+00
  0.00000000E+00  0.00000000E+00  0.00000000E+00
  0.00000000E+00  0.00000000E+00  0.00000000E+00
  0.00000000E+00  0.00000000E+00  0.00000000E+00
  0.00000000E+00  0.00000000E+00  0.00000000E+00
  0.00000000E+00  0.00000000E+00  0.00000000E+00
  0.00000000E+00  0.00000000E+00  0.00000000E+00
  0.00000000E+00  0.00000000E+00  0.00000000E+00
  0.00000000E+00  0.00000000E+00  0.00000000E+00
  0.00000000E+00  0.00000000E+00  0.00000000E+00
  0.00000000E+00  0.00000000E+00  0.00000000E+00
  0.00000000E+00  0.00000000E+00  0.00000000E+00
  0.00000000E+00  0.00000000E+00  0.00000000E+00
  0.00000000E+00  0.00000000E+00  0.00000000E+00
  0.00000000E+00  0.00000000E+00  0.00000000E+00
  0.00000000E+00  0.00000000E+00  0.00000000E+00
