Cd In  I                                
   1.00000000000000     
    11.8510700000000000  -11.8510700000000000    0.0000000000000000
    11.8510700000000000   11.8510700000000000    0.0000000000000000
     0.0000000000000000    0.0000000000000000   23.7021389999999990
   Cd   In   I 
    32    32    96
Direct
  0.9550106091790252  0.2059928123610170  0.9939752228727348
  0.0007875239249425  0.7800208159706353  0.2014286718578274
  0.1978787443472834  0.9796859801871460  0.4903854602746739
  0.0330017820897375  0.9916051566495864  0.6640413781042501
  0.5674633800792953  0.9377280642634555  0.0472677527970925
  0.6288557843921226  0.9695629726192083  0.2609190852123058
  0.4347345642147427  0.0939753748309190  0.4589993302059202
  0.5204774831567078  0.0403889888292421  0.7179119223544291
  0.3133621307519355  0.2567843662271321  0.9081814167491078
  0.1127964278324949  0.1775189562490331  0.1600036893839997
  0.3189056846858270  0.2961957345157048  0.5666264815989653
  0.1395942673631518  0.3009295392568285  0.8020134707633317
  0.9219701993810782  0.5606778459632613  0.9639627549865510
 -0.0008405397604541  0.5008961979945626  0.3645719130200268
  0.1086951608883103  0.4691548562030984  0.5320891165256907
  0.1369774219070545  0.6555016053099452  0.6755815572581273
  0.7081423743476738  0.1081096819395563  0.9912010577326181
  0.7155647933794784  0.2020703986065979  0.2708001266628026
  0.7478254543697120  0.2670826498134141  0.3726371022219332
  0.7914527598335392  0.2863797745622576  0.6826930597242772
  0.4438118790735398  0.4726293140700087  0.0055453488291184
  0.4457730749550166  0.4047583730826799  0.2576716486423880
  0.5436884138644537  0.6813297543397770  0.4711444848998299
  0.5423874448459503  0.6177998003161067  0.8247052992286881
  0.2560601887398581  0.6616821853278781  0.0573778028520222
  0.3437154874513469  0.7492750277139457  0.3367881876436404
  0.2227986348879988  0.7302073136693624  0.2623682364153424
  0.1869392638519924  0.8133976692907717  0.8895979269532559
  0.6810381154243382  0.6852352896734863  0.9773753858138092
  0.7891167095285536  0.6820913527926373  0.1381548890372636
  0.7110556531361240  0.8020791889449793  0.5770904194955185
  0.8757321043713963  0.7389738063544702  0.7404072474850510
  0.9227467907019826  0.3439575670979940  0.1789228717229341
  0.0027598404261702  0.2209894858041954  0.3693133268957828
  0.0456192317917112  0.2581579706047034  0.6059555816915370
  0.8929431877852884  0.4089992918798947  0.8874744905732284
  0.4037486466332191  0.0938403320886878  0.1465586461325405
  0.5454831780643150  0.2362026341685143  0.3619160626269876
  0.5226078862218404  0.2558874077185825  0.6792145401270281
  0.5097600999677642  0.2529394675069087  0.9771474820850889
  0.3080711986462817  0.3770743657955237  0.1145604464067839
  0.2738536224223057  0.4941825181465320  0.3583944690718664
  0.3483409869628717  0.5887791220219130  0.5827092199409517
  0.2617673188620823  0.5421284894968214  0.8499344231183852
  0.0077678952258523  0.6751703045494677  0.0436589861731409
  0.0411372074566974  0.7620591268355323  0.3886663516793538
  0.9827527047510191  0.7492777996592322  0.5505817826188305
  0.9417127053473544  0.7568665052430285  0.9159745972502672
  0.7195439069139502  0.4418172302859708  0.1152816169437186
  0.7173469283699214  0.5216088682789375  0.3353154569902824
  0.7574977415690172  0.4931302499825995  0.5541058459922166
  0.6935788959215927  0.4299410018048747  0.8355415745648026
  0.4587521084209022  0.7858795339473015  0.1459129887585688
  0.5607812684687512  0.8440233978257349  0.3176115465869572
  0.4917693513099216  0.6942273244637016  0.6625562016438175
  0.4959322107948082  0.8625659283987329  0.8623064843393012
  0.1780178295980014  0.9455505734342489  0.0636097518224999
  0.2705441306808610  0.9741485629604713  0.3228393938820755
  0.2696059986905694  0.9243044999881913  0.6982125518592747
  0.2763512500602328  0.0405364170497847  0.9544520704366390
  0.8521060775512477  0.0283950563960722  0.1626247191250267
  0.7760181624148846  0.9918667485403041  0.4361968986461513
  0.7321999105603365  0.9376230739662414  0.7160612295209177
  0.8034776745524378  0.0806780165762703  0.8527434903236201
  0.9142536358408149  0.3549322364906378  0.0350892238798045
  0.9792488832940142  0.1489304362130586  0.2307151414182193
  0.0771973056348622  0.2941105338843416  0.4882031151289402
  0.0267374468525639  0.2314088582269636  0.7279675263748743
  0.3294789362406481  0.2036539681768597  0.0399707583338499
  0.5608368563316232  0.1234945089730574  0.2442312333924913
  0.4614252281781204  0.2475961234949089  0.5115725165582501
  0.5838826729983394  0.2772896552721064  0.7872311360645790
  0.2927177463909112  0.4090679934183937  0.9652541468844353
  0.3277787509290527  0.5231357053075781  0.2333856908437698
  0.2712552521611130  0.4288859040184700  0.4991079274394023
  0.2570446899003022  0.5498937270843277  0.7103551684644032
  0.8046842191385982  0.7715947511094512  0.0346194065970433
  0.0905874343128131  0.6395293510522273  0.2125306162710923
  0.8010335782399687  0.6867558572317930  0.5215038191286997
  0.1362177478966624  0.7946821538418537  0.7381227596098461
  0.7191232637530079  0.5235586591655278  0.9838525733633516
  0.6127198820305150  0.3993523536804778  0.2473844366674432
  0.9600878517079758  0.5120680213804207  0.4842146431186620
  0.6034731858040020  0.5256589326566782  0.7371182224498921
  0.5394857497961807  0.7596120816596478  0.0091763557805230
  0.4947281733559226  0.6968347576026125  0.2724411226620682
  0.5452224675779966  0.8118434000466445  0.5500262191616108
  0.4017514462827269  0.6989479568216829  0.8046578303333709
  0.4009784753066140  0.9455087050623415  0.0456676458447951
  0.0809015830573764  0.8665132837913065  0.2899638972211668
  0.3542265512681739  0.0017136300811318  0.5381534926511417
  0.1097642608702892  0.0198140268996218  0.7622594639283901
  0.6710814946307445  0.9487831361828472  0.9538512252201286
  0.7863429032341354  0.0214593195689834  0.2945146843570415
  0.7393880619184359  0.9671209315169818  0.5704189093869033
  0.8094271664273868  0.1298656420050070  0.7205482246787845
  0.0931281457824331  0.1339349297667213  0.0429349563496059
  0.1244712337223446  0.0739563410782159  0.4106610849651788
  0.2112829860725064  0.1864146133879171  0.6104262055876184
  0.1649359683948597  0.1787378044981098  0.8871827584960712
  0.5821192717261042  0.1230903124086542  0.0689952016939942
  0.5967317991217247  0.0656719790589419  0.4249996372235522
  0.5934927399266424  0.1198495785149842  0.6242008112216744
  0.7055071668399567  0.2463142906701191  0.9268854147794514
  0.3653659674127793  0.2675835640037758  0.2192859734550560
  0.4281912636315960  0.3985927475352060  0.3771015418964800
  0.4131911425157944  0.3812647600975991  0.6510837073129898
  0.3047779810940807  0.3407426385520523  0.7971665831701442
  0.1435291368737490  0.5428441301359953  0.0510564568366814
  0.1459091529246121  0.6221426601451525  0.3864595344982481
  0.1611203756037978  0.6366458715113399  0.5537743317257245
  0.1072129906421006  0.6666408787208338  0.8795138358935130
  0.7689510957263661  0.2175857409271915  0.1565593834027417
  0.8699146485766389  0.3920588361193325  0.3197877085011347
  0.8828245045775489  0.3180209393844581  0.5831795252169812
  0.8452169177219115  0.4123707292218441  0.7494542485440261
  0.6413838883657695  0.6126086702895893  0.1515978623867902
  0.6597111947055740  0.7373814505967077  0.3938044920822699
  0.5707490650947407  0.5535552919153622  0.5456420364025112
  0.6613674196908783  0.7280451623486536  0.8590915385723802
  0.2513215984821396  0.7869961828800077  0.1393257928105015
  0.4329483309884100  0.8752904686749647  0.3979146523386009
  0.5012734937415612  0.8755947993564268  0.7172496881221240
  0.3009227744530720  0.9211953425920123  0.8421257354414527
  0.8341480837241860  0.7906362566038824  0.2244091016283076
  0.9237433854040705  0.8712117623751214  0.4306882784867938
  0.9138031793067791  0.8671200242736113  0.6547198218693487
  0.8609612285783234  0.8763164185404714  0.8201154511086378
  0.8661598238997150  0.0623498985931598  0.0178943503811304
  0.8443829049618290  0.1675408034014940  0.4468909709752286
  0.9778760186363047  0.1001682525400149  0.5817664719320671
  0.9406061975403935  0.2200056409310630  0.8757742792332798
  0.2166432974330558  0.0534175891980909  0.1897449438589742
  0.3610559293014963  0.1407804577609869  0.3592194119797331
  0.3900685554309089  0.1452979980284870  0.7136596257444311
  0.4203263817939196  0.1278887039114009  0.8875659373597848
  0.1255382970375036  0.3422404480519975  0.1556817975937862
  0.1155269352294413  0.3890632434123825  0.3302024225984321
  0.1012120105406948  0.4136643628787512  0.6440467308206400
  0.0769321562488550  0.4397293004980916  0.8513670339369935
  0.9033060428064068  0.5584818741137280  0.1299966198074953
  0.9112501380619523  0.6406521832765888  0.3389928429982628
  0.9659788577994330  0.6249515350039477  0.6661025513433625
  0.8716123199771815  0.6215095359173477  0.8277771683965806
  0.5307588769704252  0.3814952483446543  0.0845961023971057
  0.6833125922107723  0.3960586110243201  0.4398015313362583
  0.6529748834321545  0.3473251616914313  0.6234039463454127
  0.5036114128211946  0.4799030195120538  0.8945311695816228
  0.4075532092584345  0.5909609866667429  0.0856078113103793
  0.3863296243284517  0.6411813330657585  0.4349442150564410
  0.3306435950136243  0.7703650039041395  0.6181372988681598
  0.3097631444422401  0.7477439881272818  0.9630866986441341
  0.0050566778617385  0.8859921229669492  0.1095449305726144
  0.2053144586046486  0.8273759377479728  0.4356975497653521
  0.1343433430051736  0.9018211976359383  0.5872603512225099
  0.0761254531554502  0.9179903337866734  0.9399872492267412
  0.6523510596998040  0.8982955350166505  0.1474145733426112
  0.4120566947322604  0.9294294577695472  0.2296426728896100
  0.7128568029199358  0.7356657080759829  0.6900909766344568
  0.6137693484212030  0.0367920285974858  0.8155577314576381
 
  0.00000000E+00  0.00000000E+00  0.00000000E+00
  0.00000000E+00  0.00000000E+00  0.00000000E+00
  0.00000000E+00  0.00000000E+00  0.00000000E+00
  0.00000000E+00  0.00000000E+00  0.00000000E+00
  0.00000000E+00  0.00000000E+00  0.00000000E+00
  0.00000000E+00  0.00000000E+00  0.00000000E+00
  0.00000000E+00  0.00000000E+00  0.00000000E+00
  0.00000000E+00  0.00000000E+00  0.00000000E+00
  0.00000000E+00  0.00000000E+00  0.00000000E+00
  0.00000000E+00  0.00000000E+00  0.00000000E+00
  0.00000000E+00  0.00000000E+00  0.00000000E+00
  0.00000000E+00  0.00000000E+00  0.00000000E+00
  0.00000000E+00  0.00000000E+00  0.00000000E+00
  0.00000000E+00  0.00000000E+00  0.00000000E+00
  0.00000000E+00  0.00000000E+00  0.00000000E+00
  0.00000000E+00  0.00000000E+00  0.00000000E+00
  0.00000000E+00  0.00000000E+00  0.00000000E+00
  0.00000000E+00  0.00000000E+00  0.00000000E+00
  0.00000000E+00  0.00000000E+00  0.00000000E+00
  0.00000000E+00  0.00000000E+00  0.00000000E+00
  0.00000000E+00  0.00000000E+00  0.00000000E+00
  0.00000000E+00  0.00000000E+00  0.00000000E+00
  0.00000000E+00  0.00000000E+00  0.00000000E+00
  0.00000000E+00  0.00000000E+00  0.00000000E+00
  0.00000000E+00  0.00000000E+00  0.00000000E+00
  0.00000000E+00  0.00000000E+00  0.00000000E+00
  0.00000000E+00  0.00000000E+00  0.00000000E+00
  0.00000000E+00  0.00000000E+00  0.00000000E+00
  0.00000000E+00  0.00000000E+00  0.00000000E+00
  0.00000000E+00  0.00000000E+00  0.00000000E+00
  0.00000000E+00  0.00000000E+00  0.00000000E+00
  0.00000000E+00  0.00000000E+00  0.00000000E+00
  0.00000000E+00  0.00000000E+00  0.00000000E+00
  0.00000000E+00  0.00000000E+00  0.00000000E+00
  0.00000000E+00  0.00000000E+00  0.00000000E+00
  0.00000000E+00  0.00000000E+00  0.00000000E+00
  0.00000000E+00  0.00000000E+00  0.00000000E+00
  0.00000000E+00  0.00000000E+00  0.00000000E+00
  0.00000000E+00  0.00000000E+00  0.00000000E+00
  0.00000000E+00  0.00000000E+00  0.00000000E+00
  0.00000000E+00  0.00000000E+00  0.00000000E+00
  0.00000000E+00  0.00000000E+00  0.00000000E+00
  0.00000000E+00  0.00000000E+00  0.00000000E+00
  0.00000000E+00  0.00000000E+00  0.00000000E+00
  0.00000000E+00  0.00000000E+00  0.00000000E+00
  0.00000000E+00  0.00000000E+00  0.00000000E+00
  0.00000000E+00  0.00000000E+00  0.00000000E+00
  0.00000000E+00  0.00000000E+00  0.00000000E+00
  0.00000000E+00  0.00000000E+00  0.00000000E+00
  0.00000000E+00  0.00000000E+00  0.00000000E+00
  0.00000000E+00  0.00000000E+00  0.00000000E+00
  0.00000000E+00  0.00000000E+00  0.00000000E+00
  0.00000000E+00  0.00000000E+00  0.00000000E+00
  0.00000000E+00  0.00000000E+00  0.00000000E+00
  0.00000000E+00  0.00000000E+00  0.00000000E+00
  0.00000000E+00  0.00000000E+00  0.00000000E+00
  0.00000000E+00  0.00000000E+00  0.00000000E+00
  0.00000000E+00  0.00000000E+00  0.00000000E+00
  0.00000000E+00  0.00000000E+00  0.00000000E+00
  0.00000000E+00  0.00000000E+00  0.00000000E+00
  0.00000000E+00  0.00000000E+00  0.00000000E+00
  0.00000000E+00  0.00000000E+00  0.00000000E+00
  0.00000000E+00  0.00000000E+00  0.00000000E+00
  0.00000000E+00  0.00000000E+00  0.00000000E+00
  0.00000000E+00  0.00000000E+00  0.00000000E+00
  0.00000000E+00  0.00000000E+00  0.00000000E+00
  0.00000000E+00  0.00000000E+00  0.00000000E+00
  0.00000000E+00  0.00000000E+00  0.00000000E+00
  0.00000000E+00  0.00000000E+00  0.00000000E+00
  0.00000000E+00  0.00000000E+00  0.00000000E+00
  0.00000000E+00  0.00000000E+00  0.00000000E+00
  0.00000000E+00  0.00000000E+00  0.00000000E+00
  0.00000000E+00  0.00000000E+00  0.00000000E+00
  0.00000000E+00  0.00000000E+00  0.00000000E+00
  0.00000000E+00  0.00000000E+00  0.00000000E+00
  0.00000000E+00  0.00000000E+00  0.00000000E+00
  0.00000000E+00  0.00000000E+00  0.00000000E+00
  0.00000000E+00  0.00000000E+00  0.00000000E+00
  0.00000000E+00  0.00000000E+00  0.00000000E+00
  0.00000000E+00  0.00000000E+00  0.00000000E+00
  0.00000000E+00  0.00000000E+00  0.00000000E+00
  0.00000000E+00  0.00000000E+00  0.00000000E+00
  0.00000000E+00  0.00000000E+00  0.00000000E+00
  0.00000000E+00  0.00000000E+00  0.00000000E+00
  0.00000000E+00  0.00000000E+00  0.00000000E+00
  0.00000000E+00  0.00000000E+00  0.00000000E+00
  0.00000000E+00  0.00000000E+00  0.00000000E+00
  0.00000000E+00  0.00000000E+00  0.00000000E+00
  0.00000000E+00  0.00000000E+00  0.00000000E+00
  0.00000000E+00  0.00000000E+00  0.00000000E+00
  0.00000000E+00  0.00000000E+00  0.00000000E+00
  0.00000000E+00  0.00000000E+00  0.00000000E+00
  0.00000000E+00  0.00000000E+00  0.00000000E+00
  0.00000000E+00  0.00000000E+00  0.00000000E+00
  0.00000000E+00  0.00000000E+00  0.00000000E+00
  0.00000000E+00  0.00000000E+00  0.00000000E+00
  0.00000000E+00  0.00000000E+00  0.00000000E+00
  0.00000000E+00  0.00000000E+00  0.00000000E+00
  0.00000000E+00  0.00000000E+00  0.00000000E+00
  0.00000000E+00  0.00000000E+00  0.00000000E+00
  0.00000000E+00  0.00000000E+00  0.00000000E+00
  0.00000000E+00  0.00000000E+00  0.00000000E+00
  0.00000000E+00  0.00000000E+00  0.00000000E+00
  0.00000000E+00  0.00000000E+00  0.00000000E+00
  0.00000000E+00  0.00000000E+00  0.00000000E+00
  0.00000000E+00  0.00000000E+00  0.00000000E+00
  0.00000000E+00  0.00000000E+00  0.00000000E+00
  0.00000000E+00  0.00000000E+00  0.00000000E+00
  0.00000000E+00  0.00000000E+00  0.00000000E+00
  0.00000000E+00  0.00000000E+00  0.00000000E+00
  0.00000000E+00  0.00000000E+00  0.00000000E+00
  0.00000000E+00  0.00000000E+00  0.00000000E+00
  0.00000000E+00  0.00000000E+00  0.00000000E+00
  0.00000000E+00  0.00000000E+00  0.00000000E+00
  0.00000000E+00  0.00000000E+00  0.00000000E+00
  0.00000000E+00  0.00000000E+00  0.00000000E+00
  0.00000000E+00  0.00000000E+00  0.00000000E+00
  0.00000000E+00  0.00000000E+00  0.00000000E+00
  0.00000000E+00  0.00000000E+00  0.00000000E+00
  0.00000000E+00  0.00000000E+00  0.00000000E+00
  0.00000000E+00  0.00000000E+00  0.00000000E+00
  0.00000000E+00  0.00000000E+00  0.00000000E+00
  0.00000000E+00  0.00000000E+00  0.00000000E+00
  0.00000000E+00  0.00000000E+00  0.00000000E+00
  0.00000000E+00  0.00000000E+00  0.00000000E+00
  0.00000000E+00  0.00000000E+00  0.00000000E+00
  0.00000000E+00  0.00000000E+00  0.00000000E+00
  0.00000000E+00  0.00000000E+00  0.00000000E+00
  0.00000000E+00  0.00000000E+00  0.00000000E+00
  0.00000000E+00  0.00000000E+00  0.00000000E+00
  0.00000000E+00  0.00000000E+00  0.00000000E+00
  0.00000000E+00  0.00000000E+00  0.00000000E+00
  0.00000000E+00  0.00000000E+00  0.00000000E+00
  0.00000000E+00  0.00000000E+00  0.00000000E+00
  0.00000000E+00  0.00000000E+00  0.00000000E+00
  0.00000000E+00  0.00000000E+00  0.00000000E+00
  0.00000000E+00  0.00000000E+00  0.00000000E+00
  0.00000000E+00  0.00000000E+00  0.00000000E+00
  0.00000000E+00  0.00000000E+00  0.00000000E+00
  0.00000000E+00  0.00000000E+00  0.00000000E+00
  0.00000000E+00  0.00000000E+00  0.00000000E+00
  0.00000000E+00  0.00000000E+00  0.00000000E+00
  0.00000000E+00  0.00000000E+00  0.00000000E+00
  0.00000000E+00  0.00000000E+00  0.00000000E+00
  0.00000000E+00  0.00000000E+00  0.00000000E+00
  0.00000000E+00  0.00000000E+00  0.00000000E+00
  0.00000000E+00  0.00000000E+00  0.00000000E+00
  0.00000000E+00  0.00000000E+00  0.00000000E+00
  0.00000000E+00  0.00000000E+00  0.00000000E+00
  0.00000000E+00  0.00000000E+00  0.00000000E+00
  0.00000000E+00  0.00000000E+00  0.00000000E+00
  0.00000000E+00  0.00000000E+00  0.00000000E+00
  0.00000000E+00  0.00000000E+00  0.00000000E+00
  0.00000000E+00  0.00000000E+00  0.00000000E+00
  0.00000000E+00  0.00000000E+00  0.00000000E+00
  0.00000000E+00  0.00000000E+00  0.00000000E+00
  0.00000000E+00  0.00000000E+00  0.00000000E+00
  0.00000000E+00  0.00000000E+00  0.00000000E+00
  0.00000000E+00  0.00000000E+00  0.00000000E+00
  0.00000000E+00  0.00000000E+00  0.00000000E+00
