Pb Br In                                
   1.00000000000000     
    11.8552700000000009  -11.8552700000000009    0.0000000000000000
    11.8552700000000009   11.8552700000000009    0.0000000000000000
     0.0000000000000000    0.0000000000000000   23.7105409999999992
   Br   In   Pb
    96    32    32
Direct
  0.0103021203375533  0.2748939179547347  0.0017568523968824
  0.0246710079078429  0.2046977491742374  0.2500462590361930
  0.0161297473350456  0.2954660442677907  0.5002910792886640
  0.9849896726665268  0.2078017730830526  0.7496744946336131
  0.4970434337449574  0.2514902269190943  0.9991457897480841
  0.5012237738505394  0.3007018399901705  0.2514165971791490
  0.5357995614178606  0.2203109332427786  0.4997999630157264
  0.4519665232017712  0.2403631425105391  0.7466538790951579
  0.2175536560933150  0.5178068784587955  0.0027990177038980
  0.2880729873773044  0.4458027394224636  0.2488885241459453
  0.2636207105855873  0.5355426187333144  0.4968664402413207
  0.2378609072279833  0.5260089580509657  0.7505904278296226
  0.0193575055464512  0.7751025900053694  0.9988113824782422
  0.9618978612088062  0.7273468117169817  0.2526733065160153
  0.0365188834992635  0.7795074396977528  0.5009759040138461
  0.9803888799681746  0.7043698129847971  0.7487365637522256
  0.8020181628728006  0.4765775564357087  0.0020380414505263
  0.7139863645392183  0.5026898073416158  0.2534141331861645
  0.7753149853287215  0.4553051855900533  0.5051452530612778
  0.7080655243801665  0.5234364404771544  0.7529407360754161
  0.4999701937196150  0.7940559670898588  0.9987860393047198
  0.5590486305032988  0.7303811337391196  0.2495774294447563
  0.4455956074726438  0.7425296376134199  0.4946930070986282
  0.5112651954712656  0.7234011598956290  0.7462586459203762
  0.2791050347657836  0.9524753854997914  0.9940010824975566
  0.2318136553648939  0.0231998475950005  0.2460613139579076
  0.2279972934762506  0.9428415658003571  0.4958223702652582
  0.2437976239504438  0.0409074729918239  0.7455192497752028
  0.7841482111862327  0.9786693460563054 -0.0002680511767406
  0.7650064242985589  0.9754677284668656  0.2505092168708286
  0.7228349153496555  0.0546432632485528  0.4985279769663890
  0.7769214759183608  0.0367854670777488  0.7470219601699752
  0.1189824285200868  0.1094268599114861  0.1066141363322501
  0.1404711007859218  0.1318072993743949  0.4050802229887314
  0.1040184451676550  0.1074389964432246  0.5903806595284398
  0.1204699534880802  0.1242333908753805  0.8846459657498003
  0.6066197141524760  0.1052336291101224  0.1049799830159739
  0.6339865428641928  0.1369463582697333  0.3398393661962477
  0.5953011470446730  0.0947558027582373  0.6395062945716057
  0.6036871227410163  0.1035551602714659  0.8928451998610911
  0.4143545761951828  0.4104899944159053  0.1082778154334446
  0.3644529775090181  0.3614738944880419  0.4133030783584163
  0.4118119056555005  0.4107884982601398  0.6107449277683398
  0.4080692696271697  0.4087163488079974  0.8848598844806249
  0.1057437649065496  0.5909257640581655  0.1574077462656670
  0.1433119785506068  0.6368219236050071  0.3423730899802522
  0.1060386533859690  0.6023835444592308  0.6103683926266976
  0.0961989500277128  0.6043359436872067  0.8778127586348466
  0.8935037277826068  0.3966209926749403  0.1610289844827429
  0.8593024596604131  0.3578639040990600  0.3500423982799136
  0.9108936986149576  0.4096802656840895  0.6466614629446419
  0.9093530258893825  0.4130680309598139  0.8523640272021764
  0.6069343018177390  0.6044336756615952  0.0880737346877851
  0.6516455378856830  0.6469532445743252  0.4084608235347559
  0.6003150841407796  0.5971431786655400  0.6070847050839498
  0.6131583999028158  0.6196891562711131  0.8926817117320706
  0.3938563036334473  0.8832557921905737  0.1624510244792422
  0.3660890741396226  0.8568633837087727  0.3405835482237107
  0.3889602108041797  0.8872295063022616  0.6452119826388366
  0.4066479666534475  0.9122071906783734  0.8488218058963821
  0.9058696290401778  0.8906594931268884  0.1371088390549614
  0.8519283155524426  0.8507083223771355  0.3886592972975734
  0.9025527723051425  0.9047834636618112  0.6309607581202396
  0.9105704274664077  0.9138505357373494  0.8517282735148473
  0.8742176175895741  0.1254986080811779  0.1147721547875213
  0.8991938176766680  0.0953845290901964  0.3753028917616650
  0.8399924941741025  0.1671884791148046  0.6166911885615685
  0.8355433967588772  0.1675577234904568  0.8858996027790071
  0.3451949989846765  0.1556480582495056  0.1205727065530077
  0.3987773968790762  0.0945137731385534  0.3760957061594014
  0.3659070968598540  0.1201067273562830  0.6055561094441582
  0.3527636264495594  0.1436397807533360  0.8888256073045171
  0.1568103490355798  0.3404674900822993  0.1235924672140511
  0.1060047285989236  0.3933552594767329  0.3540690956753997
  0.1608645533628351  0.3391138370371964  0.6343628733561991
  0.1377977265101863  0.3691766877914000  0.8734448881500143
  0.8413344377619285  0.6599633641883088  0.1167501185480395
  0.8984463353773833  0.6100501550198442  0.4069754444130790
  0.8607169124478683  0.6350280149232049  0.5977393056593467
  0.8392597234078724  0.6605661722471418  0.8891833345428517
  0.6471383604927132  0.3537797976467470  0.1022926129851770
  0.6246227703927348  0.3773835639232682  0.3848767426073145
  0.6540024915414697  0.3386723643515308  0.6338095909618929
  0.6488261372456565  0.3505057873780906  0.8949116651865409
  0.3615997185285816  0.6383736557802504  0.1579757793255482
  0.4116791316197484  0.5871523751101283  0.3578212877362517
  0.3549811277104568  0.6483415171980568  0.6345999607712743
  0.3392201945485934  0.6680573566386810  0.8838648937258201
  0.1564485651471122  0.8429685096065135  0.1304090724853527
  0.0875186062455062  0.9103316875562628  0.3525395060837290
  0.1574846691678270  0.8333622098331732  0.6500786635442291
  0.1554547874807285  0.8394326337599409  0.8595432682952570
  0.6593382720815799  0.8421599867129356  0.1175561461798225
  0.5903740765801357  0.9035639135986604  0.3906752371577042
  0.6400825773128120  0.8672059103819239  0.5830462695861020
  0.6503940324912485  0.8557750117709803  0.8739744376477702
  0.9660998882210216  0.9976574968482774  0.0390932358306953
  0.9619977093657218  0.0175490135066391  0.2642040485089854
  0.0416165306084096  0.9885058555675639  0.4711825161169103
  0.9623244829854352 -0.0004065778814737  0.7388906342247205
  0.4692450377945406  0.9891513826804822  0.9620215862406915
  0.4941833908967487  0.9842839071422640  0.2934632718220533
  0.5380774009310709  0.0199560568095954  0.5215351957884004
  0.4392511713711402  0.0469486927407394  0.7216119209454390
  0.1983573318862241  0.2242914643248647  0.0204407840459328
  0.2206135384412665  0.2106303596721140  0.2164948961842600
  0.1964733382016248  0.2350919138699816  0.5158785257790491
  0.2337100805931337  0.2197296035018088  0.8006502224684403
  0.0324154876837741  0.4696140221197582  0.9633330197783634
  0.0176226692914923  0.5404800753827812  0.2721277178026796
  0.9597845644887839  0.5026487378704344  0.5292732668127714
  0.0464908560351338  0.5247949104162851  0.7616336174122214
  0.6856591548674450  0.2139406636672356  0.9931648174499362
  0.7048845820550808  0.3145680584835318  0.2703263169800180
  0.7218537976163634  0.2646084597638899  0.5171117187723102
  0.7963951307431565  0.2249055213585912  0.7411006657098141
  0.5357423312131302  0.4405168368018771  0.0045148541829927
  0.4650332705541142  0.5015598110938948  0.2329210057963381
  0.4464955226672949  0.5032925643329996  0.4808745398206375
  0.5180583976221635  0.5383116197179302  0.7152688703541537
  0.2080914424151984  0.7620675867175686  0.9746667117582772
  0.2674069069545918  0.7739534015253715  0.2292861344356417
  0.2232702936635733  0.7258552334887597  0.5387528976019192
  0.3105378063093450  0.7614955293592965  0.7346808279857474
  0.6850622975544801  0.7323449519071874  0.0001222456957440
  0.7727893674082279  0.7748509721998506  0.2174407835913275
  0.7844990282523999  0.7322460109356671  0.4794659117410238
  0.7157956466832591  0.7119936658897423  0.7963140339018766
  0.9896528698316641  0.2601692385728172  0.1298186958252746
  0.0002678839601300  0.2556446908413931  0.3718190563862067
  0.0016530700148437  0.2578760770803227  0.6238183487120762
  0.9893326195162225  0.2513285864106204  0.8753928183759669
  0.4980421812599849  0.2542126439225729  0.1281865371153742
  0.4979670519707634  0.2489653388621861  0.3758592414637817
  0.4947737481953086  0.2552119044376895  0.6241806185258103
  0.4948656783850549  0.2542702402218480  0.8719395959261046
  0.2498204364567086  0.4969519628819480  0.1277842038877160
  0.2533592491088718  0.4941522771198915  0.3685465401876050
  0.2516987079755371  0.4953199682270373  0.6259449117207631
  0.2602309268061492  0.5071230188585373  0.8792858067893600
  0.0006170630398713  0.7397902636633387  0.1256261651553745
  0.0030628469142703  0.7532270678183455  0.3760991676928872
  0.9991626140371570  0.7507501782668300  0.6271360388210154
  0.9894260288674650  0.7545102045681935  0.8720759517972843
  0.7551219147132844  0.4995159929934534  0.1218849299486512
  0.7530245181355923  0.5016528669683540  0.3780775675068251
  0.7500336179817457  0.4969348355126122  0.6290984961813750
  0.7570753006765254  0.4934983102693850  0.8832506335974355
  0.5061712228831943  0.7446186585052958  0.1330083134361496
  0.5053340277376906  0.7424018925058142  0.3741707063996488
  0.5062091444613162  0.7548017102954695  0.6092289493464933
  0.4946990177747849  0.7538633293158289  0.8762314661612453
  0.2580817715571855  0.9892718352760655  0.1233538775349263
  0.2501448263824909  0.9940652030845031  0.3716233130933381
  0.2400583407626277  0.9926189699239180  0.6178083220861613
  0.2464887743356048  0.9914094951688339  0.8709519335518071
  0.7425040629472619  0.0013478826535543  0.1231204192730165
  0.7426176344442468  0.0044310562867927  0.3744564668180525
  0.7490697330415219  0.0062397446107574  0.6184287876250528
  0.7556809335097712  0.0034288254714671  0.8766149094191990
 
  0.00000000E+00  0.00000000E+00  0.00000000E+00
  0.00000000E+00  0.00000000E+00  0.00000000E+00
  0.00000000E+00  0.00000000E+00  0.00000000E+00
  0.00000000E+00  0.00000000E+00  0.00000000E+00
  0.00000000E+00  0.00000000E+00  0.00000000E+00
  0.00000000E+00  0.00000000E+00  0.00000000E+00
  0.00000000E+00  0.00000000E+00  0.00000000E+00
  0.00000000E+00  0.00000000E+00  0.00000000E+00
  0.00000000E+00  0.00000000E+00  0.00000000E+00
  0.00000000E+00  0.00000000E+00  0.00000000E+00
  0.00000000E+00  0.00000000E+00  0.00000000E+00
  0.00000000E+00  0.00000000E+00  0.00000000E+00
  0.00000000E+00  0.00000000E+00  0.00000000E+00
  0.00000000E+00  0.00000000E+00  0.00000000E+00
  0.00000000E+00  0.00000000E+00  0.00000000E+00
  0.00000000E+00  0.00000000E+00  0.00000000E+00
  0.00000000E+00  0.00000000E+00  0.00000000E+00
  0.00000000E+00  0.00000000E+00  0.00000000E+00
  0.00000000E+00  0.00000000E+00  0.00000000E+00
  0.00000000E+00  0.00000000E+00  0.00000000E+00
  0.00000000E+00  0.00000000E+00  0.00000000E+00
  0.00000000E+00  0.00000000E+00  0.00000000E+00
  0.00000000E+00  0.00000000E+00  0.00000000E+00
  0.00000000E+00  0.00000000E+00  0.00000000E+00
  0.00000000E+00  0.00000000E+00  0.00000000E+00
  0.00000000E+00  0.00000000E+00  0.00000000E+00
  0.00000000E+00  0.00000000E+00  0.00000000E+00
  0.00000000E+00  0.00000000E+00  0.00000000E+00
  0.00000000E+00  0.00000000E+00  0.00000000E+00
  0.00000000E+00  0.00000000E+00  0.00000000E+00
  0.00000000E+00  0.00000000E+00  0.00000000E+00
  0.00000000E+00  0.00000000E+00  0.00000000E+00
  0.00000000E+00  0.00000000E+00  0.00000000E+00
  0.00000000E+00  0.00000000E+00  0.00000000E+00
  0.00000000E+00  0.00000000E+00  0.00000000E+00
  0.00000000E+00  0.00000000E+00  0.00000000E+00
  0.00000000E+00  0.00000000E+00  0.00000000E+00
  0.00000000E+00  0.00000000E+00  0.00000000E+00
  0.00000000E+00  0.00000000E+00  0.00000000E+00
  0.00000000E+00  0.00000000E+00  0.00000000E+00
  0.00000000E+00  0.00000000E+00  0.00000000E+00
  0.00000000E+00  0.00000000E+00  0.00000000E+00
  0.00000000E+00  0.00000000E+00  0.00000000E+00
  0.00000000E+00  0.00000000E+00  0.00000000E+00
  0.00000000E+00  0.00000000E+00  0.00000000E+00
  0.00000000E+00  0.00000000E+00  0.00000000E+00
  0.00000000E+00  0.00000000E+00  0.00000000E+00
  0.00000000E+00  0.00000000E+00  0.00000000E+00
  0.00000000E+00  0.00000000E+00  0.00000000E+00
  0.00000000E+00  0.00000000E+00  0.00000000E+00
  0.00000000E+00  0.00000000E+00  0.00000000E+00
  0.00000000E+00  0.00000000E+00  0.00000000E+00
  0.00000000E+00  0.00000000E+00  0.00000000E+00
  0.00000000E+00  0.00000000E+00  0.00000000E+00
  0.00000000E+00  0.00000000E+00  0.00000000E+00
  0.00000000E+00  0.00000000E+00  0.00000000E+00
  0.00000000E+00  0.00000000E+00  0.00000000E+00
  0.00000000E+00  0.00000000E+00  0.00000000E+00
  0.00000000E+00  0.00000000E+00  0.00000000E+00
  0.00000000E+00  0.00000000E+00  0.00000000E+00
  0.00000000E+00  0.00000000E+00  0.00000000E+00
  0.00000000E+00  0.00000000E+00  0.00000000E+00
  0.00000000E+00  0.00000000E+00  0.00000000E+00
  0.00000000E+00  0.00000000E+00  0.00000000E+00
  0.00000000E+00  0.00000000E+00  0.00000000E+00
  0.00000000E+00  0.00000000E+00  0.00000000E+00
  0.00000000E+00  0.00000000E+00  0.00000000E+00
  0.00000000E+00  0.00000000E+00  0.00000000E+00
  0.00000000E+00  0.00000000E+00  0.00000000E+00
  0.00000000E+00  0.00000000E+00  0.00000000E+00
  0.00000000E+00  0.00000000E+00  0.00000000E+00
  0.00000000E+00  0.00000000E+00  0.00000000E+00
  0.00000000E+00  0.00000000E+00  0.00000000E+00
  0.00000000E+00  0.00000000E+00  0.00000000E+00
  0.00000000E+00  0.00000000E+00  0.00000000E+00
  0.00000000E+00  0.00000000E+00  0.00000000E+00
  0.00000000E+00  0.00000000E+00  0.00000000E+00
  0.00000000E+00  0.00000000E+00  0.00000000E+00
  0.00000000E+00  0.00000000E+00  0.00000000E+00
  0.00000000E+00  0.00000000E+00  0.00000000E+00
  0.00000000E+00  0.00000000E+00  0.00000000E+00
  0.00000000E+00  0.00000000E+00  0.00000000E+00
  0.00000000E+00  0.00000000E+00  0.00000000E+00
  0.00000000E+00  0.00000000E+00  0.00000000E+00
  0.00000000E+00  0.00000000E+00  0.00000000E+00
  0.00000000E+00  0.00000000E+00  0.00000000E+00
  0.00000000E+00  0.00000000E+00  0.00000000E+00
  0.00000000E+00  0.00000000E+00  0.00000000E+00
  0.00000000E+00  0.00000000E+00  0.00000000E+00
  0.00000000E+00  0.00000000E+00  0.00000000E+00
  0.00000000E+00  0.00000000E+00  0.00000000E+00
  0.00000000E+00  0.00000000E+00  0.00000000E+00
  0.00000000E+00  0.00000000E+00  0.00000000E+00
  0.00000000E+00  0.00000000E+00  0.00000000E+00
  0.00000000E+00  0.00000000E+00  0.00000000E+00
  0.00000000E+00  0.00000000E+00  0.00000000E+00
  0.00000000E+00  0.00000000E+00  0.00000000E+00
  0.00000000E+00  0.00000000E+00  0.00000000E+00
  0.00000000E+00  0.00000000E+00  0.00000000E+00
  0.00000000E+00  0.00000000E+00  0.00000000E+00
  0.00000000E+00  0.00000000E+00  0.00000000E+00
  0.00000000E+00  0.00000000E+00  0.00000000E+00
  0.00000000E+00  0.00000000E+00  0.00000000E+00
  0.00000000E+00  0.00000000E+00  0.00000000E+00
  0.00000000E+00  0.00000000E+00  0.00000000E+00
  0.00000000E+00  0.00000000E+00  0.00000000E+00
  0.00000000E+00  0.00000000E+00  0.00000000E+00
  0.00000000E+00  0.00000000E+00  0.00000000E+00
  0.00000000E+00  0.00000000E+00  0.00000000E+00
  0.00000000E+00  0.00000000E+00  0.00000000E+00
  0.00000000E+00  0.00000000E+00  0.00000000E+00
  0.00000000E+00  0.00000000E+00  0.00000000E+00
  0.00000000E+00  0.00000000E+00  0.00000000E+00
  0.00000000E+00  0.00000000E+00  0.00000000E+00
  0.00000000E+00  0.00000000E+00  0.00000000E+00
  0.00000000E+00  0.00000000E+00  0.00000000E+00
  0.00000000E+00  0.00000000E+00  0.00000000E+00
  0.00000000E+00  0.00000000E+00  0.00000000E+00
  0.00000000E+00  0.00000000E+00  0.00000000E+00
  0.00000000E+00  0.00000000E+00  0.00000000E+00
  0.00000000E+00  0.00000000E+00  0.00000000E+00
  0.00000000E+00  0.00000000E+00  0.00000000E+00
  0.00000000E+00  0.00000000E+00  0.00000000E+00
  0.00000000E+00  0.00000000E+00  0.00000000E+00
  0.00000000E+00  0.00000000E+00  0.00000000E+00
  0.00000000E+00  0.00000000E+00  0.00000000E+00
  0.00000000E+00  0.00000000E+00  0.00000000E+00
  0.00000000E+00  0.00000000E+00  0.00000000E+00
  0.00000000E+00  0.00000000E+00  0.00000000E+00
  0.00000000E+00  0.00000000E+00  0.00000000E+00
  0.00000000E+00  0.00000000E+00  0.00000000E+00
  0.00000000E+00  0.00000000E+00  0.00000000E+00
  0.00000000E+00  0.00000000E+00  0.00000000E+00
  0.00000000E+00  0.00000000E+00  0.00000000E+00
  0.00000000E+00  0.00000000E+00  0.00000000E+00
  0.00000000E+00  0.00000000E+00  0.00000000E+00
  0.00000000E+00  0.00000000E+00  0.00000000E+00
  0.00000000E+00  0.00000000E+00  0.00000000E+00
  0.00000000E+00  0.00000000E+00  0.00000000E+00
  0.00000000E+00  0.00000000E+00  0.00000000E+00
  0.00000000E+00  0.00000000E+00  0.00000000E+00
  0.00000000E+00  0.00000000E+00  0.00000000E+00
  0.00000000E+00  0.00000000E+00  0.00000000E+00
  0.00000000E+00  0.00000000E+00  0.00000000E+00
  0.00000000E+00  0.00000000E+00  0.00000000E+00
  0.00000000E+00  0.00000000E+00  0.00000000E+00
  0.00000000E+00  0.00000000E+00  0.00000000E+00
  0.00000000E+00  0.00000000E+00  0.00000000E+00
  0.00000000E+00  0.00000000E+00  0.00000000E+00
  0.00000000E+00  0.00000000E+00  0.00000000E+00
  0.00000000E+00  0.00000000E+00  0.00000000E+00
  0.00000000E+00  0.00000000E+00  0.00000000E+00
  0.00000000E+00  0.00000000E+00  0.00000000E+00
  0.00000000E+00  0.00000000E+00  0.00000000E+00
  0.00000000E+00  0.00000000E+00  0.00000000E+00
  0.00000000E+00  0.00000000E+00  0.00000000E+00
  0.00000000E+00  0.00000000E+00  0.00000000E+00
  0.00000000E+00  0.00000000E+00  0.00000000E+00
  0.00000000E+00  0.00000000E+00  0.00000000E+00
  0.00000000E+00  0.00000000E+00  0.00000000E+00
