Cs Ti Br                                
   1.00000000000000     
     9.5828450000000007   -9.5828450000000007    0.0000000000000000
     9.5828450000000007    9.5828450000000007    0.0000000000000000
     0.0000000000000000    0.0000000000000000   19.1656890000000004
   Cs   Tl   F 
    32    32    96
Direct
  0.9993206395565348  0.0018977526779148  0.0020638026232054
  0.9973149804021945  0.0186587039893023  0.2522028814811859
  0.0051268975385583  0.9946465388300954  0.5009154755589024
  0.9873939299024176  0.0015029096549737  0.7474794575928869
  0.5127959632622078  0.0002346721043153  0.0027220915067307
  0.4957751245194288  0.0075334672943579  0.2497312544265132
  0.5027050046874234  0.9837969756938557  0.4985518450859565
  0.5013199435170429  0.9998334641770718  0.7492687131625945
  0.2509094162150969  0.2433597282962887  0.0094549522950112
  0.2428277617573255  0.2567394566622282  0.2479891406793935
  0.2577211898405454  0.2482959415002019  0.4896892286720643
  0.2507310689094044  0.2555062133361062  0.7501930717692104
  0.9987065981226065  0.4888541845870021  0.9965588300028945
  0.0052860758119100  0.5006591025525652  0.2495804964717384
  0.0153641332344256  0.5051914064229894  0.5026336525514737
  0.9926384268977043  0.5076702324172104  0.7501631533316494
  0.7558391621786641  0.2501077756246812  0.9991316153727862
  0.7467640078742643  0.2547136367126908  0.2416276722916441
  0.7498597813506084  0.2495212089277983  0.4967322474232973
  0.7412715535295622  0.2571761891849098  0.7586589254584991
  0.5080232297083459  0.4943959864199172  0.0001393335362820
  0.4861441990913939  0.4983099043584163  0.2481151092436442
  0.4955987626689630  0.5016704445629957  0.4995317577172112
  0.5032520821473248  0.5139362280998973  0.7534834847852476
  0.2493056323686028  0.7458528667894332  0.0008128845081672
  0.2428124592327423  0.7542622908256705  0.2603251172470791
  0.2574591656322323  0.7469292607311429  0.5034476599643400
  0.2492453795528212  0.7588921502888349  0.7411204095290213
  0.7596479416417321  0.7440370547043217  0.9924911931784075
  0.7520346124007535  0.7543130438973042  0.2540482469951771
  0.7553677859955730  0.7478535695309322  0.5094846336138305
  0.7458711428118411  0.7515230298095057  0.7513625498062680
  0.9991431766982299  0.2519377682656328  0.1240151782944151
  0.9931211011752503  0.2536161493804245  0.3787433767580997
  0.0005764113127661  0.2519239695659166  0.6241779006066506
  0.0074314157283743  0.2476843038519302  0.8713802521817267
  0.4999613057088195  0.2502034611519652  0.1251282874636834
  0.5027421436489588  0.2484066123553191  0.3742378444937133
  0.5001281125389972  0.2518326656172531  0.6246378876239148
  0.4933448926924635  0.2488555080717473  0.8755065878950277
  0.2501480572283168  0.5083683780980705  0.1221636123773704
  0.2504908522998047  0.5016905644058752  0.3750346733368284
  0.2518385363688826  0.4937482907796709  0.6279185389955164
  0.2506384982862718  0.5007848542777725  0.8746295449374318
  0.0005815725464228  0.7505309978169181  0.1260838592554131
  0.9983245881272643  0.7542058434291372  0.3762061243511828
  0.0009365875290062  0.7523415948812769  0.6256878375817041
  0.0074255014432268  0.7530601039910542  0.8753210653265984
  0.7498864301979284  0.5055819690794147  0.1283116935012049
  0.7505881587370060  0.5014314594338590  0.3754704061855207
  0.7504661025419468  0.4959919092724108  0.6225141173397425
  0.7505964164801521  0.5007852696646694  0.8755316342784343
  0.5003183948582746  0.7506796450849054  0.1261113284673880
  0.5079577504048686  0.7493810413598891  0.3719256188594384
  0.5018170156376714  0.7506802202510973  0.6264011678910156
  0.4934399663858769  0.7537940591612443  0.8789547313458436
  0.2500254578795888  0.9949005058772689  0.1268886920751999
  0.2502380780098527  0.0011944110005883  0.3752074647071907
  0.2511950409791911  0.0085878066605151  0.6239834056984478
  0.2503420478418847  0.0007929904707971  0.8754419412528717
  0.7513082280432629  0.9930420138078715  0.1259558245318226
  0.7503197072401449  0.0015646375183669  0.3756849046006678
  0.7486205383705968  0.0098601041434010  0.6247957065765798
  0.7503815469102754  0.0006004283153605  0.8754493638469799
  0.9921268183231111  0.2373278103199650  0.0072212355338203
  0.0058039080728836  0.2640535493951144  0.2409857436706123
  0.9738741295248720  0.2187100938638820  0.5109741886460466
  0.0276273841848616  0.2817081342975746  0.7378441727123657
  0.4807323369807373  0.2328615830632017  0.0097171618675344
  0.5193228043883940  0.2682988717017297  0.2405330797675356
  0.4913851878630904  0.2671588690979744  0.5083784724767043
  0.5083361597839251  0.2363530202754608  0.7410201429571271
  0.2850615580895579  0.5209743288616498  0.9883314816333726
  0.2392751469243984  0.4878917802711746  0.2582350495261802
  0.2614029947250610  0.5163506002618423  0.4917933285535828
  0.2155710800589391  0.4799918904367639  0.7610865881347951
  0.9906294030264369  0.7657065943288019  0.0097986649034704
  0.0110602475756746  0.7343794845706606  0.2421762302638279
  0.9849056748363655  0.7343739800995587  0.5100005905317322
  0.0167373571721684  0.7702129988784194  0.7413470426769484
  0.7655950047349832  0.5100671860220748  0.9921652009936131
  0.7842069625158180  0.4755900357266888  0.2621599297973056
  0.7169122511544113  0.5266223790554035  0.4888760024237822
  0.7359761597099675  0.4915847533654550  0.7588735333106691
  0.4718788992461851  0.7212254762183048  0.0125596698105810
  0.5285814782814465  0.7830860144057953  0.2392715968662631
  0.4935601884939007  0.7363348173080211  0.5095657292547355
  0.5103813492064433  0.7659289093976035  0.7431510721915348
  0.2385814672862634  0.0074867010778960  0.9920907519884923
  0.2212307766971936  0.9811981872932425  0.2608970650622813
  0.2785279382959147  0.0208809581665186  0.4896599041950964
  0.2624419686450081  0.9943730523074108  0.7587780611192264
  0.7636191704516108  0.0201431431210944  0.9915885306223784
  0.7248886344850092  0.9862322966152749  0.2605428931808446
  0.7761727406889661  0.0183885160869350  0.4906552444249854
  0.7371821372977000  0.9811497992153301  0.7592957551420880
  0.1090177394142772  0.1281625361036417  0.1283757179821971
  0.1229278706979991  0.1074146135547045  0.3815933568387844
  0.0922530891608838  0.1141625208804210  0.6305537530608284
  0.1044024321681882  0.0791565981655100  0.8683897457329273
  0.6087602470843065  0.1248136332287398  0.1258089663793676
  0.6117022267949533  0.0912264525834208  0.3842845249921535
  0.5807250913045664  0.1074935884770617  0.6150228220677185
  0.6223738629584299  0.1054097761814735  0.8747627290400483
  0.3903302905071503  0.3748891198730185  0.1244686593304211
  0.3724860862317437  0.3899069533966156  0.3749220901677773
  0.4196132856156520  0.3962496461065079  0.6349993468185929
  0.3836046323903533  0.4038742468497686  0.8622444735312351
  0.0840780071526124  0.6080531865740645  0.1142568713245605
  0.1285372481758901  0.6133450229592251  0.3752145998316535
  0.1120922125830522  0.6289389749439426  0.6275659230762325
  0.1178071951780370  0.5980226966646542  0.8863677663527035
  0.8904440790777458  0.3760288182472691  0.1174454749972622
  0.8773879487667396  0.4035152755218647  0.4059278264833909
  0.9101680624914280  0.3902914611213057  0.6178788310858399
  0.8722075317770502  0.3878250884706220  0.8718430039152651
  0.5903843211107794  0.6120615616107506  0.1311456424483539
  0.6239005353839034  0.5995905355712295  0.3451604780382407
  0.6138024572000359  0.6295910112880501  0.6336173501763550
  0.6289704060737120  0.6136776780552956  0.8796838727336259
  0.4084753137318924  0.8883812711237183  0.1207575785289497
  0.3773751698356828  0.8948016730808532  0.3686423189220369
  0.3899377586623572  0.8727330379359516  0.6222479671462365
  0.3960077604318024  0.9218572045980442  0.8822121380541862
  0.9173560260216986  0.8931340135590656  0.1372007137282649
  0.8884108008394801  0.9110656217694063  0.3670124506819863
  0.8903959396389101  0.8763144701395127  0.6235036734321533
  0.8783656233004409  0.8958553444423075  0.8759730124960170
  0.8736601120193974  0.1439378283656773  0.1331053004570290
  0.8398724818514017  0.1385715499881819  0.3561179945459070
  0.8682393477531556  0.1600578483537576  0.6524650193160449
  0.8541334146464787  0.1286532728457646  0.8608675897399156
  0.3742750852061638  0.1449024111716998  0.1439280436464011
  0.3513647032547583  0.1285737623133466  0.3520760717605415
  0.3545269557704782  0.1724098700911953  0.6253439911971218
  0.3284634578504113  0.1471768147630844  0.8750225675811859
  0.1245882682787043  0.3601684214324852  0.1162886748553412
  0.1387266206122364  0.3802779321875412  0.3858370111906226
  0.1325381637562830  0.3446061466565947  0.5962162800943196
  0.1541094997873174  0.3711834188897804  0.9016896395529804
  0.8577884704374242  0.6660666664040571  0.1281396057196770
  0.8488479006635231  0.6346189297211700  0.3750986942660916
  0.8763034997359305  0.6446686812097175  0.6414288019031511
  0.8613470138373016  0.6232079991676073  0.8631954839637829
  0.6254141205947960  0.3563099092134622  0.1078374066675994
  0.6521117377545883  0.3683105180271631  0.3759551544675604
  0.6445198509993348  0.3336524636011901  0.6236324210648895
  0.6398581101610470  0.3782695288028924  0.8875584927832614
  0.3681913775736755  0.6581826056983627  0.1541079050953338
  0.3629574285243090  0.6223198334106493  0.3639526754119145
  0.3774917959832945  0.6413976454545105  0.6357170179991708
  0.3471980554105371  0.6303448138612534  0.8477080416338421
  0.1441134025685060  0.8335023115327765  0.1243585514911877
  0.1492311293338712  0.8738458003364833  0.3986299644455871
  0.1256662579568480  0.8594472676090515  0.6086244192821462
  0.1723870174837763  0.8543392169204277  0.8761489769477255
  0.6324835490504448  0.8427257127233191  0.0976729705540283
  0.6613932324969182  0.8641407806808958  0.3952164583302320
  0.6249578748900585  0.8609116938048067  0.6150004140616556
  0.6467448070621358  0.8724999688696734  0.8901621058189944
 
  0.00000000E+00  0.00000000E+00  0.00000000E+00
  0.00000000E+00  0.00000000E+00  0.00000000E+00
  0.00000000E+00  0.00000000E+00  0.00000000E+00
  0.00000000E+00  0.00000000E+00  0.00000000E+00
  0.00000000E+00  0.00000000E+00  0.00000000E+00
  0.00000000E+00  0.00000000E+00  0.00000000E+00
  0.00000000E+00  0.00000000E+00  0.00000000E+00
  0.00000000E+00  0.00000000E+00  0.00000000E+00
  0.00000000E+00  0.00000000E+00  0.00000000E+00
  0.00000000E+00  0.00000000E+00  0.00000000E+00
  0.00000000E+00  0.00000000E+00  0.00000000E+00
  0.00000000E+00  0.00000000E+00  0.00000000E+00
  0.00000000E+00  0.00000000E+00  0.00000000E+00
  0.00000000E+00  0.00000000E+00  0.00000000E+00
  0.00000000E+00  0.00000000E+00  0.00000000E+00
  0.00000000E+00  0.00000000E+00  0.00000000E+00
  0.00000000E+00  0.00000000E+00  0.00000000E+00
  0.00000000E+00  0.00000000E+00  0.00000000E+00
  0.00000000E+00  0.00000000E+00  0.00000000E+00
  0.00000000E+00  0.00000000E+00  0.00000000E+00
  0.00000000E+00  0.00000000E+00  0.00000000E+00
  0.00000000E+00  0.00000000E+00  0.00000000E+00
  0.00000000E+00  0.00000000E+00  0.00000000E+00
  0.00000000E+00  0.00000000E+00  0.00000000E+00
  0.00000000E+00  0.00000000E+00  0.00000000E+00
  0.00000000E+00  0.00000000E+00  0.00000000E+00
  0.00000000E+00  0.00000000E+00  0.00000000E+00
  0.00000000E+00  0.00000000E+00  0.00000000E+00
  0.00000000E+00  0.00000000E+00  0.00000000E+00
  0.00000000E+00  0.00000000E+00  0.00000000E+00
  0.00000000E+00  0.00000000E+00  0.00000000E+00
  0.00000000E+00  0.00000000E+00  0.00000000E+00
  0.00000000E+00  0.00000000E+00  0.00000000E+00
  0.00000000E+00  0.00000000E+00  0.00000000E+00
  0.00000000E+00  0.00000000E+00  0.00000000E+00
  0.00000000E+00  0.00000000E+00  0.00000000E+00
  0.00000000E+00  0.00000000E+00  0.00000000E+00
  0.00000000E+00  0.00000000E+00  0.00000000E+00
  0.00000000E+00  0.00000000E+00  0.00000000E+00
  0.00000000E+00  0.00000000E+00  0.00000000E+00
  0.00000000E+00  0.00000000E+00  0.00000000E+00
  0.00000000E+00  0.00000000E+00  0.00000000E+00
  0.00000000E+00  0.00000000E+00  0.00000000E+00
  0.00000000E+00  0.00000000E+00  0.00000000E+00
  0.00000000E+00  0.00000000E+00  0.00000000E+00
  0.00000000E+00  0.00000000E+00  0.00000000E+00
  0.00000000E+00  0.00000000E+00  0.00000000E+00
  0.00000000E+00  0.00000000E+00  0.00000000E+00
  0.00000000E+00  0.00000000E+00  0.00000000E+00
  0.00000000E+00  0.00000000E+00  0.00000000E+00
  0.00000000E+00  0.00000000E+00  0.00000000E+00
  0.00000000E+00  0.00000000E+00  0.00000000E+00
  0.00000000E+00  0.00000000E+00  0.00000000E+00
  0.00000000E+00  0.00000000E+00  0.00000000E+00
  0.00000000E+00  0.00000000E+00  0.00000000E+00
  0.00000000E+00  0.00000000E+00  0.00000000E+00
  0.00000000E+00  0.00000000E+00  0.00000000E+00
  0.00000000E+00  0.00000000E+00  0.00000000E+00
  0.00000000E+00  0.00000000E+00  0.00000000E+00
  0.00000000E+00  0.00000000E+00  0.00000000E+00
  0.00000000E+00  0.00000000E+00  0.00000000E+00
  0.00000000E+00  0.00000000E+00  0.00000000E+00
  0.00000000E+00  0.00000000E+00  0.00000000E+00
  0.00000000E+00  0.00000000E+00  0.00000000E+00
  0.00000000E+00  0.00000000E+00  0.00000000E+00
  0.00000000E+00  0.00000000E+00  0.00000000E+00
  0.00000000E+00  0.00000000E+00  0.00000000E+00
  0.00000000E+00  0.00000000E+00  0.00000000E+00
  0.00000000E+00  0.00000000E+00  0.00000000E+00
  0.00000000E+00  0.00000000E+00  0.00000000E+00
  0.00000000E+00  0.00000000E+00  0.00000000E+00
  0.00000000E+00  0.00000000E+00  0.00000000E+00
  0.00000000E+00  0.00000000E+00  0.00000000E+00
  0.00000000E+00  0.00000000E+00  0.00000000E+00
  0.00000000E+00  0.00000000E+00  0.00000000E+00
  0.00000000E+00  0.00000000E+00  0.00000000E+00
  0.00000000E+00  0.00000000E+00  0.00000000E+00
  0.00000000E+00  0.00000000E+00  0.00000000E+00
  0.00000000E+00  0.00000000E+00  0.00000000E+00
  0.00000000E+00  0.00000000E+00  0.00000000E+00
  0.00000000E+00  0.00000000E+00  0.00000000E+00
  0.00000000E+00  0.00000000E+00  0.00000000E+00
  0.00000000E+00  0.00000000E+00  0.00000000E+00
  0.00000000E+00  0.00000000E+00  0.00000000E+00
  0.00000000E+00  0.00000000E+00  0.00000000E+00
  0.00000000E+00  0.00000000E+00  0.00000000E+00
  0.00000000E+00  0.00000000E+00  0.00000000E+00
  0.00000000E+00  0.00000000E+00  0.00000000E+00
  0.00000000E+00  0.00000000E+00  0.00000000E+00
  0.00000000E+00  0.00000000E+00  0.00000000E+00
  0.00000000E+00  0.00000000E+00  0.00000000E+00
  0.00000000E+00  0.00000000E+00  0.00000000E+00
  0.00000000E+00  0.00000000E+00  0.00000000E+00
  0.00000000E+00  0.00000000E+00  0.00000000E+00
  0.00000000E+00  0.00000000E+00  0.00000000E+00
  0.00000000E+00  0.00000000E+00  0.00000000E+00
  0.00000000E+00  0.00000000E+00  0.00000000E+00
  0.00000000E+00  0.00000000E+00  0.00000000E+00
  0.00000000E+00  0.00000000E+00  0.00000000E+00
  0.00000000E+00  0.00000000E+00  0.00000000E+00
  0.00000000E+00  0.00000000E+00  0.00000000E+00
  0.00000000E+00  0.00000000E+00  0.00000000E+00
  0.00000000E+00  0.00000000E+00  0.00000000E+00
  0.00000000E+00  0.00000000E+00  0.00000000E+00
  0.00000000E+00  0.00000000E+00  0.00000000E+00
  0.00000000E+00  0.00000000E+00  0.00000000E+00
  0.00000000E+00  0.00000000E+00  0.00000000E+00
  0.00000000E+00  0.00000000E+00  0.00000000E+00
  0.00000000E+00  0.00000000E+00  0.00000000E+00
  0.00000000E+00  0.00000000E+00  0.00000000E+00
  0.00000000E+00  0.00000000E+00  0.00000000E+00
  0.00000000E+00  0.00000000E+00  0.00000000E+00
  0.00000000E+00  0.00000000E+00  0.00000000E+00
  0.00000000E+00  0.00000000E+00  0.00000000E+00
  0.00000000E+00  0.00000000E+00  0.00000000E+00
  0.00000000E+00  0.00000000E+00  0.00000000E+00
  0.00000000E+00  0.00000000E+00  0.00000000E+00
  0.00000000E+00  0.00000000E+00  0.00000000E+00
  0.00000000E+00  0.00000000E+00  0.00000000E+00
  0.00000000E+00  0.00000000E+00  0.00000000E+00
  0.00000000E+00  0.00000000E+00  0.00000000E+00
  0.00000000E+00  0.00000000E+00  0.00000000E+00
  0.00000000E+00  0.00000000E+00  0.00000000E+00
  0.00000000E+00  0.00000000E+00  0.00000000E+00
  0.00000000E+00  0.00000000E+00  0.00000000E+00
  0.00000000E+00  0.00000000E+00  0.00000000E+00
  0.00000000E+00  0.00000000E+00  0.00000000E+00
  0.00000000E+00  0.00000000E+00  0.00000000E+00
  0.00000000E+00  0.00000000E+00  0.00000000E+00
  0.00000000E+00  0.00000000E+00  0.00000000E+00
  0.00000000E+00  0.00000000E+00  0.00000000E+00
  0.00000000E+00  0.00000000E+00  0.00000000E+00
  0.00000000E+00  0.00000000E+00  0.00000000E+00
  0.00000000E+00  0.00000000E+00  0.00000000E+00
  0.00000000E+00  0.00000000E+00  0.00000000E+00
  0.00000000E+00  0.00000000E+00  0.00000000E+00
  0.00000000E+00  0.00000000E+00  0.00000000E+00
  0.00000000E+00  0.00000000E+00  0.00000000E+00
  0.00000000E+00  0.00000000E+00  0.00000000E+00
  0.00000000E+00  0.00000000E+00  0.00000000E+00
  0.00000000E+00  0.00000000E+00  0.00000000E+00
  0.00000000E+00  0.00000000E+00  0.00000000E+00
  0.00000000E+00  0.00000000E+00  0.00000000E+00
  0.00000000E+00  0.00000000E+00  0.00000000E+00
  0.00000000E+00  0.00000000E+00  0.00000000E+00
  0.00000000E+00  0.00000000E+00  0.00000000E+00
  0.00000000E+00  0.00000000E+00  0.00000000E+00
  0.00000000E+00  0.00000000E+00  0.00000000E+00
  0.00000000E+00  0.00000000E+00  0.00000000E+00
  0.00000000E+00  0.00000000E+00  0.00000000E+00
  0.00000000E+00  0.00000000E+00  0.00000000E+00
  0.00000000E+00  0.00000000E+00  0.00000000E+00
  0.00000000E+00  0.00000000E+00  0.00000000E+00
  0.00000000E+00  0.00000000E+00  0.00000000E+00
  0.00000000E+00  0.00000000E+00  0.00000000E+00
  0.00000000E+00  0.00000000E+00  0.00000000E+00
  0.00000000E+00  0.00000000E+00  0.00000000E+00
  0.00000000E+00  0.00000000E+00  0.00000000E+00
  0.00000000E+00  0.00000000E+00  0.00000000E+00
  0.00000000E+00  0.00000000E+00  0.00000000E+00
