Tl F Cd                                 
   1.00000000000000     
     8.9589809999999996   -8.9589809999999996    0.0000000000000000
     8.9589809999999996    8.9589809999999996    0.0000000000000000
     0.0000000000000000    0.0000000000000000   17.9179619999999993
   Cd   F    Tl
    32    96    32
Direct
  0.9996400854209055  0.2500643934995347  0.1260368803231933
  0.9997837868200813  0.2500941455907685  0.3748573229038005
  0.9993656172707716  0.2491986867456594  0.6253294874924690
  0.9992338332950077  0.2480484886071981  0.8761580529992598
  0.4995398843900644  0.2491127934479146  0.1253233807026387
  0.4994375139896002  0.2479741931415755  0.3761619587712701
  0.4994304143350279  0.2497291260233157  0.6260126631862746
  0.4994843635855777  0.2500347774333815  0.8749040596909295
  0.2498292201974334  0.4990240369149156  0.1250718972869580
  0.2496531589604824  0.4985958886834330  0.3757912422759290
  0.2496255276120860  0.5003689384814514  0.6261190085316121
  0.2498652125611072  0.4998859340130405  0.8749306838098526
  0.9996172227146896  0.7500441313756204  0.1260505764231410
  0.9997379223340780  0.7500555431553518  0.3748684084366372
  0.9992703577667328  0.7491886922397383  0.6253537959289861
  0.9993142737092938  0.7480695438961913  0.8761497714132626
  0.7498750074234978  0.5004542789784003  0.1263511733956744
  0.7497866931886359  0.4998621088765748  0.3750054937815674
  0.7496450881231482  0.4986185287199347  0.6249753483426788
  0.7496043466744032  0.4982207021179281  0.8759620886435543
  0.4994769805419378  0.7493077610478096  0.1252929185713215
  0.4992832474719341  0.7481201680143128  0.3761127764049623
  0.4994125409514617  0.7497734107344942  0.6259814932707056
  0.4996123435694915  0.7499780687873654  0.8748048149250518
  0.2498770533752700  0.9990689002139852  0.1250390927942235
  0.2496458270932217  0.9987013733188866  0.3756651128354792
  0.2495976676690988  0.0003759518199977  0.6261025429974146
  0.2496587507153114  0.9998334710887331  0.8749909303985165
  0.7498734253417536  0.0003397559050005  0.1262914526238144
  0.7499072712161495  0.9997344772625577  0.3750396597633656
  0.7496866821758528  0.9985169375003999  0.6251493464734630
  0.7497081106288994  0.9984785812715584  0.8757367905461673
  0.9626905110935020  0.2387726902646153  0.0017303756504534
  0.0391162946646527  0.2615608531056843  0.2503122171836077
  0.9644944236492686  0.2393294443898676  0.4996544411198787
  0.0299908389016286  0.2588387281056391  0.7508778199232335
  0.4645318055786006  0.2391589417857316  0.9997175900500790
  0.5298805606779984  0.2585937180330783  0.2509064263587355
  0.4626754185225844  0.2381546714066662  0.5016421151079602
  0.5386831359567401  0.2607711669991724  0.7503326751681407
  0.2863413240404823  0.4894166655413019  0.9995536958374619
  0.2183997230941579  0.5071222488637115  0.2503777284755715
  0.2842368545598250  0.4900360281904687  0.5016543687841487
  0.2107262764047901  0.5111267422213274  0.7506616916405764
  0.9627981068761182  0.7384870971997810  0.0017440270286021
  0.0390025327475958  0.7616009405582043  0.2503283373232656
  0.9646711095554595  0.7395201969253200  0.4996789900567754
  0.0305518344417146  0.7586120270242933  0.7509210790702071
  0.7848336040691146  0.4894746677908086  0.0018492133379856
  0.7103941954534557  0.5105351023131044  0.2508284643611373
  0.7864280997285519  0.4888575036514156  0.4994843522814732
  0.7181504944503700  0.5086351881657620  0.7503969882951566
  0.4646380650051439  0.7394344759706896  0.9995687247468786
  0.5298304919863467  0.7584806960622749  0.2509044702740288
  0.4624802973204845  0.7385800043958726  0.5016298810369334
  0.5387045134432686  0.7603640599806376  0.7502302620239670
  0.2864654647295128  0.9888614948085847  0.9995437775394056
  0.2180088678611535  0.0078683989546750  0.2502700565346823
  0.2839094052788987  0.9898209014876699  0.5015395328320333
  0.2106751776875351  0.0112448212737138  0.7507290523871503
  0.7844375654142102  0.9892548077236853  0.0016833283752419
  0.7105813917814850  0.0105066844765696  0.2508366184582707
  0.7866134645917180  0.9886988959162989  0.4996108658269849
  0.7177522389423612  0.0091719252968482  0.7503633147797676
  0.1397441843962219  0.1389764011423640  0.1062724470143793
  0.1417668745048807  0.1412389907738696  0.3925879681481728
  0.1396225283506110  0.1404188067893636  0.6061237795049735
  0.1375080815420134  0.1371257494094644  0.8971262682458502
  0.6396922767741792  0.1400156535067754  0.1059262894053536
  0.6378461746524771  0.1370335625070560  0.3972394997848228
  0.6392792198094508  0.1382626495157575  0.6060160051165512
  0.6409549596476697  0.1403981116430816  0.8931334087054239
  0.3556870592996715  0.3545082015653829  0.1415994480878031
  0.3547542051258171  0.3531473722255818  0.3609922457353019
  0.3621763798301433  0.3634332688117183  0.6487178592786581
  0.3628787631546150  0.3637102805260862  0.8520041361242117
  0.1396694504408657  0.6389406972694524  0.1066190993886501
  0.1415079407993996  0.6409964123704098  0.3926767006852215
  0.1396031289320780  0.6404955489688986  0.6060149621525545
  0.1377646691579089  0.6371873761684034  0.8967557858386095
  0.8630798112077624  0.3641847819780527  0.1493588482957842
  0.8634001779156945  0.3641392768942552  0.3517802462248487
  0.8554386645975406  0.3544165619227448  0.6418080867605664
  0.8549619372011180  0.3534131883409651  0.8606057984195574
  0.6390808090057779  0.6396690730570646  0.1057887660752231
  0.6373686602724845  0.6368998455439603  0.3974719546764966
  0.6393433308430742  0.6384100164814057  0.6060833453319477
  0.6415811174673519  0.6407336273479182  0.8927398082896518
  0.3551480689903269  0.8541235602820215  0.1415939365790799
  0.3547147508901335  0.8533495645239503  0.3605483717637832
  0.3623633111223012  0.8636343048533779  0.6486298440146776
  0.3630276029759356  0.8638416761192723  0.8518578401284853
  0.8627691916476754  0.8638630783226953  0.1491131106142573
  0.8630704665277432  0.8637714703440046  0.3519172275897847
  0.8556941833214866  0.8545616981363752  0.6424037333814968
  0.8548616614931964  0.8533043196568486  0.8607036135717477
  0.8860435614151622  0.1144658023466903  0.1497184117905576
  0.8864467772296704  0.1140743058589852  0.3523488905173345
  0.8937147220759241  0.1042525745595946  0.6410639574060134
  0.8930565313456345  0.1040952289975016  0.8596416794535400
  0.3943384622173456  0.1039144757006386  0.1412170111890572
  0.3938386763922720  0.1035240854702586  0.3597317683267539
  0.3861731235256705  0.1138747956819088  0.6496523911012194
  0.3864494263996371  0.1136714423422251  0.8523589230478638
  0.1117079336130735  0.3875366433825428  0.1036694152596927
  0.1097154683465030  0.3896344554641530  0.3957511965456819
  0.1065232764876167  0.3923176923892082  0.6090993989433666
  0.1096891932705727  0.3883298799568478  0.8945619301765166
  0.8859407649329395  0.6145341159303910  0.1500019669826946
  0.8860401066613471  0.6142872344354660  0.3520677239932490
  0.8937865777921401  0.6041021468113567  0.6411724208092556
  0.8932199481604606  0.6038467798716755  0.8598661547328619
  0.6077826804908695  0.3912584226390862  0.1086902759057645
  0.6098032785679830  0.3880874130343246  0.3945065884463181
  0.6111818547713923  0.3874612206467767  0.6042742144805278
  0.6096775574033899  0.3893504468905756  0.8954120594323287
  0.3941825295923594  0.6041305840505943  0.1411010090977916
  0.3935541804734871  0.6036842210957715  0.3597737135425609
  0.3862936295586213  0.6137793293259475  0.6494409554067776
  0.3866926783736376  0.6136163363550776  0.8523536312512089
  0.1112616442018269  0.8879300796748751  0.1039431905659422
  0.1093746525937422  0.8899910017252443  0.3951002541229361
  0.1064670267849869  0.8923425347057684  0.6093218212817870
  0.1094581412790628  0.8884681942570261  0.8946558733501654
  0.6072489352142645  0.8917383630201644  0.1089603760646867
  0.6098755565711815  0.8880717887263218  0.3947453767369653
  0.6115082283925265  0.8871862731278927  0.6038427596540452
  0.6099265919274137  0.8892206464752421  0.8950982657833345
  0.0045061427360790  0.0149431220430747  0.9980537804780990
  0.9949437028775271  0.9848812097815783  0.2511773001881717
  0.0039069804276341  0.0156891608178974  0.5033295956188519
  0.9965199232845925  0.9828635720278017  0.7495819375743563
  0.5042637770623470  0.0158851830843491  0.0030728542663604
  0.4966383709409644  0.9833938697797283  0.2497967212523405
  0.5043021902792370  0.0147536016689364  0.4981387658517538
  0.4941594502274842  0.9847071831271969  0.7511965960765883
  0.2445710646756982  0.2657336283321780  0.0028274178786844
  0.2533303667962691  0.2344557713349756  0.2511510158191648
  0.2454461220381002  0.2653629683119052  0.4976947568918225
  0.2543527606245927  0.2347899217466264  0.7500445061380698
  0.0045986165215403  0.5148320745589905  0.9977935359116976
  0.9944594033190590  0.4849084873156191  0.2511775079052557
  0.0038565384297546  0.5155423556275612  0.5035571627362760
  0.9964714945284096  0.4830718396667515  0.7498292633818520
  0.7450864100621073  0.2650947625136212  0.9980006493278862
  0.7548201118169614  0.2352080578614552  0.2501783841843056
  0.7446511332642358  0.2649214566103448  0.5029849510041595
  0.7531872832715181  0.2330928699849044  0.7513022047122971
  0.5039189905109619  0.5158532481160487  0.0036261485238397
  0.4967090406495783  0.4834956665225438  0.2498991486716230
  0.5044777922113514  0.5149558458542258  0.4979863568409884
  0.4945225898192552  0.4846869001948673  0.7509844548078790
  0.2448788184201112  0.7655142468138681  0.0030829514456579
  0.2532722390747113  0.7340744028786019  0.2511586906699597
  0.2453271739993222  0.7651792406911163  0.4978105270186851
  0.2545884037110848  0.7346148967443283  0.7500887709684739
  0.7453663788070999  0.7651883324755535  0.9976898175372564
  0.7550508746360713  0.7354775967971613  0.2501397430032545
  0.7444880317975427  0.7651428402891711  0.5029113930155428
  0.7528739455867072  0.7325574666877898  0.7515213421521155
 
  0.00000000E+00  0.00000000E+00  0.00000000E+00
  0.00000000E+00  0.00000000E+00  0.00000000E+00
  0.00000000E+00  0.00000000E+00  0.00000000E+00
  0.00000000E+00  0.00000000E+00  0.00000000E+00
  0.00000000E+00  0.00000000E+00  0.00000000E+00
  0.00000000E+00  0.00000000E+00  0.00000000E+00
  0.00000000E+00  0.00000000E+00  0.00000000E+00
  0.00000000E+00  0.00000000E+00  0.00000000E+00
  0.00000000E+00  0.00000000E+00  0.00000000E+00
  0.00000000E+00  0.00000000E+00  0.00000000E+00
  0.00000000E+00  0.00000000E+00  0.00000000E+00
  0.00000000E+00  0.00000000E+00  0.00000000E+00
  0.00000000E+00  0.00000000E+00  0.00000000E+00
  0.00000000E+00  0.00000000E+00  0.00000000E+00
  0.00000000E+00  0.00000000E+00  0.00000000E+00
  0.00000000E+00  0.00000000E+00  0.00000000E+00
  0.00000000E+00  0.00000000E+00  0.00000000E+00
  0.00000000E+00  0.00000000E+00  0.00000000E+00
  0.00000000E+00  0.00000000E+00  0.00000000E+00
  0.00000000E+00  0.00000000E+00  0.00000000E+00
  0.00000000E+00  0.00000000E+00  0.00000000E+00
  0.00000000E+00  0.00000000E+00  0.00000000E+00
  0.00000000E+00  0.00000000E+00  0.00000000E+00
  0.00000000E+00  0.00000000E+00  0.00000000E+00
  0.00000000E+00  0.00000000E+00  0.00000000E+00
  0.00000000E+00  0.00000000E+00  0.00000000E+00
  0.00000000E+00  0.00000000E+00  0.00000000E+00
  0.00000000E+00  0.00000000E+00  0.00000000E+00
  0.00000000E+00  0.00000000E+00  0.00000000E+00
  0.00000000E+00  0.00000000E+00  0.00000000E+00
  0.00000000E+00  0.00000000E+00  0.00000000E+00
  0.00000000E+00  0.00000000E+00  0.00000000E+00
  0.00000000E+00  0.00000000E+00  0.00000000E+00
  0.00000000E+00  0.00000000E+00  0.00000000E+00
  0.00000000E+00  0.00000000E+00  0.00000000E+00
  0.00000000E+00  0.00000000E+00  0.00000000E+00
  0.00000000E+00  0.00000000E+00  0.00000000E+00
  0.00000000E+00  0.00000000E+00  0.00000000E+00
  0.00000000E+00  0.00000000E+00  0.00000000E+00
  0.00000000E+00  0.00000000E+00  0.00000000E+00
  0.00000000E+00  0.00000000E+00  0.00000000E+00
  0.00000000E+00  0.00000000E+00  0.00000000E+00
  0.00000000E+00  0.00000000E+00  0.00000000E+00
  0.00000000E+00  0.00000000E+00  0.00000000E+00
  0.00000000E+00  0.00000000E+00  0.00000000E+00
  0.00000000E+00  0.00000000E+00  0.00000000E+00
  0.00000000E+00  0.00000000E+00  0.00000000E+00
  0.00000000E+00  0.00000000E+00  0.00000000E+00
  0.00000000E+00  0.00000000E+00  0.00000000E+00
  0.00000000E+00  0.00000000E+00  0.00000000E+00
  0.00000000E+00  0.00000000E+00  0.00000000E+00
  0.00000000E+00  0.00000000E+00  0.00000000E+00
  0.00000000E+00  0.00000000E+00  0.00000000E+00
  0.00000000E+00  0.00000000E+00  0.00000000E+00
  0.00000000E+00  0.00000000E+00  0.00000000E+00
  0.00000000E+00  0.00000000E+00  0.00000000E+00
  0.00000000E+00  0.00000000E+00  0.00000000E+00
  0.00000000E+00  0.00000000E+00  0.00000000E+00
  0.00000000E+00  0.00000000E+00  0.00000000E+00
  0.00000000E+00  0.00000000E+00  0.00000000E+00
  0.00000000E+00  0.00000000E+00  0.00000000E+00
  0.00000000E+00  0.00000000E+00  0.00000000E+00
  0.00000000E+00  0.00000000E+00  0.00000000E+00
  0.00000000E+00  0.00000000E+00  0.00000000E+00
  0.00000000E+00  0.00000000E+00  0.00000000E+00
  0.00000000E+00  0.00000000E+00  0.00000000E+00
  0.00000000E+00  0.00000000E+00  0.00000000E+00
  0.00000000E+00  0.00000000E+00  0.00000000E+00
  0.00000000E+00  0.00000000E+00  0.00000000E+00
  0.00000000E+00  0.00000000E+00  0.00000000E+00
  0.00000000E+00  0.00000000E+00  0.00000000E+00
  0.00000000E+00  0.00000000E+00  0.00000000E+00
  0.00000000E+00  0.00000000E+00  0.00000000E+00
  0.00000000E+00  0.00000000E+00  0.00000000E+00
  0.00000000E+00  0.00000000E+00  0.00000000E+00
  0.00000000E+00  0.00000000E+00  0.00000000E+00
  0.00000000E+00  0.00000000E+00  0.00000000E+00
  0.00000000E+00  0.00000000E+00  0.00000000E+00
  0.00000000E+00  0.00000000E+00  0.00000000E+00
  0.00000000E+00  0.00000000E+00  0.00000000E+00
  0.00000000E+00  0.00000000E+00  0.00000000E+00
  0.00000000E+00  0.00000000E+00  0.00000000E+00
  0.00000000E+00  0.00000000E+00  0.00000000E+00
  0.00000000E+00  0.00000000E+00  0.00000000E+00
  0.00000000E+00  0.00000000E+00  0.00000000E+00
  0.00000000E+00  0.00000000E+00  0.00000000E+00
  0.00000000E+00  0.00000000E+00  0.00000000E+00
  0.00000000E+00  0.00000000E+00  0.00000000E+00
  0.00000000E+00  0.00000000E+00  0.00000000E+00
  0.00000000E+00  0.00000000E+00  0.00000000E+00
  0.00000000E+00  0.00000000E+00  0.00000000E+00
  0.00000000E+00  0.00000000E+00  0.00000000E+00
  0.00000000E+00  0.00000000E+00  0.00000000E+00
  0.00000000E+00  0.00000000E+00  0.00000000E+00
  0.00000000E+00  0.00000000E+00  0.00000000E+00
  0.00000000E+00  0.00000000E+00  0.00000000E+00
  0.00000000E+00  0.00000000E+00  0.00000000E+00
  0.00000000E+00  0.00000000E+00  0.00000000E+00
  0.00000000E+00  0.00000000E+00  0.00000000E+00
  0.00000000E+00  0.00000000E+00  0.00000000E+00
  0.00000000E+00  0.00000000E+00  0.00000000E+00
  0.00000000E+00  0.00000000E+00  0.00000000E+00
  0.00000000E+00  0.00000000E+00  0.00000000E+00
  0.00000000E+00  0.00000000E+00  0.00000000E+00
  0.00000000E+00  0.00000000E+00  0.00000000E+00
  0.00000000E+00  0.00000000E+00  0.00000000E+00
  0.00000000E+00  0.00000000E+00  0.00000000E+00
  0.00000000E+00  0.00000000E+00  0.00000000E+00
  0.00000000E+00  0.00000000E+00  0.00000000E+00
  0.00000000E+00  0.00000000E+00  0.00000000E+00
  0.00000000E+00  0.00000000E+00  0.00000000E+00
  0.00000000E+00  0.00000000E+00  0.00000000E+00
  0.00000000E+00  0.00000000E+00  0.00000000E+00
  0.00000000E+00  0.00000000E+00  0.00000000E+00
  0.00000000E+00  0.00000000E+00  0.00000000E+00
  0.00000000E+00  0.00000000E+00  0.00000000E+00
  0.00000000E+00  0.00000000E+00  0.00000000E+00
  0.00000000E+00  0.00000000E+00  0.00000000E+00
  0.00000000E+00  0.00000000E+00  0.00000000E+00
  0.00000000E+00  0.00000000E+00  0.00000000E+00
  0.00000000E+00  0.00000000E+00  0.00000000E+00
  0.00000000E+00  0.00000000E+00  0.00000000E+00
  0.00000000E+00  0.00000000E+00  0.00000000E+00
  0.00000000E+00  0.00000000E+00  0.00000000E+00
  0.00000000E+00  0.00000000E+00  0.00000000E+00
  0.00000000E+00  0.00000000E+00  0.00000000E+00
  0.00000000E+00  0.00000000E+00  0.00000000E+00
  0.00000000E+00  0.00000000E+00  0.00000000E+00
  0.00000000E+00  0.00000000E+00  0.00000000E+00
  0.00000000E+00  0.00000000E+00  0.00000000E+00
  0.00000000E+00  0.00000000E+00  0.00000000E+00
  0.00000000E+00  0.00000000E+00  0.00000000E+00
  0.00000000E+00  0.00000000E+00  0.00000000E+00
  0.00000000E+00  0.00000000E+00  0.00000000E+00
  0.00000000E+00  0.00000000E+00  0.00000000E+00
  0.00000000E+00  0.00000000E+00  0.00000000E+00
  0.00000000E+00  0.00000000E+00  0.00000000E+00
  0.00000000E+00  0.00000000E+00  0.00000000E+00
  0.00000000E+00  0.00000000E+00  0.00000000E+00
  0.00000000E+00  0.00000000E+00  0.00000000E+00
  0.00000000E+00  0.00000000E+00  0.00000000E+00
  0.00000000E+00  0.00000000E+00  0.00000000E+00
  0.00000000E+00  0.00000000E+00  0.00000000E+00
  0.00000000E+00  0.00000000E+00  0.00000000E+00
  0.00000000E+00  0.00000000E+00  0.00000000E+00
  0.00000000E+00  0.00000000E+00  0.00000000E+00
  0.00000000E+00  0.00000000E+00  0.00000000E+00
  0.00000000E+00  0.00000000E+00  0.00000000E+00
  0.00000000E+00  0.00000000E+00  0.00000000E+00
  0.00000000E+00  0.00000000E+00  0.00000000E+00
  0.00000000E+00  0.00000000E+00  0.00000000E+00
  0.00000000E+00  0.00000000E+00  0.00000000E+00
  0.00000000E+00  0.00000000E+00  0.00000000E+00
  0.00000000E+00  0.00000000E+00  0.00000000E+00
  0.00000000E+00  0.00000000E+00  0.00000000E+00
  0.00000000E+00  0.00000000E+00  0.00000000E+00
  0.00000000E+00  0.00000000E+00  0.00000000E+00
  0.00000000E+00  0.00000000E+00  0.00000000E+00
  0.00000000E+00  0.00000000E+00  0.00000000E+00
  0.00000000E+00  0.00000000E+00  0.00000000E+00
