I Pb Tl                                 
   1.00000000000000     
    12.6437489999999997  -12.6437489999999997    0.0000000000000000
    12.6437489999999997   12.6437489999999997    0.0000000000000000
     0.0000000000000000    0.0000000000000000   25.2874990000000004
   I    Pb   Tl
    96    32    32
Direct
  0.0926762818014916  0.1510873515976661  0.0346261689104327
  0.1624019565443615  0.1083064122559792  0.2189344556335928
  0.1633972298953079  0.1038868837245563  0.5265048406642046
  0.1178018286266869  0.1212313745247593  0.7378257030579524
  0.5847024953226502  0.1590690738988727  0.0183518325608995
  0.6626985631941043  0.0898750640986815  0.2301781822409935
  0.6682426438549390  0.0914220127239565  0.5237882742713244
  0.5976731723112875  0.1467892187259374  0.7164745050893369
  0.3934382948473842  0.3477491497485501  0.9782516077041817
  0.3520202455884653  0.4154020541967696  0.2741436138447654
  0.3705040352875496  0.3978389335378494  0.4632192930199908
  0.4054815789831115  0.3413435013022444  0.7752756140039309
  0.0806049919132226  0.6600907383205563  0.0183627804823937
  0.1523031578808648  0.6042859998594488  0.2167634381213693
  0.1719433079628319  0.5795795134047900  0.5160321203862075
  0.0969926416441823  0.6353515598372187  0.7248042478702950
  0.8979592788054604  0.3425247228037110  0.9781053050684501
  0.8522557746421711  0.4041627727108298  0.2724623842826616
  0.8626641367459833  0.3930965634313659  0.4622207969273879
  0.8961291270366375  0.3420551808987715  0.7719897307569187
  0.5810038691950025  0.6619175385717539  0.0233064494758974
  0.6562548172787716  0.6093702663507355  0.2183531080740992
  0.6616895117639251  0.6083653515058086  0.5256495053694185
  0.5912956431020843  0.6466726803999170  0.7121406496591213
  0.3911572332648274  0.8489996075565128  0.9735568789312303
  0.3568242087853123  0.8969256605131709  0.2859909433371806
  0.3603633021653181  0.8920707265741853  0.4703545774297276
  0.3539163944474932  0.8837374572366942  0.7607067327415804
  0.8837165863678701  0.8586133933374724  0.9821555775490733
  0.8599237144395435  0.9103708353589650  0.2701489479078146
  0.8702572276144683  0.8966899860484285  0.4550299028004869
  0.8859280430033660  0.8484971158405792  0.7643703053825729
  0.8299325304650382  0.0930150806651626  0.0265334155784161
  0.9083390069428773  0.1465738074715086  0.2198189058986057
  0.9176153223461094  0.1578388443274226  0.5054343337594694
  0.8532181406034194  0.1139974892972906  0.7023900974753448
  0.3432049256526989  0.1080640655540743  0.0318261064998115
  0.4192875088521025  0.1639092200180635  0.2261614719801073
  0.4218630239137353  0.1660777442501927  0.5200501908851076
  0.3558973134909555  0.1154990872350256  0.7141160425576126
  0.1452286419975460  0.4064387308480646  0.9753948181334110
  0.1060176914541803  0.3471166113159339  0.2751120245437875
  0.1138369020346994  0.3533880519967252  0.4643425296250472
  0.1487975865804627  0.4064133452079828  0.7727993630600802
  0.8418788954392483  0.6026980315440820  0.0137903459488959
  0.9033161752386946  0.6445151754741653  0.2175734223046135
  0.9280800335673807  0.6668784719109314  0.5154946613814489
  0.8419074315727871  0.6004162267889892  0.7143430363615463
  0.6352164918777217  0.3975043178576063  0.9722097279462431
  0.6118004872004433  0.3541483247009732  0.2842546858661855
  0.6164305454946777  0.3592910529349422  0.4658995693092692
  0.6507992457400277  0.4078794025364476  0.7659361385327906
  0.3267275660435839  0.5904463876838525  0.0150102699339131
  0.4062409467669911  0.6474099292870142  0.2183113059106431
  0.4174525797451887  0.6632448825053768  0.5127092364954180
  0.3336433829105122  0.5846231968823908  0.7382393198859647
  0.1413932623377644  0.9148776077726516  0.9786467860921336
  0.1033349630904710  0.8419734275643058  0.2723637586199986
  0.1192381508805514  0.8584364007549401  0.4564202770051001
  0.1161878608525659  0.8760396320308032  0.7632657714760860
  0.6343729094047047  0.8976520705838602  0.9721299551614151
  0.6069222660724495  0.8513109579525726  0.2759785298246016
  0.6102592653110002  0.8499697695318090  0.4726066285492542
  0.6400444613527444  0.8991943774080112  0.7692167095744575
  0.0032434025229360  0.9511236415069513  0.1245257633889989
  0.0424938444009541  0.0618848900282154  0.3702117290578383
  0.0154317372989454  0.9759548733000780  0.6201793982943753
  0.9819665563557880  0.0451396955660946  0.8729248123905220
  0.4944552544494666  0.9489950169810940  0.1267488635325875
  0.5278442071317256  0.0533865593158039  0.3767338081031091
  0.5092678498786543  0.9503238394039755  0.6256171668631227
  0.4756115779045456  0.0580284118243081  0.8753927037525278
  0.2525261882892750  0.3059806023000609  0.1292613893242048
  0.2829528660733944  0.1912394771428801  0.3780440256315697
  0.2592977915196714  0.3047375143370196  0.6288678187030836
  0.2146834020871375  0.2086841713187015  0.8790935620645428
  0.9901141103678976  0.4431193630394036  0.1282282728777921
  0.0331643560222597  0.5534464843801604  0.3739095666822421
  0.0121486585205897  0.4438836104380626  0.6222427813616401
  0.9754449124755777  0.5152816666508121  0.8746845457170317
  0.7433195328351984  0.3059674550108221  0.1262218028113986
  0.7752410227284838  0.1979977904516599  0.3716028143782212
  0.7513943400773982  0.3105813492129094  0.6193167040722884
  0.7307050222194333  0.2277305600471656  0.8721818674372024
  0.4895813835391058  0.4489505198560426  0.1271849410566569
  0.5336961024197121  0.5607919384127620  0.3738163138315170
  0.5038485522423299  0.4525677665525505  0.6242555924607234
  0.4805374695880463  0.5527949785059457  0.8769524889661748
  0.2383709766667015  0.8024316799689699  0.1254208165507064
  0.2766918241399151  0.6926311927197768  0.3733073523295491
  0.2182388042075121  0.7855354651163317  0.6219604758616805
  0.2264376201102752  0.7046678927218796  0.8746738534789340
  0.7399392052603887  0.8079714936760467  0.1291284434103572
  0.7839604932624459  0.6885445097141234  0.3733348165385274
  0.7469108846501807  0.8057788017429990  0.6200390080725191
  0.7381338460770673  0.7282434108990095  0.8761595658879099
  0.9875467368318280  0.0068034497577417  0.9994524225452180
  0.0116229460557097  0.0024063814263384  0.2496351483124609
  0.0095910849896510  0.9990034012856508  0.4844569366231730
  0.9782036246673430  0.0050271333043679  0.7456225761998464
  0.4838225141170229  0.9988435725932515  0.9938610135342405
  0.5033313673552309  0.9987721324717672  0.2441263995466497
  0.5210873318586332  0.0054330937420720  0.4991430038215051
  0.4881996711630803  0.0053830788912620  0.7499776704431371
  0.2377426240961653  0.2504145390029162  0.9996670987336096
  0.2687354479190859  0.2505186371683275  0.2507389323240844
  0.2618818709409165  0.2452350825144905  0.4973434889036840
  0.2521351611811453  0.2611642244717481  0.7513727859376113
  0.9925772364564962  0.4913771411624517  0.0043517882402142
  0.0151392284134117  0.4982015283651055  0.2514982411802124
  0.0143087601119012  0.4989447991088005  0.4970355454365092
  0.9799110829146457  0.4967204447163194  0.7407418363179086
  0.7432166250654025  0.2447912111043198  0.0077403249448154
  0.7527707605120809  0.2539703367448114  0.2492084733746106
  0.7591209027908851  0.2545012419307620  0.4984105726777087
  0.7436643385621888  0.2528998570350467  0.7401637307831845
  0.4937884839276895  0.4989001943718809  0.9977229774140195
  0.5055199687303460  0.5000086864363604  0.2498946197163397
  0.5088567089631484  0.5052335020669130  0.4919741315341222
  0.4942090002739546  0.5004342289040788  0.7455447878654611
  0.2405559483687230  0.7444745890207608  0.9992639682022250
  0.2586282505361212  0.7554113141829333  0.2503115674405010
  0.2578343246245710  0.7491318564393727  0.4943472756528916
  0.2433127575775768  0.7419418900987228  0.7491301431674455
  0.7366176227263899  0.7514661215978455  0.0073862902833109
  0.7609788355096949  0.7454693994703845  0.2502790946849549
  0.7706909227361611  0.7464838408885343  0.4928681962096021
  0.7386375531519250  0.7511771195034196  0.7400654951881518
  0.0555980737550784  0.2502679498991733  0.1592058381598494
  0.9644293510934205  0.2588516322378956  0.3915207164931870
  0.0293829670860950  0.1689383569182308  0.6165618902188711
  0.0410581071105739  0.3257178198579321  0.8751773522274910
  0.4451266305978906  0.2518290466486023  0.0990551159271525
  0.4714621757995335  0.2464710583667807  0.3994262381851355
  0.4532868138172399  0.2583224143206125  0.6491838461128607
  0.5400755406725730  0.2487778783687373  0.9018167885580244
  0.3054838505299018  0.5053414961677424  0.1514260025669837
  0.2211618992321718  0.4936732362262065  0.3969311916382312
  0.1955919610381832  0.4954807063009442  0.6505939748774767
  0.2901076280757732  0.5254881461131391  0.8779037087412014
  0.0541070679255491  0.7485923263116686  0.1509082112028651
  0.9711262426001555  0.7480822434193899  0.3943653961062021
  0.0253773987934329  0.7841371260574844  0.6580019030645471
  0.9466163317758205  0.6975761284890603  0.9213781471520054
  0.8043228562947702  0.4952460582193966  0.1540803153839548
  0.7130300961156568  0.4674380566437664  0.3718061296213399
  0.6954903968903405  0.5007686358211172  0.6465908861409166
  0.7841039301232305  0.4140885458635525  0.8761121220794378
  0.5517915747911365  0.7632309406200972  0.1563333172012157
  0.4618919116661822  0.7630621856950205  0.3941407728631652
  0.5609458800454727  0.7563642491840654  0.5903142856679340
  0.5348357020697134  0.7538291697803768  0.9096564558771751
  0.1966937456842333  0.0032999228268373  0.0958297730627002
  0.2361584008611357  0.9810202218759349  0.3823479844051729
  0.2257317727810371  0.9720330683905074  0.6723711103316889
  0.1695294025173025  0.0172234078616332  0.8601414016326504
  0.8067354008196611  0.0035620353887011  0.1527406821536845
  0.7134556508395433  0.0077896939060488  0.3484675946580278
  0.6932318800657856  0.0024589586575797  0.6493803431116396
  0.7728060605293219  0.9163832088505559  0.8733469927159625
 
  0.00000000E+00  0.00000000E+00  0.00000000E+00
  0.00000000E+00  0.00000000E+00  0.00000000E+00
  0.00000000E+00  0.00000000E+00  0.00000000E+00
  0.00000000E+00  0.00000000E+00  0.00000000E+00
  0.00000000E+00  0.00000000E+00  0.00000000E+00
  0.00000000E+00  0.00000000E+00  0.00000000E+00
  0.00000000E+00  0.00000000E+00  0.00000000E+00
  0.00000000E+00  0.00000000E+00  0.00000000E+00
  0.00000000E+00  0.00000000E+00  0.00000000E+00
  0.00000000E+00  0.00000000E+00  0.00000000E+00
  0.00000000E+00  0.00000000E+00  0.00000000E+00
  0.00000000E+00  0.00000000E+00  0.00000000E+00
  0.00000000E+00  0.00000000E+00  0.00000000E+00
  0.00000000E+00  0.00000000E+00  0.00000000E+00
  0.00000000E+00  0.00000000E+00  0.00000000E+00
  0.00000000E+00  0.00000000E+00  0.00000000E+00
  0.00000000E+00  0.00000000E+00  0.00000000E+00
  0.00000000E+00  0.00000000E+00  0.00000000E+00
  0.00000000E+00  0.00000000E+00  0.00000000E+00
  0.00000000E+00  0.00000000E+00  0.00000000E+00
  0.00000000E+00  0.00000000E+00  0.00000000E+00
  0.00000000E+00  0.00000000E+00  0.00000000E+00
  0.00000000E+00  0.00000000E+00  0.00000000E+00
  0.00000000E+00  0.00000000E+00  0.00000000E+00
  0.00000000E+00  0.00000000E+00  0.00000000E+00
  0.00000000E+00  0.00000000E+00  0.00000000E+00
  0.00000000E+00  0.00000000E+00  0.00000000E+00
  0.00000000E+00  0.00000000E+00  0.00000000E+00
  0.00000000E+00  0.00000000E+00  0.00000000E+00
  0.00000000E+00  0.00000000E+00  0.00000000E+00
  0.00000000E+00  0.00000000E+00  0.00000000E+00
  0.00000000E+00  0.00000000E+00  0.00000000E+00
  0.00000000E+00  0.00000000E+00  0.00000000E+00
  0.00000000E+00  0.00000000E+00  0.00000000E+00
  0.00000000E+00  0.00000000E+00  0.00000000E+00
  0.00000000E+00  0.00000000E+00  0.00000000E+00
  0.00000000E+00  0.00000000E+00  0.00000000E+00
  0.00000000E+00  0.00000000E+00  0.00000000E+00
  0.00000000E+00  0.00000000E+00  0.00000000E+00
  0.00000000E+00  0.00000000E+00  0.00000000E+00
  0.00000000E+00  0.00000000E+00  0.00000000E+00
  0.00000000E+00  0.00000000E+00  0.00000000E+00
  0.00000000E+00  0.00000000E+00  0.00000000E+00
  0.00000000E+00  0.00000000E+00  0.00000000E+00
  0.00000000E+00  0.00000000E+00  0.00000000E+00
  0.00000000E+00  0.00000000E+00  0.00000000E+00
  0.00000000E+00  0.00000000E+00  0.00000000E+00
  0.00000000E+00  0.00000000E+00  0.00000000E+00
  0.00000000E+00  0.00000000E+00  0.00000000E+00
  0.00000000E+00  0.00000000E+00  0.00000000E+00
  0.00000000E+00  0.00000000E+00  0.00000000E+00
  0.00000000E+00  0.00000000E+00  0.00000000E+00
  0.00000000E+00  0.00000000E+00  0.00000000E+00
  0.00000000E+00  0.00000000E+00  0.00000000E+00
  0.00000000E+00  0.00000000E+00  0.00000000E+00
  0.00000000E+00  0.00000000E+00  0.00000000E+00
  0.00000000E+00  0.00000000E+00  0.00000000E+00
  0.00000000E+00  0.00000000E+00  0.00000000E+00
  0.00000000E+00  0.00000000E+00  0.00000000E+00
  0.00000000E+00  0.00000000E+00  0.00000000E+00
  0.00000000E+00  0.00000000E+00  0.00000000E+00
  0.00000000E+00  0.00000000E+00  0.00000000E+00
  0.00000000E+00  0.00000000E+00  0.00000000E+00
  0.00000000E+00  0.00000000E+00  0.00000000E+00
  0.00000000E+00  0.00000000E+00  0.00000000E+00
  0.00000000E+00  0.00000000E+00  0.00000000E+00
  0.00000000E+00  0.00000000E+00  0.00000000E+00
  0.00000000E+00  0.00000000E+00  0.00000000E+00
  0.00000000E+00  0.00000000E+00  0.00000000E+00
  0.00000000E+00  0.00000000E+00  0.00000000E+00
  0.00000000E+00  0.00000000E+00  0.00000000E+00
  0.00000000E+00  0.00000000E+00  0.00000000E+00
  0.00000000E+00  0.00000000E+00  0.00000000E+00
  0.00000000E+00  0.00000000E+00  0.00000000E+00
  0.00000000E+00  0.00000000E+00  0.00000000E+00
  0.00000000E+00  0.00000000E+00  0.00000000E+00
  0.00000000E+00  0.00000000E+00  0.00000000E+00
  0.00000000E+00  0.00000000E+00  0.00000000E+00
  0.00000000E+00  0.00000000E+00  0.00000000E+00
  0.00000000E+00  0.00000000E+00  0.00000000E+00
  0.00000000E+00  0.00000000E+00  0.00000000E+00
  0.00000000E+00  0.00000000E+00  0.00000000E+00
  0.00000000E+00  0.00000000E+00  0.00000000E+00
  0.00000000E+00  0.00000000E+00  0.00000000E+00
  0.00000000E+00  0.00000000E+00  0.00000000E+00
  0.00000000E+00  0.00000000E+00  0.00000000E+00
  0.00000000E+00  0.00000000E+00  0.00000000E+00
  0.00000000E+00  0.00000000E+00  0.00000000E+00
  0.00000000E+00  0.00000000E+00  0.00000000E+00
  0.00000000E+00  0.00000000E+00  0.00000000E+00
  0.00000000E+00  0.00000000E+00  0.00000000E+00
  0.00000000E+00  0.00000000E+00  0.00000000E+00
  0.00000000E+00  0.00000000E+00  0.00000000E+00
  0.00000000E+00  0.00000000E+00  0.00000000E+00
  0.00000000E+00  0.00000000E+00  0.00000000E+00
  0.00000000E+00  0.00000000E+00  0.00000000E+00
  0.00000000E+00  0.00000000E+00  0.00000000E+00
  0.00000000E+00  0.00000000E+00  0.00000000E+00
  0.00000000E+00  0.00000000E+00  0.00000000E+00
  0.00000000E+00  0.00000000E+00  0.00000000E+00
  0.00000000E+00  0.00000000E+00  0.00000000E+00
  0.00000000E+00  0.00000000E+00  0.00000000E+00
  0.00000000E+00  0.00000000E+00  0.00000000E+00
  0.00000000E+00  0.00000000E+00  0.00000000E+00
  0.00000000E+00  0.00000000E+00  0.00000000E+00
  0.00000000E+00  0.00000000E+00  0.00000000E+00
  0.00000000E+00  0.00000000E+00  0.00000000E+00
  0.00000000E+00  0.00000000E+00  0.00000000E+00
  0.00000000E+00  0.00000000E+00  0.00000000E+00
  0.00000000E+00  0.00000000E+00  0.00000000E+00
  0.00000000E+00  0.00000000E+00  0.00000000E+00
  0.00000000E+00  0.00000000E+00  0.00000000E+00
  0.00000000E+00  0.00000000E+00  0.00000000E+00
  0.00000000E+00  0.00000000E+00  0.00000000E+00
  0.00000000E+00  0.00000000E+00  0.00000000E+00
  0.00000000E+00  0.00000000E+00  0.00000000E+00
  0.00000000E+00  0.00000000E+00  0.00000000E+00
  0.00000000E+00  0.00000000E+00  0.00000000E+00
  0.00000000E+00  0.00000000E+00  0.00000000E+00
  0.00000000E+00  0.00000000E+00  0.00000000E+00
  0.00000000E+00  0.00000000E+00  0.00000000E+00
  0.00000000E+00  0.00000000E+00  0.00000000E+00
  0.00000000E+00  0.00000000E+00  0.00000000E+00
  0.00000000E+00  0.00000000E+00  0.00000000E+00
  0.00000000E+00  0.00000000E+00  0.00000000E+00
  0.00000000E+00  0.00000000E+00  0.00000000E+00
  0.00000000E+00  0.00000000E+00  0.00000000E+00
  0.00000000E+00  0.00000000E+00  0.00000000E+00
  0.00000000E+00  0.00000000E+00  0.00000000E+00
  0.00000000E+00  0.00000000E+00  0.00000000E+00
  0.00000000E+00  0.00000000E+00  0.00000000E+00
  0.00000000E+00  0.00000000E+00  0.00000000E+00
  0.00000000E+00  0.00000000E+00  0.00000000E+00
  0.00000000E+00  0.00000000E+00  0.00000000E+00
  0.00000000E+00  0.00000000E+00  0.00000000E+00
  0.00000000E+00  0.00000000E+00  0.00000000E+00
  0.00000000E+00  0.00000000E+00  0.00000000E+00
  0.00000000E+00  0.00000000E+00  0.00000000E+00
  0.00000000E+00  0.00000000E+00  0.00000000E+00
  0.00000000E+00  0.00000000E+00  0.00000000E+00
  0.00000000E+00  0.00000000E+00  0.00000000E+00
  0.00000000E+00  0.00000000E+00  0.00000000E+00
  0.00000000E+00  0.00000000E+00  0.00000000E+00
  0.00000000E+00  0.00000000E+00  0.00000000E+00
  0.00000000E+00  0.00000000E+00  0.00000000E+00
  0.00000000E+00  0.00000000E+00  0.00000000E+00
  0.00000000E+00  0.00000000E+00  0.00000000E+00
  0.00000000E+00  0.00000000E+00  0.00000000E+00
  0.00000000E+00  0.00000000E+00  0.00000000E+00
  0.00000000E+00  0.00000000E+00  0.00000000E+00
  0.00000000E+00  0.00000000E+00  0.00000000E+00
  0.00000000E+00  0.00000000E+00  0.00000000E+00
  0.00000000E+00  0.00000000E+00  0.00000000E+00
  0.00000000E+00  0.00000000E+00  0.00000000E+00
  0.00000000E+00  0.00000000E+00  0.00000000E+00
  0.00000000E+00  0.00000000E+00  0.00000000E+00
  0.00000000E+00  0.00000000E+00  0.00000000E+00
  0.00000000E+00  0.00000000E+00  0.00000000E+00
  0.00000000E+00  0.00000000E+00  0.00000000E+00
  0.00000000E+00  0.00000000E+00  0.00000000E+00
