Cs Mg F                                 
   1.00000000000000     
     8.4961570000000002   -8.4961570000000002    0.0000000000000000
     8.4961570000000002    8.4961570000000002    0.0000000000000000
     0.0000000000000000    0.0000000000000000   16.9923150000000014
   Cs   F    Mg
    32    96    32
Direct
  0.0001814615922755 -0.0003199744680014 -0.0004155008925944
  0.0002868196471632 -0.0001776920808639  0.2494466077828897
  0.0002925356195715 -0.0005078201739880  0.4995903891400456
  0.0001864938242098 -0.0007413238103113  0.7496929910767810
  0.5002381594234458  0.0000321420303808 -0.0004424350090859
  0.5002710782410479  0.0001465604528659  0.2495608808700108
  0.5002763684337482  0.9995974346950106  0.4995031184076613
  0.5001771855096802 -0.0004209317932585  0.7495783527411202
  0.2508411067069076  0.2498397465368644  0.9995256165977233
  0.2508522911048306  0.2499744851245807  0.2495202150055402
  0.2507398012506725  0.2493917959810711  0.4995561837133046
  0.2505847047746895  0.2493152743482225  0.7495980336862990
  0.0007700522679298  0.4995905511271906 -0.0003823872363412
  0.0009428870559343  0.4998013660288660  0.2494554589786657
  0.0007099111337575  0.4993558392419771  0.4995057987585186
  0.0005778180871718  0.4992882783425911  0.7495911096131765
  0.7506341343965400  0.2498940200431678 -0.0004281272871965
  0.7509293797867991  0.2499749785842836  0.2495295148017073
  0.7507263851313989  0.2495613227814454  0.4994759315346579
  0.7506296779286045  0.2494807085833701  0.7494882644106682
  0.5008002817683731  0.5000759720598535 -0.0004730558155871
  0.5009208107004717  0.5001521911181187  0.2494911021955118
  0.5007217702101989  0.4995943223522837  0.4995185311795979
  0.5005950149621919  0.4995183043502454  0.7495421226743845
  0.2502099212561405  0.7498859190743643 -0.0004699184488853
  0.2502726289323112  0.7498953409619561  0.2495530363633873
  0.2502624555621686  0.7494360446188530  0.4995557604298212
  0.2502529134050437  0.7492866059150489  0.7495694747638478
  0.7501991884202250  0.7499229853697540 -0.0003581674786998
  0.7502938454277233  0.7499699890507181  0.2494847300408779
  0.7503444975386668  0.7495905458888942  0.4993973338548801
  0.7502307882223583  0.7495444339133900  0.7495834559918120
  0.0006978087170529  0.2495123796708038  0.9995599133181449
  0.0009670569157252  0.2497383474981330  0.2495069749893095
  0.0007670803114104  0.2494016933442465  0.4996018863459535
  0.0005327813594942  0.2492784411139330  0.7495545741157903
  0.5008412028755330  0.2500430200376028 -0.0004535037467867
  0.5009026772706842  0.2501672214158496  0.2495338240805061
  0.5007692789769087  0.2495807649988438  0.4994875825384839
  0.5006946527402319  0.2495856966097183  0.7495522877516699
  0.2507385018358620  0.4999283525424608 -0.0003915636502513
  0.2510673815621121  0.4998997232838235  0.2495058301769260
  0.2507846805255209  0.4993738181349386  0.4996003366684675
  0.2506533173629706  0.4993518485565116  0.7496065616319143
  0.0002888694084385  0.7495395791302885 -0.0003479653757091
  0.0003412713093559  0.7498297596273586  0.2495215130733301
  0.0003560804118340  0.7493654903558687  0.4995384159435184
  0.0000899512607561  0.7491916220308534  0.7496759599714488
  0.7507880754966363  0.4998719528616236 -0.0004267253523842
  0.7509391642561484  0.4999303153248069  0.2495208170174711
  0.7507357291223804  0.4995370802616185  0.4994689771469907
  0.7506639295230662  0.4995885195792891  0.7495970599873298
  0.5002227068147369  0.7501155606244295 -0.0003941133310148
  0.5002643139995417  0.7502618090231331  0.2495816594672060
  0.5003818861573092  0.7495924903242377  0.4994466004695753
  0.5003113853347558  0.7494629258350478  0.7496286156502578
  0.2502441030424539 -0.0002408300403483 -0.0003965531683337
  0.2502534107921014  0.0000259107711600  0.2494863197688588
  0.2503494648822063 -0.0006707218401683  0.4996090448726466
  0.2501469451775866  0.9992081506730619  0.7496023501281044
  0.7501764555502693 -0.0000735075645489 -0.0003599964918798
  0.7504080044348005  0.0000179616870580  0.2496063119823550
  0.7502950912950751 -0.0004979197785386  0.4995454403384903
  0.7502418812827506  0.9993586658207265  0.7496480256563565
  0.1255575763208613  0.1249577355404382  0.1244708418929311
  0.1254014227366840  0.1246235811924051  0.3745974545371224
  0.1254184037059970  0.1242656982440750  0.6246698080794665
  0.1254609479597769  0.1244445837924679  0.8746229647726013
  0.6254675836496818  0.1250867259380083  0.1246151275147564
  0.6254957939209267  0.1250117800828273  0.3744887700173289
  0.6253224865892308  0.1243150082619228  0.6245495982248670
  0.6254456291522418  0.1248224097247139  0.8745399600750616
  0.3759004446118425  0.3751444385200960  0.1244983987720871
  0.3759133624389902  0.3748267130998689  0.3745241066515557
  0.3755275607272665  0.3742618008485352  0.6246268793629145
  0.3756057145562260  0.3747245571984012  0.8746280918552528
  0.1255776608690269  0.6248744972356335  0.1246326605420569
  0.1255518551103537  0.6245395999512748  0.3745163542101973
  0.1252854865533106  0.6242630009281158  0.6246230863998001
  0.1254487201827076  0.6243420965794599  0.8746010818622177
  0.8758794100533186  0.3748487275606626  0.1245340423549586
  0.8759670368948250  0.3747520032137044  0.3744317876384778
  0.8755575105799712  0.3743900287133803  0.6245442217233148
  0.8756427230395173  0.3745637243066866  0.8745946708476298
  0.6254712635868681  0.6251440076764307  0.1245711731139765
  0.6255260788042386  0.6249251787681772  0.3744304396954538
  0.6254195455031983  0.6244444558961035  0.6245076750390887
  0.6254777611889049  0.6248673273965043  0.8746243299930103
  0.3752700679645385  0.8751084813555817  0.1245991551142588
  0.3751790916498991  0.8748702263020395  0.3744862070056715
  0.3752103049617427  0.8743024762328953  0.6245906219313275
  0.3750999432735921  0.8747823032449363  0.8745970978121552
  0.8752214711594152  0.8748636718547146  0.1245210767992965
  0.8752900723239245  0.8747721126834891  0.3745421846555452
  0.8751853526195734  0.8743311779331194  0.6245258180591655
  0.8750028320649544  0.8745274034232670  0.8747257630678171
  0.8754096885258110  0.1248972993329759  0.1245678323867609
  0.8755529620619005  0.1247457398009323  0.3745517616010302
  0.8753392184569720  0.1243168167020054  0.6245426538445520
  0.8753397489079325  0.1245781282266676  0.8746323413376481
  0.3755177124976209  0.1251777452017997  0.1245340836526034
  0.3754118316795298  0.1248241156742079  0.3745322877754765
  0.3754132295375560  0.1243735250691638  0.6245376415744643
  0.3754365615903607  0.1246818010716101  0.8745376279523536
  0.1258772306138445  0.3748684679096781  0.1245024305886039
  0.1259044075968641  0.3746437228669431  0.3745215736876057
  0.1255830354936527  0.3743175027619343  0.6246223615280334
  0.1255895426977597  0.3744434575594620  0.8746407818541762
  0.8755088937729771  0.6248730884295504  0.1245285688125273
  0.8755833244997794  0.6247861162712978  0.3744585146959675
  0.8753016096457579  0.6244503445218538  0.6244956840849930
  0.8754336310616875  0.6245539774819138  0.8747240846062024
  0.6258700036201277  0.3751457806924042  0.1245751150465606
  0.6259374431500971  0.3749578221872763  0.3745277811671922
  0.6256038613655437  0.3744201283600031  0.6245235411965152
  0.6256865074920902  0.3748107298444244  0.8745570040111291
  0.3755926699856327  0.6251865206432026  0.1245072531118592
  0.3755433240100576  0.6248255274626867  0.3745077481649538
  0.3753919361178970  0.6243511392641063  0.6245090286912077
  0.3754551806441771  0.6246978060179786  0.8745810219582182
  0.1252566580758558  0.8748278906919762  0.1246013205939471
  0.1251765366019453  0.8746671219034656  0.3745170220186121
  0.1250844944710388  0.8742890820527078  0.6246577379688818
  0.1250169337474246  0.8743920251928744  0.8746233719662712
  0.6252214134488918  0.8751298851812731  0.1246624614005717
  0.6252659460148738  0.8750098893850914  0.3744885210417921
  0.6252176812370998  0.8743421900630785  0.6246200639465707
  0.6250825397341090  0.8747969661991201  0.8746446878429234
  0.0008603956740545  0.2498551116801926  0.1245642365161575
  0.0008896142736628  0.2496852640702608  0.3745513748935690
  0.0005629156067306  0.2492286676094658  0.6246265259237930
  0.0005300316787672  0.2494607097777208  0.8746787605348187
  0.5008171271137988  0.2501412385359858  0.1246045031414080
  0.5008145326918139  0.2499076107816007  0.3745656459852540
  0.5005837290030032  0.2493542684435092  0.6245917892648820
  0.5007775173649133  0.2497500106533220  0.8745798324347046
  0.2509073123525524  0.5000061026247999  0.1245746791889841
  0.2509128153325530  0.4997016850117065  0.3745770418407822
  0.2505104769303141  0.4992345515564645  0.6245860429903420
  0.2506420268291753  0.4995986728996708  0.8746426955147533
  0.0004340316388942  0.7498327250323041  0.1246372535164362
  0.0003745805948434  0.7496409900728439  0.3746057748227486
  0.0001579864476228  0.7492430007908946  0.6246146840247090
  0.0002076780742317  0.7493675436477123  0.8747106425763683
  0.7508458895307920  0.4999472430072028  0.1245564868425218
  0.7508379984826994  0.4998278927556552  0.3744812966549977
  0.7505938018626525  0.4995017656960485  0.6245574506156722
  0.7507431990502563  0.4997427274748645  0.8746286763696213
  0.5003027388061974  0.7501870160898297  0.1246223120179508
  0.5004264866694873  0.7499197491404500  0.3745570696472729
  0.5003169532854357  0.7493716016708599  0.6246184187136502
  0.5003404190808726  0.7497953079129868  0.8746410501533859
  0.2503673076758121  0.0000512825059038  0.1245909370264001
  0.2502770999818030 -0.0003199644904372  0.3745705460171018
  0.2502402604338985  0.9991715087065044  0.6246542857218850
  0.2502442658061120 -0.0005156874394065  0.8746524431930870
  0.7503031533941859  0.0000510776527679  0.1246317019682629
  0.7504995457767706 -0.0002060924218813  0.3745648490572774
  0.7502187646565628 -0.0007536793442592  0.6245803597870553
  0.7502299624611102  0.9996596720081012  0.8746553888933216
 
  0.00000000E+00  0.00000000E+00  0.00000000E+00
  0.00000000E+00  0.00000000E+00  0.00000000E+00
  0.00000000E+00  0.00000000E+00  0.00000000E+00
  0.00000000E+00  0.00000000E+00  0.00000000E+00
  0.00000000E+00  0.00000000E+00  0.00000000E+00
  0.00000000E+00  0.00000000E+00  0.00000000E+00
  0.00000000E+00  0.00000000E+00  0.00000000E+00
  0.00000000E+00  0.00000000E+00  0.00000000E+00
  0.00000000E+00  0.00000000E+00  0.00000000E+00
  0.00000000E+00  0.00000000E+00  0.00000000E+00
  0.00000000E+00  0.00000000E+00  0.00000000E+00
  0.00000000E+00  0.00000000E+00  0.00000000E+00
  0.00000000E+00  0.00000000E+00  0.00000000E+00
  0.00000000E+00  0.00000000E+00  0.00000000E+00
  0.00000000E+00  0.00000000E+00  0.00000000E+00
  0.00000000E+00  0.00000000E+00  0.00000000E+00
  0.00000000E+00  0.00000000E+00  0.00000000E+00
  0.00000000E+00  0.00000000E+00  0.00000000E+00
  0.00000000E+00  0.00000000E+00  0.00000000E+00
  0.00000000E+00  0.00000000E+00  0.00000000E+00
  0.00000000E+00  0.00000000E+00  0.00000000E+00
  0.00000000E+00  0.00000000E+00  0.00000000E+00
  0.00000000E+00  0.00000000E+00  0.00000000E+00
  0.00000000E+00  0.00000000E+00  0.00000000E+00
  0.00000000E+00  0.00000000E+00  0.00000000E+00
  0.00000000E+00  0.00000000E+00  0.00000000E+00
  0.00000000E+00  0.00000000E+00  0.00000000E+00
  0.00000000E+00  0.00000000E+00  0.00000000E+00
  0.00000000E+00  0.00000000E+00  0.00000000E+00
  0.00000000E+00  0.00000000E+00  0.00000000E+00
  0.00000000E+00  0.00000000E+00  0.00000000E+00
  0.00000000E+00  0.00000000E+00  0.00000000E+00
  0.00000000E+00  0.00000000E+00  0.00000000E+00
  0.00000000E+00  0.00000000E+00  0.00000000E+00
  0.00000000E+00  0.00000000E+00  0.00000000E+00
  0.00000000E+00  0.00000000E+00  0.00000000E+00
  0.00000000E+00  0.00000000E+00  0.00000000E+00
  0.00000000E+00  0.00000000E+00  0.00000000E+00
  0.00000000E+00  0.00000000E+00  0.00000000E+00
  0.00000000E+00  0.00000000E+00  0.00000000E+00
  0.00000000E+00  0.00000000E+00  0.00000000E+00
  0.00000000E+00  0.00000000E+00  0.00000000E+00
  0.00000000E+00  0.00000000E+00  0.00000000E+00
  0.00000000E+00  0.00000000E+00  0.00000000E+00
  0.00000000E+00  0.00000000E+00  0.00000000E+00
  0.00000000E+00  0.00000000E+00  0.00000000E+00
  0.00000000E+00  0.00000000E+00  0.00000000E+00
  0.00000000E+00  0.00000000E+00  0.00000000E+00
  0.00000000E+00  0.00000000E+00  0.00000000E+00
  0.00000000E+00  0.00000000E+00  0.00000000E+00
  0.00000000E+00  0.00000000E+00  0.00000000E+00
  0.00000000E+00  0.00000000E+00  0.00000000E+00
  0.00000000E+00  0.00000000E+00  0.00000000E+00
  0.00000000E+00  0.00000000E+00  0.00000000E+00
  0.00000000E+00  0.00000000E+00  0.00000000E+00
  0.00000000E+00  0.00000000E+00  0.00000000E+00
  0.00000000E+00  0.00000000E+00  0.00000000E+00
  0.00000000E+00  0.00000000E+00  0.00000000E+00
  0.00000000E+00  0.00000000E+00  0.00000000E+00
  0.00000000E+00  0.00000000E+00  0.00000000E+00
  0.00000000E+00  0.00000000E+00  0.00000000E+00
  0.00000000E+00  0.00000000E+00  0.00000000E+00
  0.00000000E+00  0.00000000E+00  0.00000000E+00
  0.00000000E+00  0.00000000E+00  0.00000000E+00
  0.00000000E+00  0.00000000E+00  0.00000000E+00
  0.00000000E+00  0.00000000E+00  0.00000000E+00
  0.00000000E+00  0.00000000E+00  0.00000000E+00
  0.00000000E+00  0.00000000E+00  0.00000000E+00
  0.00000000E+00  0.00000000E+00  0.00000000E+00
  0.00000000E+00  0.00000000E+00  0.00000000E+00
  0.00000000E+00  0.00000000E+00  0.00000000E+00
  0.00000000E+00  0.00000000E+00  0.00000000E+00
  0.00000000E+00  0.00000000E+00  0.00000000E+00
  0.00000000E+00  0.00000000E+00  0.00000000E+00
  0.00000000E+00  0.00000000E+00  0.00000000E+00
  0.00000000E+00  0.00000000E+00  0.00000000E+00
  0.00000000E+00  0.00000000E+00  0.00000000E+00
  0.00000000E+00  0.00000000E+00  0.00000000E+00
  0.00000000E+00  0.00000000E+00  0.00000000E+00
  0.00000000E+00  0.00000000E+00  0.00000000E+00
  0.00000000E+00  0.00000000E+00  0.00000000E+00
  0.00000000E+00  0.00000000E+00  0.00000000E+00
  0.00000000E+00  0.00000000E+00  0.00000000E+00
  0.00000000E+00  0.00000000E+00  0.00000000E+00
  0.00000000E+00  0.00000000E+00  0.00000000E+00
  0.00000000E+00  0.00000000E+00  0.00000000E+00
  0.00000000E+00  0.00000000E+00  0.00000000E+00
  0.00000000E+00  0.00000000E+00  0.00000000E+00
  0.00000000E+00  0.00000000E+00  0.00000000E+00
  0.00000000E+00  0.00000000E+00  0.00000000E+00
  0.00000000E+00  0.00000000E+00  0.00000000E+00
  0.00000000E+00  0.00000000E+00  0.00000000E+00
  0.00000000E+00  0.00000000E+00  0.00000000E+00
  0.00000000E+00  0.00000000E+00  0.00000000E+00
  0.00000000E+00  0.00000000E+00  0.00000000E+00
  0.00000000E+00  0.00000000E+00  0.00000000E+00
  0.00000000E+00  0.00000000E+00  0.00000000E+00
  0.00000000E+00  0.00000000E+00  0.00000000E+00
  0.00000000E+00  0.00000000E+00  0.00000000E+00
  0.00000000E+00  0.00000000E+00  0.00000000E+00
  0.00000000E+00  0.00000000E+00  0.00000000E+00
  0.00000000E+00  0.00000000E+00  0.00000000E+00
  0.00000000E+00  0.00000000E+00  0.00000000E+00
  0.00000000E+00  0.00000000E+00  0.00000000E+00
  0.00000000E+00  0.00000000E+00  0.00000000E+00
  0.00000000E+00  0.00000000E+00  0.00000000E+00
  0.00000000E+00  0.00000000E+00  0.00000000E+00
  0.00000000E+00  0.00000000E+00  0.00000000E+00
  0.00000000E+00  0.00000000E+00  0.00000000E+00
  0.00000000E+00  0.00000000E+00  0.00000000E+00
  0.00000000E+00  0.00000000E+00  0.00000000E+00
  0.00000000E+00  0.00000000E+00  0.00000000E+00
  0.00000000E+00  0.00000000E+00  0.00000000E+00
  0.00000000E+00  0.00000000E+00  0.00000000E+00
  0.00000000E+00  0.00000000E+00  0.00000000E+00
  0.00000000E+00  0.00000000E+00  0.00000000E+00
  0.00000000E+00  0.00000000E+00  0.00000000E+00
  0.00000000E+00  0.00000000E+00  0.00000000E+00
  0.00000000E+00  0.00000000E+00  0.00000000E+00
  0.00000000E+00  0.00000000E+00  0.00000000E+00
  0.00000000E+00  0.00000000E+00  0.00000000E+00
  0.00000000E+00  0.00000000E+00  0.00000000E+00
  0.00000000E+00  0.00000000E+00  0.00000000E+00
  0.00000000E+00  0.00000000E+00  0.00000000E+00
  0.00000000E+00  0.00000000E+00  0.00000000E+00
  0.00000000E+00  0.00000000E+00  0.00000000E+00
  0.00000000E+00  0.00000000E+00  0.00000000E+00
  0.00000000E+00  0.00000000E+00  0.00000000E+00
  0.00000000E+00  0.00000000E+00  0.00000000E+00
  0.00000000E+00  0.00000000E+00  0.00000000E+00
  0.00000000E+00  0.00000000E+00  0.00000000E+00
  0.00000000E+00  0.00000000E+00  0.00000000E+00
  0.00000000E+00  0.00000000E+00  0.00000000E+00
  0.00000000E+00  0.00000000E+00  0.00000000E+00
  0.00000000E+00  0.00000000E+00  0.00000000E+00
  0.00000000E+00  0.00000000E+00  0.00000000E+00
  0.00000000E+00  0.00000000E+00  0.00000000E+00
  0.00000000E+00  0.00000000E+00  0.00000000E+00
  0.00000000E+00  0.00000000E+00  0.00000000E+00
  0.00000000E+00  0.00000000E+00  0.00000000E+00
  0.00000000E+00  0.00000000E+00  0.00000000E+00
  0.00000000E+00  0.00000000E+00  0.00000000E+00
  0.00000000E+00  0.00000000E+00  0.00000000E+00
  0.00000000E+00  0.00000000E+00  0.00000000E+00
  0.00000000E+00  0.00000000E+00  0.00000000E+00
  0.00000000E+00  0.00000000E+00  0.00000000E+00
  0.00000000E+00  0.00000000E+00  0.00000000E+00
  0.00000000E+00  0.00000000E+00  0.00000000E+00
  0.00000000E+00  0.00000000E+00  0.00000000E+00
  0.00000000E+00  0.00000000E+00  0.00000000E+00
  0.00000000E+00  0.00000000E+00  0.00000000E+00
  0.00000000E+00  0.00000000E+00  0.00000000E+00
  0.00000000E+00  0.00000000E+00  0.00000000E+00
  0.00000000E+00  0.00000000E+00  0.00000000E+00
  0.00000000E+00  0.00000000E+00  0.00000000E+00
  0.00000000E+00  0.00000000E+00  0.00000000E+00
  0.00000000E+00  0.00000000E+00  0.00000000E+00
  0.00000000E+00  0.00000000E+00  0.00000000E+00
  0.00000000E+00  0.00000000E+00  0.00000000E+00
  0.00000000E+00  0.00000000E+00  0.00000000E+00
