I Ge Rb                                 
   1.00000000000000     
    11.9069500000000001  -11.9069500000000001    0.0000000000000000
    11.9069500000000001   11.9069500000000001    0.0000000000000000
     0.0000000000000000    0.0000000000000000   23.8139000000000003
   Ge   I    Rb
    32    96    32
Direct
  0.9888130314800536  0.9826619777970055  0.9946886735100218
  0.0092476759920872  0.9869154121568469  0.2424162881628858
  0.0098084748428238  0.0080527084437227  0.4878654955384858
  0.9962273805996248  0.0128708219361972  0.7434998042762533
  0.4878551626972750  0.9944506031577870  0.0045509964973565
  0.5010786186857963  0.9913868886525334  0.2585073397730563
  0.5091819263082593  0.9849574231695710  0.5014165418278166
  0.5109748081884518  0.9878244406243201  0.7592782974102968
  0.2393491652825353  0.2402915322760962  0.9864532532913399
  0.2435071617368990  0.2328140615280962  0.2417443777070870
  0.2679237214943984  0.2514874886602568  0.4936521240471733
  0.2553280887283436  0.2427770667531481  0.7378812735512661
  0.9873080484197438  0.5066870317552941  0.9956423122795830
  0.0008982761488895  0.4835286269951092  0.2459408708091458
  0.0046315156186751  0.4950707199087174  0.4946948441608329
  0.0112150849380115  0.4795433934332440  0.7500755335655598
  0.7541356084485218  0.2296418621693576  0.9978533806226813
  0.7424185314963404  0.2394819924296772  0.2386305360518582
  0.7453737024988375  0.2371780839026109  0.4954971896913349
  0.7399686935121750  0.2590311722055613  0.7437915559752353
  0.4896011047234954  0.4814449425379120  0.9928947983482658
  0.5108774865075142  0.4860455358468544  0.2423077188459830
  0.5122002403735751  0.5080016461021857  0.4909630294973908
  0.4969280172820255  0.5128160187066860  0.7437327218443580
  0.2561898799058145  0.7379466481429190  0.0129585775816911
  0.2434634672196372  0.7346353365620006  0.2519706200540062
  0.2450685758105609  0.7414042735172741  0.5095849112851061
  0.2391015713710948  0.7492282282121974  0.7592525807123945
  0.7390718926105642  0.7383393410070577  0.9892098503903665
  0.7447334622559719  0.7350477256899075  0.2447541407017840
  0.7710782524658315  0.7505281208965473  0.4964554885592676
  0.7535701050656120  0.7432173002510868  0.7398294271406138
  0.1468993503524519  0.1031271539774695  0.9722417236525771
  0.1079520033857763  0.1490939913453276  0.2759002793587528
  0.0937362337525172  0.1513501781323237  0.4863600347871272
  0.0990339504260191  0.1384037816915830  0.7709818279706941
  0.6538399785722407  0.1028097962300654  0.0254869803041195
  0.6020907114125673  0.1521217523000089  0.2282155018789349
  0.5999636547867633  0.1592090765776204  0.4990502248412096
  0.6125333275224414  0.1528514654947537  0.7317202077467503
  0.3598623950190859  0.3883679372376952  0.0260229582711080
  0.4052301640145119  0.3564820105591582  0.2302069146262894
  0.3872495135986431  0.3587863858808235  0.5232438247530536
  0.3871224518020706  0.3464927925895514  0.7252784530283684
  0.1546152205050168  0.6074355115699281  0.0314207651338112
  0.1018208509091641  0.6516916211314080  0.2378474585365956
  0.0999012787728257  0.6623799996734111  0.5076367208535714
  0.1098505362293109  0.6492428352020180  0.7397728798101632
  0.8572634045661267  0.4045555950304917  0.9801826867067316
  0.8924882813980084  0.3618913628712419  0.2682190295796503
  0.8943352225662774  0.3694017239306788  0.4934693210646021
  0.9046270439204078  0.3563505643266267  0.7735500352851334
  0.6500126690586266  0.5992560504519100  0.9766165212255514
  0.6113481229808152  0.6470481709067774  0.2768700240743059
  0.5981121369814382  0.6494946282413689  0.4885131176441519
  0.5988072715585726  0.6386912013123074  0.7726610959690093
  0.3569294862541366  0.8989942848118341  0.9762262893460609
  0.3938621399871058  0.8646319790228112  0.2698703209078948
  0.3927518605418494  0.8671792701178106  0.4886211413025238
  0.4075567822140832  0.8573008164064038  0.7676444131194333
  0.8592254605272279  0.8892879656155247  0.0270765423537640
  0.9042620486278532  0.8571597713831310  0.2304475442643682
  0.8870597004837577  0.8614686194724741  0.5247389833934970
  0.8828004982213045  0.8513499187951348  0.7314055615064210
  0.8966094997130341  0.1505328583136611  0.0197828613530777
  0.8455067811116569  0.1065565682074356  0.2306581941175200
  0.8390751854960627  0.1043958904851106  0.5192137062167006
  0.8593868815072434  0.1049594197835410  0.7299186424183854
  0.4013917911487449  0.1362367717923348  0.0191059845117245
  0.3426028627446546  0.1017600302505806  0.2284356453712222
  0.3540705694223304  0.1101270552122551  0.5104326354303043
  0.3520100431952441  0.1043979243233935  0.7262468090330225
  0.1112168448550750  0.3479205945222578  0.9799894487508154
  0.1402261681843513  0.3973326050556976  0.2714902225951322
  0.1441787497655320  0.4011860778362807  0.4867156110036313
  0.1508045999386729  0.3976503972582919  0.7724400266493519
  0.8999808506511222  0.6406356485085244  0.0268474967506840
  0.8473894688504662  0.6054132472045648  0.2345571140906153
  0.8600586743618559  0.6129640890738625  0.5220949278248945
  0.8551309589874784  0.6097003225488272  0.7279232108283431
  0.5998095331000075  0.3572951356876816  0.9790032185683044
  0.6462451743040482  0.4004153025280056  0.2718643789811094
  0.6456702912866970  0.4106784105459892  0.4806019926789792
  0.6496739663238043  0.3952829059181426  0.7702192633731071
  0.3968861462041868  0.6507524496589528  0.0224534466954023
  0.3486941254246324  0.6052337626558449  0.2360481162390292
  0.3404836718401012  0.6066519653978142  0.5218355628443349
  0.3589200046037613  0.6048614768226022  0.7293308200066317
  0.1009404179198766  0.8584054908505090  0.9826190128616622
  0.1458523066672694  0.9007220085943016  0.2685998040193385
  0.1449796528256670  0.9116371856618316  0.4767050213819800
  0.1492468467757019  0.8904352592448739  0.7700707402385675
  0.6086152762457986  0.8432996748976472  0.9787002499164766
  0.6385161226699707  0.8979255558639716  0.2729540583255429
  0.6423374657788772  0.8929126397340914  0.4784172109041899
  0.6509198103297736  0.9022700006995115  0.7701391623644669
  0.0431517838034825  0.0082402982378996  0.1272337255813919
  0.9642719150849310  0.0023745299065932  0.3753929149066832
  0.0274200298246081  0.0038974400697263  0.6281104329793686
  0.9496635878073423  0.9908820136311781  0.8795505449745141
  0.4945723274160588  0.9552412471577627  0.1199034526329560
  0.4924916756395518  0.0437752261874183  0.3696671581170990
  0.5155073181741643  0.9728484081902929  0.6198615948878730
  0.5043298715185633  0.0409515027999041  0.8714216916579519
  0.2053989960115575  0.2451905470168310  0.1274619543405213
  0.2960908924694140  0.2606600289308266  0.3772730891417377
  0.2041214797592739  0.2446337512194683  0.6260319914000591
  0.2912713290991751  0.2511754717563496  0.8752970231859747
  0.0071747617969769  0.4552139896177886  0.1299673573460656
  0.9950234763121127  0.5334766039460589  0.3801620192814500
  0.0135175349064850  0.4596087817530531  0.6331830509431178
  0.0053951428800248  0.5489020176298068  0.8825252004337387
  0.7517350320461631  0.2917306734601448  0.1269087971871387
  0.7587713957373358  0.2326209259205215  0.3778152677670907
  0.7522547290218775  0.2882622730004292  0.6288523889942913
  0.7523584051318463  0.2036755121962524  0.8806519159193507
  0.5444102342585894  0.5063437117069479  0.1276127874741580
  0.4672284805038115  0.5056642591488790  0.3774181039319148
  0.5269169172380882  0.5083296993005622  0.6286107313843916
  0.4467148028970003  0.4913251911937800  0.8789526944188766
  0.2557340864732358  0.7933211583132667  0.1249157230781049
  0.2499698444624660  0.7262372696688132  0.3719600759291273
  0.2442462528174868  0.7843373684994110  0.6239535530484493
  0.2474878967696715  0.7138827195711160  0.8754672054030644
  0.7062830186499169  0.7458301812566607  0.1302890059284113
  0.8015358815320976  0.7537148924561905  0.3803633784872902
  0.7024068430242367  0.7497136335595792  0.6281056880390168
  0.7897158362460684  0.7485007385874332  0.8777963297837100
  0.9857452374162299  0.2356265451453271  0.1490604283850892
  0.0143807089162219  0.2833434488314148  0.3802484412784598
  0.9754912780484801  0.2331039603369509  0.6231884368714062
  0.9810652572512473  0.2251769281037384  0.8868431740934979
  0.5206555897920351  0.2699736189962042  0.1108100481921300
  0.5218051478653215  0.2740520836258225  0.3692008364129927
  0.4798197191556607  0.2164266778677544  0.6204040815669412
  0.5112101391584032  0.2636173081369342  0.8529136069610588
  0.2363733902254150  0.4721899651103785  0.1402611399513408
  0.2502461312110401  0.5097572250461120  0.3785724293340717
  0.2430204729960343  0.4702546748413391  0.6299879411316017
  0.2305308887698661  0.4943330732587117  0.9008604045187903
  0.0261050080832549  0.7718730254487763  0.1161734914327336
  0.0235654529114030  0.7734661504552947  0.3718841777443495
  0.9938351289017262  0.7393573227589296  0.6277908304617684
  0.0087299447620783  0.7691774850877214  0.8575095479213560
  0.7624650103996948  0.5113767121358358  0.1072777344277357
  0.7683154995591577  0.5256807237914540  0.3761163674975102
  0.7407607713725172  0.5028931506903845  0.6215919778822463
  0.7771664894945290  0.5200182749387994  0.8606855310455632
  0.4867642195798743  0.7369966166103351  0.1511909659038266
  0.4820807821058577  0.7442014311824741  0.3794475540431073
  0.4739750726046892  0.7387016121328197  0.6255276741378953
  0.4753203703690643  0.7258434276493285  0.8859495236102081
  0.2594071499737053  0.0119001284674251  0.0996866371914580
  0.2657668680419794  0.0269447500946215  0.3707284966259818
  0.2416063264026124  0.0007863855774902  0.6155038789381945
  0.2740419331020615  0.0199254275149973  0.8594869358853222
  0.7280953902946908  0.9726797365663710  0.1396969758264556
  0.7474234765628524  0.0165637428465324  0.3767234208913208
  0.7429988766052046  0.9734355419536802  0.6296368070205497
  0.7336752628614019  0.9854714160492799  0.9005101208788893
 
  0.00000000E+00  0.00000000E+00  0.00000000E+00
  0.00000000E+00  0.00000000E+00  0.00000000E+00
  0.00000000E+00  0.00000000E+00  0.00000000E+00
  0.00000000E+00  0.00000000E+00  0.00000000E+00
  0.00000000E+00  0.00000000E+00  0.00000000E+00
  0.00000000E+00  0.00000000E+00  0.00000000E+00
  0.00000000E+00  0.00000000E+00  0.00000000E+00
  0.00000000E+00  0.00000000E+00  0.00000000E+00
  0.00000000E+00  0.00000000E+00  0.00000000E+00
  0.00000000E+00  0.00000000E+00  0.00000000E+00
  0.00000000E+00  0.00000000E+00  0.00000000E+00
  0.00000000E+00  0.00000000E+00  0.00000000E+00
  0.00000000E+00  0.00000000E+00  0.00000000E+00
  0.00000000E+00  0.00000000E+00  0.00000000E+00
  0.00000000E+00  0.00000000E+00  0.00000000E+00
  0.00000000E+00  0.00000000E+00  0.00000000E+00
  0.00000000E+00  0.00000000E+00  0.00000000E+00
  0.00000000E+00  0.00000000E+00  0.00000000E+00
  0.00000000E+00  0.00000000E+00  0.00000000E+00
  0.00000000E+00  0.00000000E+00  0.00000000E+00
  0.00000000E+00  0.00000000E+00  0.00000000E+00
  0.00000000E+00  0.00000000E+00  0.00000000E+00
  0.00000000E+00  0.00000000E+00  0.00000000E+00
  0.00000000E+00  0.00000000E+00  0.00000000E+00
  0.00000000E+00  0.00000000E+00  0.00000000E+00
  0.00000000E+00  0.00000000E+00  0.00000000E+00
  0.00000000E+00  0.00000000E+00  0.00000000E+00
  0.00000000E+00  0.00000000E+00  0.00000000E+00
  0.00000000E+00  0.00000000E+00  0.00000000E+00
  0.00000000E+00  0.00000000E+00  0.00000000E+00
  0.00000000E+00  0.00000000E+00  0.00000000E+00
  0.00000000E+00  0.00000000E+00  0.00000000E+00
  0.00000000E+00  0.00000000E+00  0.00000000E+00
  0.00000000E+00  0.00000000E+00  0.00000000E+00
  0.00000000E+00  0.00000000E+00  0.00000000E+00
  0.00000000E+00  0.00000000E+00  0.00000000E+00
  0.00000000E+00  0.00000000E+00  0.00000000E+00
  0.00000000E+00  0.00000000E+00  0.00000000E+00
  0.00000000E+00  0.00000000E+00  0.00000000E+00
  0.00000000E+00  0.00000000E+00  0.00000000E+00
  0.00000000E+00  0.00000000E+00  0.00000000E+00
  0.00000000E+00  0.00000000E+00  0.00000000E+00
  0.00000000E+00  0.00000000E+00  0.00000000E+00
  0.00000000E+00  0.00000000E+00  0.00000000E+00
  0.00000000E+00  0.00000000E+00  0.00000000E+00
  0.00000000E+00  0.00000000E+00  0.00000000E+00
  0.00000000E+00  0.00000000E+00  0.00000000E+00
  0.00000000E+00  0.00000000E+00  0.00000000E+00
  0.00000000E+00  0.00000000E+00  0.00000000E+00
  0.00000000E+00  0.00000000E+00  0.00000000E+00
  0.00000000E+00  0.00000000E+00  0.00000000E+00
  0.00000000E+00  0.00000000E+00  0.00000000E+00
  0.00000000E+00  0.00000000E+00  0.00000000E+00
  0.00000000E+00  0.00000000E+00  0.00000000E+00
  0.00000000E+00  0.00000000E+00  0.00000000E+00
  0.00000000E+00  0.00000000E+00  0.00000000E+00
  0.00000000E+00  0.00000000E+00  0.00000000E+00
  0.00000000E+00  0.00000000E+00  0.00000000E+00
  0.00000000E+00  0.00000000E+00  0.00000000E+00
  0.00000000E+00  0.00000000E+00  0.00000000E+00
  0.00000000E+00  0.00000000E+00  0.00000000E+00
  0.00000000E+00  0.00000000E+00  0.00000000E+00
  0.00000000E+00  0.00000000E+00  0.00000000E+00
  0.00000000E+00  0.00000000E+00  0.00000000E+00
  0.00000000E+00  0.00000000E+00  0.00000000E+00
  0.00000000E+00  0.00000000E+00  0.00000000E+00
  0.00000000E+00  0.00000000E+00  0.00000000E+00
  0.00000000E+00  0.00000000E+00  0.00000000E+00
  0.00000000E+00  0.00000000E+00  0.00000000E+00
  0.00000000E+00  0.00000000E+00  0.00000000E+00
  0.00000000E+00  0.00000000E+00  0.00000000E+00
  0.00000000E+00  0.00000000E+00  0.00000000E+00
  0.00000000E+00  0.00000000E+00  0.00000000E+00
  0.00000000E+00  0.00000000E+00  0.00000000E+00
  0.00000000E+00  0.00000000E+00  0.00000000E+00
  0.00000000E+00  0.00000000E+00  0.00000000E+00
  0.00000000E+00  0.00000000E+00  0.00000000E+00
  0.00000000E+00  0.00000000E+00  0.00000000E+00
  0.00000000E+00  0.00000000E+00  0.00000000E+00
  0.00000000E+00  0.00000000E+00  0.00000000E+00
  0.00000000E+00  0.00000000E+00  0.00000000E+00
  0.00000000E+00  0.00000000E+00  0.00000000E+00
  0.00000000E+00  0.00000000E+00  0.00000000E+00
  0.00000000E+00  0.00000000E+00  0.00000000E+00
  0.00000000E+00  0.00000000E+00  0.00000000E+00
  0.00000000E+00  0.00000000E+00  0.00000000E+00
  0.00000000E+00  0.00000000E+00  0.00000000E+00
  0.00000000E+00  0.00000000E+00  0.00000000E+00
  0.00000000E+00  0.00000000E+00  0.00000000E+00
  0.00000000E+00  0.00000000E+00  0.00000000E+00
  0.00000000E+00  0.00000000E+00  0.00000000E+00
  0.00000000E+00  0.00000000E+00  0.00000000E+00
  0.00000000E+00  0.00000000E+00  0.00000000E+00
  0.00000000E+00  0.00000000E+00  0.00000000E+00
  0.00000000E+00  0.00000000E+00  0.00000000E+00
  0.00000000E+00  0.00000000E+00  0.00000000E+00
  0.00000000E+00  0.00000000E+00  0.00000000E+00
  0.00000000E+00  0.00000000E+00  0.00000000E+00
  0.00000000E+00  0.00000000E+00  0.00000000E+00
  0.00000000E+00  0.00000000E+00  0.00000000E+00
  0.00000000E+00  0.00000000E+00  0.00000000E+00
  0.00000000E+00  0.00000000E+00  0.00000000E+00
  0.00000000E+00  0.00000000E+00  0.00000000E+00
  0.00000000E+00  0.00000000E+00  0.00000000E+00
  0.00000000E+00  0.00000000E+00  0.00000000E+00
  0.00000000E+00  0.00000000E+00  0.00000000E+00
  0.00000000E+00  0.00000000E+00  0.00000000E+00
  0.00000000E+00  0.00000000E+00  0.00000000E+00
  0.00000000E+00  0.00000000E+00  0.00000000E+00
  0.00000000E+00  0.00000000E+00  0.00000000E+00
  0.00000000E+00  0.00000000E+00  0.00000000E+00
  0.00000000E+00  0.00000000E+00  0.00000000E+00
  0.00000000E+00  0.00000000E+00  0.00000000E+00
  0.00000000E+00  0.00000000E+00  0.00000000E+00
  0.00000000E+00  0.00000000E+00  0.00000000E+00
  0.00000000E+00  0.00000000E+00  0.00000000E+00
  0.00000000E+00  0.00000000E+00  0.00000000E+00
  0.00000000E+00  0.00000000E+00  0.00000000E+00
  0.00000000E+00  0.00000000E+00  0.00000000E+00
  0.00000000E+00  0.00000000E+00  0.00000000E+00
  0.00000000E+00  0.00000000E+00  0.00000000E+00
  0.00000000E+00  0.00000000E+00  0.00000000E+00
  0.00000000E+00  0.00000000E+00  0.00000000E+00
  0.00000000E+00  0.00000000E+00  0.00000000E+00
  0.00000000E+00  0.00000000E+00  0.00000000E+00
  0.00000000E+00  0.00000000E+00  0.00000000E+00
  0.00000000E+00  0.00000000E+00  0.00000000E+00
  0.00000000E+00  0.00000000E+00  0.00000000E+00
  0.00000000E+00  0.00000000E+00  0.00000000E+00
  0.00000000E+00  0.00000000E+00  0.00000000E+00
  0.00000000E+00  0.00000000E+00  0.00000000E+00
  0.00000000E+00  0.00000000E+00  0.00000000E+00
  0.00000000E+00  0.00000000E+00  0.00000000E+00
  0.00000000E+00  0.00000000E+00  0.00000000E+00
  0.00000000E+00  0.00000000E+00  0.00000000E+00
  0.00000000E+00  0.00000000E+00  0.00000000E+00
  0.00000000E+00  0.00000000E+00  0.00000000E+00
  0.00000000E+00  0.00000000E+00  0.00000000E+00
  0.00000000E+00  0.00000000E+00  0.00000000E+00
  0.00000000E+00  0.00000000E+00  0.00000000E+00
  0.00000000E+00  0.00000000E+00  0.00000000E+00
  0.00000000E+00  0.00000000E+00  0.00000000E+00
  0.00000000E+00  0.00000000E+00  0.00000000E+00
  0.00000000E+00  0.00000000E+00  0.00000000E+00
  0.00000000E+00  0.00000000E+00  0.00000000E+00
  0.00000000E+00  0.00000000E+00  0.00000000E+00
  0.00000000E+00  0.00000000E+00  0.00000000E+00
  0.00000000E+00  0.00000000E+00  0.00000000E+00
  0.00000000E+00  0.00000000E+00  0.00000000E+00
  0.00000000E+00  0.00000000E+00  0.00000000E+00
  0.00000000E+00  0.00000000E+00  0.00000000E+00
  0.00000000E+00  0.00000000E+00  0.00000000E+00
  0.00000000E+00  0.00000000E+00  0.00000000E+00
  0.00000000E+00  0.00000000E+00  0.00000000E+00
  0.00000000E+00  0.00000000E+00  0.00000000E+00
  0.00000000E+00  0.00000000E+00  0.00000000E+00
  0.00000000E+00  0.00000000E+00  0.00000000E+00
  0.00000000E+00  0.00000000E+00  0.00000000E+00
  0.00000000E+00  0.00000000E+00  0.00000000E+00
  0.00000000E+00  0.00000000E+00  0.00000000E+00
