Li Ga Br                                
   1.00000000000000     
    10.7285090000000007  -10.7285090000000007    0.0000000000000000
    10.7285090000000007   10.7285090000000007    0.0000000000000000
     0.0000000000000000    0.0000000000000000   21.4570189999999990
   Li   Ga   Br
    32    32    96
Direct
  0.8697990934632280  0.8809013351958055  0.9779280642920928
  0.0884728956513911  0.9399759286684739  0.3352761264447193
  0.1619055721299221  0.0483840865655214  0.4865565280195282
  0.0596321088412009  0.0536336730354148  0.7168579787822650
  0.4190429534073516  0.9724497123837993  0.9514527651311405
  0.4280290513766740  0.9072090243002985  0.1237899778894238
  0.6519764108232491  0.0316208673033185  0.5187339349987015
  0.4625384658405127  0.1169889197493416  0.8127143861724889
  0.3346358607729726  0.1687317203566918  0.0710091058306106
  0.4697364099371744  0.2680256777156666  0.2569147223777825
  0.3709934439602076  0.2827555411607380  0.6803535003842034
  0.2565402276627242  0.1875429533451363  0.8176068905512430
  0.9494865208290237  0.5646202604282246  0.0490920669039321
  0.0350108805670651  0.4230582614177575  0.3048213114221524
  0.1201661629021411  0.3420734118935295  0.4360727133311038
  0.1142190100358772  0.4407643576176277  0.7844427977763677
  0.8695548422791860  0.3113814260233421  0.9735631906568845
  0.8601499624391290  0.4572161229191057  0.1886822992627779
  0.9268306763530756  0.2326027129360223  0.4616833042084182
  0.5864099802428573  0.3404237667146432  0.7846954381273472
  0.4158215944429575  0.3721725987470595  0.0873371251061082
  0.5862596265392663  0.5249536808998017  0.2746695776643811
  0.4828558690650852  0.5033315206258098  0.6344272303037284
  0.3283124881093695  0.4750052640805377  0.7912961792336426
  0.0712690686102194  0.8302066947017649  0.9621913904487884
  0.3757026535311301  0.6778177059575784  0.1379830938988625
  0.2339418209967973  0.7883973348362211  0.4615714027368459
  0.1665398983919393  0.7283639264835842  0.7451730596580239
  0.5727616142110656  0.7952928810170579  0.9879423372224714
  0.7047949321538278  0.9022372695907486  0.2730175833322854
  0.7358284437807773  0.8218389953282726  0.5650893490340004
  0.9761472788290294  0.5551834804382046  0.6409653164979080
  0.0399375958605309  0.3126896837105381  0.0992937662892826
  0.0207591757902458  0.2011149315403232  0.3194450222487831
  0.9525528224732948  0.2707095305563476  0.6549948366889157
  0.0206281748286152  0.2965016182531266  0.8492207216416422
  0.5616530143619232  0.1944437979969090  0.0371259359459831
  0.5233876102280937  0.1902663761174486  0.3855180679417646
  0.5636864905650557  0.1662550626277467  0.6201357501290360
  0.4294109315220685  0.3661248431862954  0.9172985987649620
  0.2105069361834216  0.5397276438859314  0.1073810432682250
  0.3054950184902471  0.4746777688224129  0.3177871018027400
  0.2334389906995192  0.4597402300473116  0.5721640327317948
  0.1683311439422142  0.5845330199639732  0.8956330858421965
  0.9109751760009985  0.7706987530210646  0.1427762620077651
  0.0180450404116540  0.6866742546690787  0.3705191774633641
  0.9207679603396556  0.8214130864941300  0.6203718966110844
  0.9405321717534151  0.8038889998620313  0.8146585637781145
  0.6916038544051889  0.5012001636461130  0.0742165591730921
  0.7766058470379813  0.4665121823267482  0.3950426620337384
  0.6907991764174872  0.5206335482898223  0.6281427518659088
  0.7598430367170181  0.5028758350692423  0.8604078635644929
  0.6398961260135573  0.7512932858575398  0.1661862458688917
  0.4309729859114852  0.7100112286969136  0.3524901914541086
  0.5511083893235542  0.8044623880142172  0.6448290332724275
  0.4217175979353242  0.7162539806256872  0.8506318567463635
  0.1792859683097495  0.9689001597912965  0.1168188198125695
  0.3163811412894354  0.0307589898494664  0.3119432938548243
  0.2185497712262033  0.9334887941607817  0.6072727362910716
  0.1807310325373955  0.9774055640359361  0.8739582893545272
  0.8007543615677619  0.1140089592007152  0.0810941173751839
  0.8292335711720314  0.0126823669965765  0.3663611512795897
  0.7562884067643738  0.0056475739039034  0.6805180156428361
  0.6686961728391196  0.9548252558371553  0.8658061212957239
  0.0199752159312087  0.2513804147689701  0.9684319183423942
  0.9580266505341060  0.3401736055895415  0.2246694627241816
  0.0815950818501396  0.1841119908684171  0.4585831192155982
  0.9859303090284661  0.4106518053941837  0.7055589772432119
  0.3149487737317685  0.3025555364484493  0.0081440067285437
  0.5820402169662159  0.1444617585167986  0.2880036301446821
  0.4496629081005724  0.2544977802720009  0.5783922054185060
  0.5996949909771387  0.1874029777354214  0.7264225481925430
  0.3604186407824596  0.5353369579127955  0.0699209071664960
  0.2014022784206018  0.4397783483014688  0.1904893904603641
  0.2749795334769287  0.3861337869190152  0.4789039403316256
  0.2043286658121060  0.5682885226506039  0.7546156762126599
  0.9545794314393771  0.7362149561215571  0.0132397181410272
  0.0378545599549803  0.7902865360714562  0.2885203961381903
  0.0703718207895313  0.7394428346746820  0.4677325479899371
  0.0205569820026936  0.6999547351653975  0.6894971916642509
  0.7769250905799759  0.5735761234205377  0.9598163481394417
  0.7369775787745033  0.4641164110532282  0.2678732979566746
  0.5964598659317968  0.4787267980410280  0.5447950433574118
  0.7239964809623952  0.3971133636929187  0.6892263907274866
  0.7021930793589316  0.7394865007824190  0.0651480591129192
  0.3415234946143514  0.6725161034782365  0.2638875593424036
  0.5946154997566100  0.7814543537960007  0.5252225268760786
  0.3875032968784747  0.7329214844712908  0.7448217063855365
  0.2085429940242926  0.8994313296338510  0.0193659181066670
  0.2880546701792518  0.9110593952319276  0.1888753303867399
  0.2867335059779214  0.0614654430041040  0.5683116191723767
  0.1991100102733156  0.9233456247284886  0.7171104929568625
  0.7663277392393030  0.1789971083493196  0.9835495329707388
  0.8376322275973499  0.0034919919289895  0.2559662856295433
  0.7990339536148079  0.9700217225575806  0.5493580423025197
  0.5510173798029353  0.9477527767808451  0.7937597996988910
  0.1834832665902639  0.1240454159978168  0.1062233919069944
  0.1451450270033054  0.0724981018868136  0.2793959310098235
  0.0743114372635730  0.1771465691996276  0.6357154733768920
  0.1046343827433785  0.1221418550544080  0.8161728676810057
  0.6848255886938733  0.1611350031788772  0.1462176041523696
  0.5101029611872570  0.0670100740626981  0.4514795919953679
  0.5368229384623091  0.0106518555319636  0.6129842017391225
  0.5435972706541011  0.2312484541966241  0.8790358967597582
  0.4402105507261152  0.2355050369304293  0.1483994386275668
  0.4579968018975261  0.4315513575297841  0.2510791552278882
  0.4512237208496616  0.4085637212362844  0.7287975450301996
  0.2353746025755710  0.3502033877753946  0.8368629439240036
  0.1964340254183036  0.6896210409155794  0.1331861283123489
  0.1085341483677850  0.5649691209412165  0.3420267931764423
  0.0917173670449901  0.5185558338133324  0.5496871197961475
  0.1199908805777755  0.7625632674056492  0.8563550118683139
  0.8659809518312398  0.4072052837961756  0.0688391347724623
  0.9455603176713459  0.3817459032182607  0.4026310028720474
  0.8927918843450796  0.3213225108458946  0.5597104786428871
  0.8123601355943744  0.3536712730611938  0.8639374346035779
  0.7480234453270329  0.7414265292867704  0.2456649824913353
  0.5634417238418684  0.6277509104456133  0.3656740141571899
  0.5934449393504827  0.6142539634555529  0.6860519792207229
  0.5715165471007743  0.7240495376319419  0.8795812055373687
  0.4462226585387398  0.7761600166284510  0.0601610570688118
  0.4621853899613516  0.8601917086896257  0.3512280341558135
  0.2923851358591800  0.8048932852794950  0.5744385203526458
  0.3466665444957534  0.8309351897356193  0.9039420694762963
  0.7947040044724381  0.9565979214428172  0.0722026746557225
  0.9603825352041765  0.9620685281564521  0.4130533632926534
  0.9372818205390452  0.9446297221346268  0.7172527859368349
  0.7618050996594887  0.8298954846477709  0.8891141583013359
  0.9395652675221737  0.1464274881368458  0.1220114060688339
  0.7992662647369275  0.1592861377029272  0.3985632065423774
  0.8589920469666331  0.1953943232043188  0.7223838396100672
  0.7643961959591726  0.0664531143427452  0.8371361771579463
  0.4245638175761930  0.0350036232218936  0.0585937755983115
  0.3745921401716103  0.2298140902199731  0.3566203207313701
  0.3500188846659633  0.1418823685495124  0.7301392173439346
  0.3358358442005051  0.0891414485851159  0.8977317362460915
  0.1102361035585713  0.4963830538599558  0.0282056476824641
  0.1648797854851378  0.3232924403632298  0.3248517436962216
  0.2235880041199874  0.3562929852026441  0.6537312963498279
  0.0174488721399880  0.4939357439171991  0.8726162536836278
  0.9461151984338946  0.5956369581380164  0.1644831305139468
  0.8679693463127979  0.6501564919838965  0.3838793715789753
  0.8189235316207458  0.5916603972010067  0.5868326912298297
  0.8205444548482858  0.5962920668809266  0.7859601466215861
  0.5640257236557717  0.3936516519681371  0.0274777265389335
  0.5935433672666671  0.3185084180914140  0.4188372206634420
  0.6905609901441426  0.1894466954335113  0.5593208465364489
  0.6060942144661158  0.4834941409964080  0.8478126708758117
  0.5479847463709313  0.6258111530874120  0.1766190092477913
  0.3381225516556413  0.6624259954897291  0.4353748365558054
  0.3381970147555436  0.5702504992781772  0.5960913127471730
  0.3824114544089536  0.5725692289014912  0.8871334803943188
  0.0401446220747110  0.9227655880172141  0.1507144420418877
  0.2207609759539470  0.9349403393474806  0.4093029412331061
  0.0744752024387690  0.9429435317506413  0.5628811642685876
  0.9838714371212344  0.9500448753317144  0.9150942269280125
  0.5800916005908672  0.8946088963006509  0.1869071141345936
  0.7079136465640357  0.9188006947886885  0.3900494182039919
  0.7360582349622685  0.8145958636883464  0.6819838993524842
  0.5929319169441669  0.9675897640505986  0.9645198305224522
 
  0.00000000E+00  0.00000000E+00  0.00000000E+00
  0.00000000E+00  0.00000000E+00  0.00000000E+00
  0.00000000E+00  0.00000000E+00  0.00000000E+00
  0.00000000E+00  0.00000000E+00  0.00000000E+00
  0.00000000E+00  0.00000000E+00  0.00000000E+00
  0.00000000E+00  0.00000000E+00  0.00000000E+00
  0.00000000E+00  0.00000000E+00  0.00000000E+00
  0.00000000E+00  0.00000000E+00  0.00000000E+00
  0.00000000E+00  0.00000000E+00  0.00000000E+00
  0.00000000E+00  0.00000000E+00  0.00000000E+00
  0.00000000E+00  0.00000000E+00  0.00000000E+00
  0.00000000E+00  0.00000000E+00  0.00000000E+00
  0.00000000E+00  0.00000000E+00  0.00000000E+00
  0.00000000E+00  0.00000000E+00  0.00000000E+00
  0.00000000E+00  0.00000000E+00  0.00000000E+00
  0.00000000E+00  0.00000000E+00  0.00000000E+00
  0.00000000E+00  0.00000000E+00  0.00000000E+00
  0.00000000E+00  0.00000000E+00  0.00000000E+00
  0.00000000E+00  0.00000000E+00  0.00000000E+00
  0.00000000E+00  0.00000000E+00  0.00000000E+00
  0.00000000E+00  0.00000000E+00  0.00000000E+00
  0.00000000E+00  0.00000000E+00  0.00000000E+00
  0.00000000E+00  0.00000000E+00  0.00000000E+00
  0.00000000E+00  0.00000000E+00  0.00000000E+00
  0.00000000E+00  0.00000000E+00  0.00000000E+00
  0.00000000E+00  0.00000000E+00  0.00000000E+00
  0.00000000E+00  0.00000000E+00  0.00000000E+00
  0.00000000E+00  0.00000000E+00  0.00000000E+00
  0.00000000E+00  0.00000000E+00  0.00000000E+00
  0.00000000E+00  0.00000000E+00  0.00000000E+00
  0.00000000E+00  0.00000000E+00  0.00000000E+00
  0.00000000E+00  0.00000000E+00  0.00000000E+00
  0.00000000E+00  0.00000000E+00  0.00000000E+00
  0.00000000E+00  0.00000000E+00  0.00000000E+00
  0.00000000E+00  0.00000000E+00  0.00000000E+00
  0.00000000E+00  0.00000000E+00  0.00000000E+00
  0.00000000E+00  0.00000000E+00  0.00000000E+00
  0.00000000E+00  0.00000000E+00  0.00000000E+00
  0.00000000E+00  0.00000000E+00  0.00000000E+00
  0.00000000E+00  0.00000000E+00  0.00000000E+00
  0.00000000E+00  0.00000000E+00  0.00000000E+00
  0.00000000E+00  0.00000000E+00  0.00000000E+00
  0.00000000E+00  0.00000000E+00  0.00000000E+00
  0.00000000E+00  0.00000000E+00  0.00000000E+00
  0.00000000E+00  0.00000000E+00  0.00000000E+00
  0.00000000E+00  0.00000000E+00  0.00000000E+00
  0.00000000E+00  0.00000000E+00  0.00000000E+00
  0.00000000E+00  0.00000000E+00  0.00000000E+00
  0.00000000E+00  0.00000000E+00  0.00000000E+00
  0.00000000E+00  0.00000000E+00  0.00000000E+00
  0.00000000E+00  0.00000000E+00  0.00000000E+00
  0.00000000E+00  0.00000000E+00  0.00000000E+00
  0.00000000E+00  0.00000000E+00  0.00000000E+00
  0.00000000E+00  0.00000000E+00  0.00000000E+00
  0.00000000E+00  0.00000000E+00  0.00000000E+00
  0.00000000E+00  0.00000000E+00  0.00000000E+00
  0.00000000E+00  0.00000000E+00  0.00000000E+00
  0.00000000E+00  0.00000000E+00  0.00000000E+00
  0.00000000E+00  0.00000000E+00  0.00000000E+00
  0.00000000E+00  0.00000000E+00  0.00000000E+00
  0.00000000E+00  0.00000000E+00  0.00000000E+00
  0.00000000E+00  0.00000000E+00  0.00000000E+00
  0.00000000E+00  0.00000000E+00  0.00000000E+00
  0.00000000E+00  0.00000000E+00  0.00000000E+00
  0.00000000E+00  0.00000000E+00  0.00000000E+00
  0.00000000E+00  0.00000000E+00  0.00000000E+00
  0.00000000E+00  0.00000000E+00  0.00000000E+00
  0.00000000E+00  0.00000000E+00  0.00000000E+00
  0.00000000E+00  0.00000000E+00  0.00000000E+00
  0.00000000E+00  0.00000000E+00  0.00000000E+00
  0.00000000E+00  0.00000000E+00  0.00000000E+00
  0.00000000E+00  0.00000000E+00  0.00000000E+00
  0.00000000E+00  0.00000000E+00  0.00000000E+00
  0.00000000E+00  0.00000000E+00  0.00000000E+00
  0.00000000E+00  0.00000000E+00  0.00000000E+00
  0.00000000E+00  0.00000000E+00  0.00000000E+00
  0.00000000E+00  0.00000000E+00  0.00000000E+00
  0.00000000E+00  0.00000000E+00  0.00000000E+00
  0.00000000E+00  0.00000000E+00  0.00000000E+00
  0.00000000E+00  0.00000000E+00  0.00000000E+00
  0.00000000E+00  0.00000000E+00  0.00000000E+00
  0.00000000E+00  0.00000000E+00  0.00000000E+00
  0.00000000E+00  0.00000000E+00  0.00000000E+00
  0.00000000E+00  0.00000000E+00  0.00000000E+00
  0.00000000E+00  0.00000000E+00  0.00000000E+00
  0.00000000E+00  0.00000000E+00  0.00000000E+00
  0.00000000E+00  0.00000000E+00  0.00000000E+00
  0.00000000E+00  0.00000000E+00  0.00000000E+00
  0.00000000E+00  0.00000000E+00  0.00000000E+00
  0.00000000E+00  0.00000000E+00  0.00000000E+00
  0.00000000E+00  0.00000000E+00  0.00000000E+00
  0.00000000E+00  0.00000000E+00  0.00000000E+00
  0.00000000E+00  0.00000000E+00  0.00000000E+00
  0.00000000E+00  0.00000000E+00  0.00000000E+00
  0.00000000E+00  0.00000000E+00  0.00000000E+00
  0.00000000E+00  0.00000000E+00  0.00000000E+00
  0.00000000E+00  0.00000000E+00  0.00000000E+00
  0.00000000E+00  0.00000000E+00  0.00000000E+00
  0.00000000E+00  0.00000000E+00  0.00000000E+00
  0.00000000E+00  0.00000000E+00  0.00000000E+00
  0.00000000E+00  0.00000000E+00  0.00000000E+00
  0.00000000E+00  0.00000000E+00  0.00000000E+00
  0.00000000E+00  0.00000000E+00  0.00000000E+00
  0.00000000E+00  0.00000000E+00  0.00000000E+00
  0.00000000E+00  0.00000000E+00  0.00000000E+00
  0.00000000E+00  0.00000000E+00  0.00000000E+00
  0.00000000E+00  0.00000000E+00  0.00000000E+00
  0.00000000E+00  0.00000000E+00  0.00000000E+00
  0.00000000E+00  0.00000000E+00  0.00000000E+00
  0.00000000E+00  0.00000000E+00  0.00000000E+00
  0.00000000E+00  0.00000000E+00  0.00000000E+00
  0.00000000E+00  0.00000000E+00  0.00000000E+00
  0.00000000E+00  0.00000000E+00  0.00000000E+00
  0.00000000E+00  0.00000000E+00  0.00000000E+00
  0.00000000E+00  0.00000000E+00  0.00000000E+00
  0.00000000E+00  0.00000000E+00  0.00000000E+00
  0.00000000E+00  0.00000000E+00  0.00000000E+00
  0.00000000E+00  0.00000000E+00  0.00000000E+00
  0.00000000E+00  0.00000000E+00  0.00000000E+00
  0.00000000E+00  0.00000000E+00  0.00000000E+00
  0.00000000E+00  0.00000000E+00  0.00000000E+00
  0.00000000E+00  0.00000000E+00  0.00000000E+00
  0.00000000E+00  0.00000000E+00  0.00000000E+00
  0.00000000E+00  0.00000000E+00  0.00000000E+00
  0.00000000E+00  0.00000000E+00  0.00000000E+00
  0.00000000E+00  0.00000000E+00  0.00000000E+00
  0.00000000E+00  0.00000000E+00  0.00000000E+00
  0.00000000E+00  0.00000000E+00  0.00000000E+00
  0.00000000E+00  0.00000000E+00  0.00000000E+00
  0.00000000E+00  0.00000000E+00  0.00000000E+00
  0.00000000E+00  0.00000000E+00  0.00000000E+00
  0.00000000E+00  0.00000000E+00  0.00000000E+00
  0.00000000E+00  0.00000000E+00  0.00000000E+00
  0.00000000E+00  0.00000000E+00  0.00000000E+00
  0.00000000E+00  0.00000000E+00  0.00000000E+00
  0.00000000E+00  0.00000000E+00  0.00000000E+00
  0.00000000E+00  0.00000000E+00  0.00000000E+00
  0.00000000E+00  0.00000000E+00  0.00000000E+00
  0.00000000E+00  0.00000000E+00  0.00000000E+00
  0.00000000E+00  0.00000000E+00  0.00000000E+00
  0.00000000E+00  0.00000000E+00  0.00000000E+00
  0.00000000E+00  0.00000000E+00  0.00000000E+00
  0.00000000E+00  0.00000000E+00  0.00000000E+00
  0.00000000E+00  0.00000000E+00  0.00000000E+00
  0.00000000E+00  0.00000000E+00  0.00000000E+00
  0.00000000E+00  0.00000000E+00  0.00000000E+00
  0.00000000E+00  0.00000000E+00  0.00000000E+00
  0.00000000E+00  0.00000000E+00  0.00000000E+00
  0.00000000E+00  0.00000000E+00  0.00000000E+00
  0.00000000E+00  0.00000000E+00  0.00000000E+00
  0.00000000E+00  0.00000000E+00  0.00000000E+00
  0.00000000E+00  0.00000000E+00  0.00000000E+00
  0.00000000E+00  0.00000000E+00  0.00000000E+00
  0.00000000E+00  0.00000000E+00  0.00000000E+00
  0.00000000E+00  0.00000000E+00  0.00000000E+00
  0.00000000E+00  0.00000000E+00  0.00000000E+00
  0.00000000E+00  0.00000000E+00  0.00000000E+00
  0.00000000E+00  0.00000000E+00  0.00000000E+00
  0.00000000E+00  0.00000000E+00  0.00000000E+00
  0.00000000E+00  0.00000000E+00  0.00000000E+00
