Pb Li F                                 
   1.00000000000000     
     7.8031389999999998   -7.8031389999999998    0.0000000000000000
     7.8031389999999998    7.8031389999999998    0.0000000000000000
     0.0000000000000000    0.0000000000000000   15.6062779999999997
   F    Li   Pb
    96    32    32
Direct
  0.0004575855156579  0.2146120540164208  0.0001100271220106
 -0.0011674515727717  0.2852064345975694  0.2500078741043252
  0.0006041639512786  0.2146953245767695  0.5000360722149867
 -0.0010944031205788  0.2847654811757226  0.7500674508125953
  0.4653960342999285  0.2508556753584170  0.0000133989570187
  0.5340834490509578  0.2486837721145151  0.2501194688104922
  0.4649549494067989  0.2511874998339822  0.4999623680651195
  0.5345722048162832  0.2483895375468128  0.7501260945914019
  0.2851163288455230  0.4988820528727122  0.0001534372939557
  0.2144886120121011  0.5006729170946436  0.2500184688432239
  0.2849401912659869  0.4988795084490656  0.5000285889754604
  0.2147840029053733  0.5004548079866979  0.7500758479958105
  0.9654422335199506  0.7509272977226131 -0.0000238770924040
  0.0340471136454753  0.7487784393378595  0.2500941154359753
 -0.0350983246219867  0.7511514826978980  0.4999618124426707
  0.0345802201089868  0.7484527771197201  0.7501080291392693
  0.7486318765306931  0.5340788445513819 -0.0000365940131499
  0.7509590160569857  0.4655336099921349  0.2500867368767211
  0.7484600042102721  0.5345273101898868  0.4999792223270402
  0.7510691173710853  0.4648267183857484  0.7501078237487888
  0.5004545705689905  0.7145409439373342  0.0001149248425961
  0.4989466902602335  0.7851621771867722  0.2499999399251211
  0.5006264818547275  0.7147056547336836  0.5000344584993588
  0.4989142684399534  0.7847777930826089  0.7500546327778929
  0.2486863808993585  0.0341280559459152 -0.0000368562148576
  0.2508304937009631 -0.0344463268881903  0.2500830768685320
  0.2483933854456258  0.0345368879901577  0.4999641016651394
  0.2510076340179180  0.9648516031546455  0.7500811902086670
  0.7851031601441776 -0.0010862770526684  0.0001580079172897
  0.7145003186983119  0.0005791685994211  0.2500147446801955
  0.7848658608927231 -0.0010979002374695  0.5000431670901264
  0.7147328358855446  0.0004349398136119  0.7500870119299460
  0.1089680739387439  0.1091371354790174  0.1429692087482453
  0.1403320917155834  0.1410886180110738  0.3570166375820622
  0.1090354735736949  0.1089793073182583  0.6430896928339536
  0.1408895910615064  0.1406362541853798  0.8571270318200492
  0.6090201304234281  0.1089256731927170  0.1071446463613916
  0.6405674255706839  0.1409276696238515  0.3930057115764142
  0.6090488945563310  0.1089254538404348  0.6070180241375119
  0.6409861166261765  0.1403250418956136  0.8930767393104240
  0.3905268596564654  0.3905982567160239  0.1430697527711581
  0.3585878582269834  0.3593022463723640  0.3570150779714785
  0.3905129176163187  0.3903486454485404  0.6431010804281888
  0.3588646791989746  0.3585297088118635  0.8571755381262156
  0.1090672936599307  0.6090330272556795  0.1070792985001144
  0.1406171866944933  0.6409815851311087  0.3929979298853687
  0.1090785647063396  0.6089497186471778  0.6070486274445164
  0.1410420879524894  0.6403890146020366  0.8930630887948955
  0.8905911684084560  0.3905652517731290  0.1070743235112496
  0.8586774164200879  0.3590622270894350  0.3930102889230290
  0.8905079345850297  0.3904000841850645  0.6069750136939887
  0.8591351199835859  0.3585297199299735  0.8930549232207587
  0.6089497122182839  0.6090393799096022  0.1429810036463632
  0.6403865309282774  0.6410598472221852  0.3570150617472243
  0.6090652699524396  0.6089195500789061  0.6430865545131992
  0.6408735178756723  0.6405611046642913  0.8571366154252963
  0.3905625000675050  0.8905335644480867  0.1070986666210421
  0.3586592509321891  0.8590505546269710  0.3929694261974445
  0.3904612235888847  0.8903362789358235  0.6069627871310032
  0.3590820998318832  0.8584803907384821  0.8929998112497004
  0.8905637718519664  0.8906832759813986  0.1430461877903122
  0.8585549924412280  0.8592934054422987  0.3570554340566867
  0.8904689362286849  0.8903782939063349  0.6431216585882502
  0.8588412184684595  0.8585304846988177  0.8571664040756930
  0.8572471297817527  0.1423607120797114  0.1387914881556540
  0.8870855249272392  0.1125510938158492  0.3564360212403945
  0.8573524701979990  0.1420746638981520  0.6386292676768895
  0.8878224545888137  0.1115922501943154  0.8565013688997377
  0.3619297999829800  0.1376978833843087  0.1430862404739685
  0.3923944744502244  0.1072109670322962  0.3619995497306089
  0.3621442277177934  0.1372772511924852  0.6432240518876509
  0.3929922013610149  0.1064717212470713  0.8620862001463504
  0.1422940982309601  0.3573516452425446  0.1113993593280172
  0.1116740278590297  0.3879133871236862  0.3936440153061064
  0.1422145925501893  0.3572482823249274  0.6115326934147899
  0.1123412271027897  0.3871929760736166  0.8936684103669981
  0.8619344824886712  0.6377233981362107  0.1429977141290801
  0.8924691832699232  0.6071562280464703  0.3620094468503667
  0.8621562300376489  0.6373106251131907  0.6432380002122322
  0.8930046988146584  0.6065307237096846  0.8621026150386853
  0.6376542726954323  0.3619398062701675  0.1070423598560286
  0.6066703325263596  0.3930030647868931  0.3879068842722964
  0.6375073707492283  0.3619503539778212  0.6067876831141328
  0.6070406391224143  0.3924205080409937  0.8881103738050639
  0.3573126479706135  0.6422832086162082  0.1388186982097290
  0.3871357614468229  0.6125455205247731  0.3564095949858171
  0.3573926471620388  0.6420796664032927  0.6385900634767627
  0.3878533953408484  0.6115707606108153  0.8564758710309812
  0.1376151519192195  0.8620067248405400  0.1069755310032695
  0.1065876964963706  0.8930659641553942  0.3879162565469090
  0.1374545419182757  0.8620066496303834  0.6067906029339737
  0.1070221315254646  0.8924787546483154  0.8880899626323210
  0.6423470947201707  0.8572611018664866  0.1113823755672402
  0.6116432046171555  0.8879309506894012  0.3936878889756647
  0.6421937812282954  0.8572372469614837  0.6115540631445834
  0.6122948597458729  0.8871133879753896  0.8937087782890747
 -0.0002415012764721  0.2498676321023617  0.1250800771104547
 -0.0005404086147504  0.2501655913056686  0.3749729554871262
 -0.0003039501515185  0.2496927379722811  0.6250759128284371
  0.0000613650904620  0.2495158768966635  0.8751254165809244
  0.4997802442289843  0.2497979095894133  0.1250641260461657
  0.4995268703041542  0.2500579244986740  0.3749963201659869
  0.4998252087166781  0.2496597299914823  0.6250485147592437
  0.4999476439835939  0.2495837140098650  0.8750813355736073
  0.2497814358238943  0.4998909133436206  0.1250609913305805
  0.2495283753826144  0.5001654970528900  0.3750127614458313
  0.2498389701154959  0.4996582981922844  0.6249962719960070
  0.2500796035656190  0.4994344397732660  0.8751664040383962
 -0.0001941584205994  0.7498351388296245  0.1250072219156065
 -0.0004787324013383  0.7500962937458164  0.3750038089207081
 -0.0001978514072934  0.7497109411180921  0.6249960626861374
 -0.0000292113736308  0.7496486380631378  0.8750569592277331
  0.7498228017318859  0.4998372493511675  0.1250277407091403
  0.7495815390941494  0.5000481286979487  0.3749814184902239
  0.7498079198817702  0.4995828893093600  0.6251036551966752
  0.7499450671320640  0.4995212052381998  0.8750145134131647
  0.4997612809663782  0.7498616200318350  0.1250656801598877
  0.4995148153447572  0.7501560585111959  0.3749438712212864
  0.4997794162620131  0.7496696699013109  0.6250900171912954
  0.5000332916855617  0.7494711306192583  0.8751049245943353
  0.2498006559558003 -0.0001438196393247  0.1250294985406931
  0.2495670614131255  0.0000635029433475  0.3749665219480390
  0.2497777335725496 -0.0003491730964832  0.6250664897643622
  0.2498897077075970 -0.0004457503826888  0.8750031730046770
  0.7497891055196805 -0.0001091305061784  0.1250632780756345
  0.7495016150092432  0.0001403110346178  0.3750145953044012
  0.7497441883241928 -0.0003275996756401  0.6250073914265522
  0.7500108440874970 -0.0006309842338420  0.8751979570118754
  0.0103016500611705  0.9894649155937651  0.0136158505436049
  0.0133270394929844  0.9864258223231535  0.2603309952242894
  0.0101771357343391 -0.0106326187558722  0.5136393025475786
  0.0141658578440654 -0.0146245328590874  0.7601302341566775
  0.4862889924738564  0.0133779499135956 -0.0102271431246124
  0.4893700484307683  0.0103537889058863  0.2365325861166167
  0.4853423385090574  0.0142503805631764  0.4899604854614432
  0.4895555467414995  0.0099900432083056  0.7364796228658865
  0.2401786487568705  0.2595583615903967  0.9863627418511673
  0.2354465170354293  0.2643306988362270  0.2393977331067755
  0.2392040482769379  0.2602340163818041  0.4860049838846427
  0.2355012728794656  0.2640195536485640  0.7394552718670614
 -0.0136633067089579  0.5133807179681615 -0.0102778359601311
 -0.0106028192159038  0.5104328406386314  0.2364896528224481
  0.9853034096773123  0.5142870692076971  0.4899402238873973
 -0.0104735310086131  0.5100115171390108  0.7364141099691054
  0.7642638447991186  0.2354721097865223  0.0106858997994091
  0.7594268921267224  0.2403715756638469  0.2637046712936509
  0.7643546573280107  0.2353947487463215  0.5105100692377511
  0.7602572064017796  0.2391242218862838  0.7640873332758898
  0.5103230303681442  0.4894427213998541  0.0136368913728485
  0.5132811237469006  0.4864684428579250  0.2602960264520985
  0.5102692399452404  0.4893166467779365  0.5136631680471349
  0.5141318060164997  0.4853246302650064  0.7601504758906243
  0.2643203628826991  0.7354824420448872  0.0107003177265724
  0.2593992362596593  0.7403068845249419  0.2637330040865719
  0.2643796701662981  0.7354470820570224  0.5105799811578166
  0.2602051525244453  0.7391703644725987  0.7640618600437220
  0.7402511603434304  0.7594620867758040  0.9863276252224984
  0.7354650707322958  0.7643607517270291  0.2393778238441631
  0.7391807420105952  0.7602305325625069  0.4859490766870926
  0.7355057416001252  0.7640061348976559  0.7394796502510829
 
  0.00000000E+00  0.00000000E+00  0.00000000E+00
  0.00000000E+00  0.00000000E+00  0.00000000E+00
  0.00000000E+00  0.00000000E+00  0.00000000E+00
  0.00000000E+00  0.00000000E+00  0.00000000E+00
  0.00000000E+00  0.00000000E+00  0.00000000E+00
  0.00000000E+00  0.00000000E+00  0.00000000E+00
  0.00000000E+00  0.00000000E+00  0.00000000E+00
  0.00000000E+00  0.00000000E+00  0.00000000E+00
  0.00000000E+00  0.00000000E+00  0.00000000E+00
  0.00000000E+00  0.00000000E+00  0.00000000E+00
  0.00000000E+00  0.00000000E+00  0.00000000E+00
  0.00000000E+00  0.00000000E+00  0.00000000E+00
  0.00000000E+00  0.00000000E+00  0.00000000E+00
  0.00000000E+00  0.00000000E+00  0.00000000E+00
  0.00000000E+00  0.00000000E+00  0.00000000E+00
  0.00000000E+00  0.00000000E+00  0.00000000E+00
  0.00000000E+00  0.00000000E+00  0.00000000E+00
  0.00000000E+00  0.00000000E+00  0.00000000E+00
  0.00000000E+00  0.00000000E+00  0.00000000E+00
  0.00000000E+00  0.00000000E+00  0.00000000E+00
  0.00000000E+00  0.00000000E+00  0.00000000E+00
  0.00000000E+00  0.00000000E+00  0.00000000E+00
  0.00000000E+00  0.00000000E+00  0.00000000E+00
  0.00000000E+00  0.00000000E+00  0.00000000E+00
  0.00000000E+00  0.00000000E+00  0.00000000E+00
  0.00000000E+00  0.00000000E+00  0.00000000E+00
  0.00000000E+00  0.00000000E+00  0.00000000E+00
  0.00000000E+00  0.00000000E+00  0.00000000E+00
  0.00000000E+00  0.00000000E+00  0.00000000E+00
  0.00000000E+00  0.00000000E+00  0.00000000E+00
  0.00000000E+00  0.00000000E+00  0.00000000E+00
  0.00000000E+00  0.00000000E+00  0.00000000E+00
  0.00000000E+00  0.00000000E+00  0.00000000E+00
  0.00000000E+00  0.00000000E+00  0.00000000E+00
  0.00000000E+00  0.00000000E+00  0.00000000E+00
  0.00000000E+00  0.00000000E+00  0.00000000E+00
  0.00000000E+00  0.00000000E+00  0.00000000E+00
  0.00000000E+00  0.00000000E+00  0.00000000E+00
  0.00000000E+00  0.00000000E+00  0.00000000E+00
  0.00000000E+00  0.00000000E+00  0.00000000E+00
  0.00000000E+00  0.00000000E+00  0.00000000E+00
  0.00000000E+00  0.00000000E+00  0.00000000E+00
  0.00000000E+00  0.00000000E+00  0.00000000E+00
  0.00000000E+00  0.00000000E+00  0.00000000E+00
  0.00000000E+00  0.00000000E+00  0.00000000E+00
  0.00000000E+00  0.00000000E+00  0.00000000E+00
  0.00000000E+00  0.00000000E+00  0.00000000E+00
  0.00000000E+00  0.00000000E+00  0.00000000E+00
  0.00000000E+00  0.00000000E+00  0.00000000E+00
  0.00000000E+00  0.00000000E+00  0.00000000E+00
  0.00000000E+00  0.00000000E+00  0.00000000E+00
  0.00000000E+00  0.00000000E+00  0.00000000E+00
  0.00000000E+00  0.00000000E+00  0.00000000E+00
  0.00000000E+00  0.00000000E+00  0.00000000E+00
  0.00000000E+00  0.00000000E+00  0.00000000E+00
  0.00000000E+00  0.00000000E+00  0.00000000E+00
  0.00000000E+00  0.00000000E+00  0.00000000E+00
  0.00000000E+00  0.00000000E+00  0.00000000E+00
  0.00000000E+00  0.00000000E+00  0.00000000E+00
  0.00000000E+00  0.00000000E+00  0.00000000E+00
  0.00000000E+00  0.00000000E+00  0.00000000E+00
  0.00000000E+00  0.00000000E+00  0.00000000E+00
  0.00000000E+00  0.00000000E+00  0.00000000E+00
  0.00000000E+00  0.00000000E+00  0.00000000E+00
  0.00000000E+00  0.00000000E+00  0.00000000E+00
  0.00000000E+00  0.00000000E+00  0.00000000E+00
  0.00000000E+00  0.00000000E+00  0.00000000E+00
  0.00000000E+00  0.00000000E+00  0.00000000E+00
  0.00000000E+00  0.00000000E+00  0.00000000E+00
  0.00000000E+00  0.00000000E+00  0.00000000E+00
  0.00000000E+00  0.00000000E+00  0.00000000E+00
  0.00000000E+00  0.00000000E+00  0.00000000E+00
  0.00000000E+00  0.00000000E+00  0.00000000E+00
  0.00000000E+00  0.00000000E+00  0.00000000E+00
  0.00000000E+00  0.00000000E+00  0.00000000E+00
  0.00000000E+00  0.00000000E+00  0.00000000E+00
  0.00000000E+00  0.00000000E+00  0.00000000E+00
  0.00000000E+00  0.00000000E+00  0.00000000E+00
  0.00000000E+00  0.00000000E+00  0.00000000E+00
  0.00000000E+00  0.00000000E+00  0.00000000E+00
  0.00000000E+00  0.00000000E+00  0.00000000E+00
  0.00000000E+00  0.00000000E+00  0.00000000E+00
  0.00000000E+00  0.00000000E+00  0.00000000E+00
  0.00000000E+00  0.00000000E+00  0.00000000E+00
  0.00000000E+00  0.00000000E+00  0.00000000E+00
  0.00000000E+00  0.00000000E+00  0.00000000E+00
  0.00000000E+00  0.00000000E+00  0.00000000E+00
  0.00000000E+00  0.00000000E+00  0.00000000E+00
  0.00000000E+00  0.00000000E+00  0.00000000E+00
  0.00000000E+00  0.00000000E+00  0.00000000E+00
  0.00000000E+00  0.00000000E+00  0.00000000E+00
  0.00000000E+00  0.00000000E+00  0.00000000E+00
  0.00000000E+00  0.00000000E+00  0.00000000E+00
  0.00000000E+00  0.00000000E+00  0.00000000E+00
  0.00000000E+00  0.00000000E+00  0.00000000E+00
  0.00000000E+00  0.00000000E+00  0.00000000E+00
  0.00000000E+00  0.00000000E+00  0.00000000E+00
  0.00000000E+00  0.00000000E+00  0.00000000E+00
  0.00000000E+00  0.00000000E+00  0.00000000E+00
  0.00000000E+00  0.00000000E+00  0.00000000E+00
  0.00000000E+00  0.00000000E+00  0.00000000E+00
  0.00000000E+00  0.00000000E+00  0.00000000E+00
  0.00000000E+00  0.00000000E+00  0.00000000E+00
  0.00000000E+00  0.00000000E+00  0.00000000E+00
  0.00000000E+00  0.00000000E+00  0.00000000E+00
  0.00000000E+00  0.00000000E+00  0.00000000E+00
  0.00000000E+00  0.00000000E+00  0.00000000E+00
  0.00000000E+00  0.00000000E+00  0.00000000E+00
  0.00000000E+00  0.00000000E+00  0.00000000E+00
  0.00000000E+00  0.00000000E+00  0.00000000E+00
  0.00000000E+00  0.00000000E+00  0.00000000E+00
  0.00000000E+00  0.00000000E+00  0.00000000E+00
  0.00000000E+00  0.00000000E+00  0.00000000E+00
  0.00000000E+00  0.00000000E+00  0.00000000E+00
  0.00000000E+00  0.00000000E+00  0.00000000E+00
  0.00000000E+00  0.00000000E+00  0.00000000E+00
  0.00000000E+00  0.00000000E+00  0.00000000E+00
  0.00000000E+00  0.00000000E+00  0.00000000E+00
  0.00000000E+00  0.00000000E+00  0.00000000E+00
  0.00000000E+00  0.00000000E+00  0.00000000E+00
  0.00000000E+00  0.00000000E+00  0.00000000E+00
  0.00000000E+00  0.00000000E+00  0.00000000E+00
  0.00000000E+00  0.00000000E+00  0.00000000E+00
  0.00000000E+00  0.00000000E+00  0.00000000E+00
  0.00000000E+00  0.00000000E+00  0.00000000E+00
  0.00000000E+00  0.00000000E+00  0.00000000E+00
  0.00000000E+00  0.00000000E+00  0.00000000E+00
  0.00000000E+00  0.00000000E+00  0.00000000E+00
  0.00000000E+00  0.00000000E+00  0.00000000E+00
  0.00000000E+00  0.00000000E+00  0.00000000E+00
  0.00000000E+00  0.00000000E+00  0.00000000E+00
  0.00000000E+00  0.00000000E+00  0.00000000E+00
  0.00000000E+00  0.00000000E+00  0.00000000E+00
  0.00000000E+00  0.00000000E+00  0.00000000E+00
  0.00000000E+00  0.00000000E+00  0.00000000E+00
  0.00000000E+00  0.00000000E+00  0.00000000E+00
  0.00000000E+00  0.00000000E+00  0.00000000E+00
  0.00000000E+00  0.00000000E+00  0.00000000E+00
  0.00000000E+00  0.00000000E+00  0.00000000E+00
  0.00000000E+00  0.00000000E+00  0.00000000E+00
  0.00000000E+00  0.00000000E+00  0.00000000E+00
  0.00000000E+00  0.00000000E+00  0.00000000E+00
  0.00000000E+00  0.00000000E+00  0.00000000E+00
  0.00000000E+00  0.00000000E+00  0.00000000E+00
  0.00000000E+00  0.00000000E+00  0.00000000E+00
  0.00000000E+00  0.00000000E+00  0.00000000E+00
  0.00000000E+00  0.00000000E+00  0.00000000E+00
  0.00000000E+00  0.00000000E+00  0.00000000E+00
  0.00000000E+00  0.00000000E+00  0.00000000E+00
  0.00000000E+00  0.00000000E+00  0.00000000E+00
  0.00000000E+00  0.00000000E+00  0.00000000E+00
  0.00000000E+00  0.00000000E+00  0.00000000E+00
  0.00000000E+00  0.00000000E+00  0.00000000E+00
  0.00000000E+00  0.00000000E+00  0.00000000E+00
  0.00000000E+00  0.00000000E+00  0.00000000E+00
  0.00000000E+00  0.00000000E+00  0.00000000E+00
  0.00000000E+00  0.00000000E+00  0.00000000E+00
  0.00000000E+00  0.00000000E+00  0.00000000E+00
  0.00000000E+00  0.00000000E+00  0.00000000E+00
  0.00000000E+00  0.00000000E+00  0.00000000E+00
