Tl In Cl                                
   1.00000000000000     
    10.8260249999999996  -10.8260249999999996    0.0000000000000000
    10.8260249999999996   10.8260249999999996    0.0000000000000000
     0.0000000000000000    0.0000000000000000   21.6520499999999991
   Tl   In   Cl
    32    32    96
Direct
  0.0218271128616203  0.9832343425266463  0.0376645186557799
  0.0354835937612870  0.0294671338944608  0.2791229904182130
  0.9955617019926980  0.0349794408931646  0.5360587005773795
  0.0158517219290774  0.0296932830949121  0.7585999242069192
  0.4949883131959704  0.9401579762919686  0.9686788361473293
  0.5071639202980074  0.9907602412093347  0.2230989535726248
  0.4898463971068880  0.0048595300294869  0.4749942035271210
  0.4869387254845073  0.9580483462466132  0.7192673981441705
  0.2919551546153188  0.2918995295142441  0.9983852353615053
  0.2562054555993481  0.2805774526265497  0.2251617533367169
  0.2363913989257613  0.2775335058588664  0.5117701307313171
  0.2352856025994068  0.2666991415294928  0.7445976920669815
  0.9624991321826042  0.4916990951949276  0.9668443167746191
  0.0036806029193551  0.4983120974579048  0.2625121988907059
  0.9793257811712841  0.5267912492624898  0.4979091375814405
  0.9964620991911206  0.4929546073677893  0.6924494701423524
  0.7212942376714800  0.2686128551166050  0.9809533424755762
  0.7125611088222847  0.2071914385583233  0.2445048313080316
  0.7499471884710198  0.2456617857702610  0.4695391067142911
  0.7352884950637291  0.2268419385663367  0.7434984365360435
  0.5501731486455805  0.5175163734758395  0.0156052631842917
  0.5666204438428915  0.5170387945354803  0.2455334268979829
  0.5015951362103133  0.5064625591789884  0.4921516541590197
  0.5014717128624314  0.4593912778575746  0.7739842529949815
  0.2549566142319063  0.7057564191989546  0.9725029426233387
  0.2166278623773246  0.7494945842710729  0.2331358537617174
  0.2263056825812582  0.7376049790607383  0.4771263869687792
  0.2259743369238507  0.6919426815668918  0.7508068765057978
  0.7888957838220310  0.7468523967122609  0.0117484954440614
  0.7692002404129272  0.7739893907753667  0.2633092262647909
  0.7565082062532598  0.7827973827452476  0.5138559704200844
  0.7546126915521942  0.7460925249886002  0.7676668488373688
  0.9966709219860035  0.2332373104691611  0.1222979705616730
  0.0124312718754234  0.2504569272973474  0.3833311904453076
  0.9873005296086339  0.2621230868619046  0.6352860619542370
  0.9892018295058576  0.2144808901113830  0.9019477395638282
  0.5116915774994898  0.2619012853491996  0.1236252506343620
  0.4827025112038534  0.2691930491013052  0.3676039547590144
  0.5068193169883305  0.2533154339213194  0.6148633338278952
  0.4903270911295095  0.2126276100722621  0.8707181779364874
  0.2933368208264740  0.5132758466737753  0.1260821249362434
  0.2631199414866252  0.5047886702428769  0.3628130672677666
  0.2540565234071531  0.5075342025542326  0.6185616945463321
  0.2246756308921886  0.4737514409386708  0.8784371774941401
  0.0162640548964495  0.7532285174618754  0.1221947080743091
  0.0074212750477172  0.7527274773094392  0.3769063144286557
  0.9860466432036521  0.7719865511108591  0.6326324527898165
  0.9946663365494574  0.7645471701528099  0.8651468935194966
  0.7814534012651063  0.5030195148417884  0.1240259512079216
  0.7550347575983475  0.5109737751111560  0.3816533201647296
  0.7170537000559537  0.5099476502615926  0.6191249304303769
  0.7504096406810744  0.4863736883656469  0.8571287241028972
  0.5018732859211735  0.7557380841825370  0.1305368713856286
  0.4907517420135695  0.7601946941004594  0.3764044935442495
  0.4818757031737856  0.7351380153308965  0.6271900019844301
  0.4917202765529657  0.7290279406611400  0.8662581999521137
  0.2574621077614676  0.0093335710484529  0.1297228362976497
  0.2593703475438195  0.0099078797509105  0.3810331511087085
  0.2579215141763085  0.0050941856263190  0.6229110700544050
  0.2346237984900254  0.9896676546339553  0.8855397843762550
  0.7562522096645991  0.9937856719144844  0.1116051736438109
  0.7546890313427345  0.0050657504780549  0.3728683458633062
  0.7292293495658708  0.0091785296877381  0.6260149356066110
  0.7542882792741693  0.9846395029444391  0.8798799424327123
  0.9260908164746778  0.1765593107051205  0.0104942408875107
  0.0492293907261793  0.2738047246646652  0.2288402456543015
  0.9484763248013269  0.2291406785094010  0.5079418175583288
  0.0389270137800755  0.2324181909386036  0.7918124281097937
  0.5107407264935179  0.3097951991239610  0.0100918125154111
  0.5038490144931524  0.2113316966104287  0.2379190536306933
  0.4986449909870354  0.2903465719658345  0.5020901376487288
  0.5232945555186479  0.2335373154442202  0.7295862420212174
  0.3423898604339291  0.5131993060074579  0.0150878371024306
  0.2235825042817750  0.5119256996813255  0.2435579355153357
  0.2895977946755638  0.5007738479898818  0.4785254911106641
  0.1848109118462545  0.4735419796164420  0.7463642083848424
  0.0004230336738254  0.7972949160918780  0.9774703712673822
  0.0017299758196495  0.6975613111562371  0.2515614895000097
  0.9706189909340169  0.7988154539292930  0.5193142327315353
  0.9802883741965597  0.7065840451184133  0.7428409451567122
  0.7512194160748731  0.4726501118740029  0.9949691776320262
  0.7841446901062827  0.5526469851481844  0.2703614349571540
  0.7247533681664922  0.4603125686969864  0.5019956246511952
  0.6878643425245528  0.5564662578826460  0.7280480423872818
  0.4539486289966314  0.7352197793143754  0.0189967812933137
  0.5532048354412483  0.7774656223106384  0.2428783250359843
  0.4170884348500364  0.7048756524776486  0.5209779639714796
  0.5560563200238365  0.7701004226506299  0.7319408510029407
  0.2122319665932171  0.9156022248001613  0.9882311446642793
  0.2443996476813050  0.0764657310039148  0.2731400813656611
  0.2807707717428962  0.9349744894723260  0.4880583909183059
  0.2309444518561971  0.0567540618305578  0.7801034225172675
  0.8269275825877241  0.9554227015458887  0.9815574227184788
  0.7108050243422765  0.9966228922951872  0.2570899268706761
  0.7931603670999438  0.0118637580051042  0.4877496856646219
  0.6965866111672478  0.0060164646918495  0.7711005450647317
  0.1318586260896663  0.1627391937964197  0.0890665156072640
  0.1184911057985626  0.0860065743602546  0.4169329154337976
  0.1404692053898662  0.1528762723215240  0.6105536272975646
  0.0780641346628480  0.0669944784156370  0.9100050767666359
  0.6175407554159787  0.1396721914258554  0.1054582909268262
  0.6262135214195328  0.1120366186183032  0.3878770665415280
  0.6625497941477668  0.1957325096206450  0.6012343408542714
  0.6397922904814408  0.0808568573038721  0.9283606237297033
  0.4131932434523878  0.4040931284052836  0.1626591081217886
  0.4191940255725361  0.4581038904934392  0.3420017574203430
  0.3568873027898425  0.3288565182421743  0.6303390875904277
  0.3552740309774789  0.3435367397270413  0.8483901755715801
  0.1905136230226409  0.6373893860544607  0.1057049574688498
  0.1065501887293501  0.5621089122173999  0.3819783438471785
  0.0913476445348318  0.6491345477549576  0.6104028861993066
  0.0996030090037798  0.6379771746502590  0.8740055172399886
  0.9391673121659603  0.3769041334301729  0.0978818364108959
  0.8929986608905742  0.4181503563633200  0.3873381097305006
  0.8121427600892429  0.3848023946185790  0.6508552027298712
  0.8785186701942277  0.3339951845647515  0.8882936266240300
  0.6300688455354471  0.6514154323644417  0.1175350207572794
  0.6154567619168082  0.6000967423558892  0.3848061557372661
  0.6217694782171264  0.6417292548702256  0.5799231168173242
  0.5857342633744927  0.5720281948561774  0.8812771589122990
  0.3701397126369925  0.8518737635468445  0.1563506657745701
  0.4031947106738155  0.9355907556970655  0.3469176666106712
  0.3514477514023145  0.8263095550586849  0.6633281012085179
  0.3588395279167635  0.8906718336575279  0.8555487226772517
  0.8440606169832567  0.8314789801456606  0.1378830636334099
  0.8858114127337602  0.9054563560603254  0.3468624461106384
  0.8390794650724852  0.8394152799902076  0.6496637504352264
  0.8889309929726812  0.8867708120269325  0.8275902527096641
  0.8965471634296830  0.1244993530962647  0.1665587571355206
  0.8503135341992804  0.1399083164713653  0.3503256257332552
  0.8854705911558971  0.0960959060876718  0.6541951865597626
  0.8592574054276260  0.1141243596085686  0.8532565113725036
  0.3710693998222471  0.1817210887838123  0.1085143738756923
  0.3483366778371620  0.1366897190978788  0.4233564906672329
  0.4382448738381419  0.1021991750862905  0.6032467197108174
  0.3295662503114761  0.1017208971647701  0.9357836229636002
  0.1893697883650146  0.3917545505674196  0.1079911268655298
  0.2091622823712840  0.3485270339038817  0.3639343397078281
  0.0997738574824537  0.4076662550902017  0.5797973977511325
  0.0996884132269858  0.3151828061044153  0.9463302599176233
  0.9134234428353809  0.6102874729700063  0.0747083733453878
  0.8406912446763004  0.6438098527774442  0.4193655619267350
  0.8523522545125044  0.6067659638682569  0.6051069285106101
  0.8659017858175151  0.6626376545611870  0.8812238129856232
  0.6356005006163569  0.3651115474736320  0.1492873768967820
  0.6671785142827760  0.3755581418796222  0.3509064252394496
  0.5718729486675451  0.4196390041774334  0.6267873347503287
  0.6391965324821941  0.3320224130937297  0.8543969932544608
  0.4054011736772686  0.6244174751705603  0.1740436412285293
  0.3104884075743092  0.6665074131880920  0.3562770352013482
  0.4198235515036441  0.6005541526129744  0.6749080592307203
  0.3434039332941292  0.6169552883980404  0.8491645007892376
  0.1078998103920222  0.9218772630480311  0.1723359529602443
  0.1669123862044127  0.8781244318400477  0.3484521846260319
  0.0882664777514232  0.8936706585431440  0.6526477009205885
  0.1238188411868079  0.8619708830296070  0.8310781012757199
  0.5862290762772453  0.8918127645116273  0.0973849567964078
  0.6593318503659260  0.8717752918761278  0.3949287762630856
  0.5613114222920544  0.8687897148474888  0.5875719331170886
  0.6638714007009741  0.8475582225573508  0.8929022212875464
 
  0.00000000E+00  0.00000000E+00  0.00000000E+00
  0.00000000E+00  0.00000000E+00  0.00000000E+00
  0.00000000E+00  0.00000000E+00  0.00000000E+00
  0.00000000E+00  0.00000000E+00  0.00000000E+00
  0.00000000E+00  0.00000000E+00  0.00000000E+00
  0.00000000E+00  0.00000000E+00  0.00000000E+00
  0.00000000E+00  0.00000000E+00  0.00000000E+00
  0.00000000E+00  0.00000000E+00  0.00000000E+00
  0.00000000E+00  0.00000000E+00  0.00000000E+00
  0.00000000E+00  0.00000000E+00  0.00000000E+00
  0.00000000E+00  0.00000000E+00  0.00000000E+00
  0.00000000E+00  0.00000000E+00  0.00000000E+00
  0.00000000E+00  0.00000000E+00  0.00000000E+00
  0.00000000E+00  0.00000000E+00  0.00000000E+00
  0.00000000E+00  0.00000000E+00  0.00000000E+00
  0.00000000E+00  0.00000000E+00  0.00000000E+00
  0.00000000E+00  0.00000000E+00  0.00000000E+00
  0.00000000E+00  0.00000000E+00  0.00000000E+00
  0.00000000E+00  0.00000000E+00  0.00000000E+00
  0.00000000E+00  0.00000000E+00  0.00000000E+00
  0.00000000E+00  0.00000000E+00  0.00000000E+00
  0.00000000E+00  0.00000000E+00  0.00000000E+00
  0.00000000E+00  0.00000000E+00  0.00000000E+00
  0.00000000E+00  0.00000000E+00  0.00000000E+00
  0.00000000E+00  0.00000000E+00  0.00000000E+00
  0.00000000E+00  0.00000000E+00  0.00000000E+00
  0.00000000E+00  0.00000000E+00  0.00000000E+00
  0.00000000E+00  0.00000000E+00  0.00000000E+00
  0.00000000E+00  0.00000000E+00  0.00000000E+00
  0.00000000E+00  0.00000000E+00  0.00000000E+00
  0.00000000E+00  0.00000000E+00  0.00000000E+00
  0.00000000E+00  0.00000000E+00  0.00000000E+00
  0.00000000E+00  0.00000000E+00  0.00000000E+00
  0.00000000E+00  0.00000000E+00  0.00000000E+00
  0.00000000E+00  0.00000000E+00  0.00000000E+00
  0.00000000E+00  0.00000000E+00  0.00000000E+00
  0.00000000E+00  0.00000000E+00  0.00000000E+00
  0.00000000E+00  0.00000000E+00  0.00000000E+00
  0.00000000E+00  0.00000000E+00  0.00000000E+00
  0.00000000E+00  0.00000000E+00  0.00000000E+00
  0.00000000E+00  0.00000000E+00  0.00000000E+00
  0.00000000E+00  0.00000000E+00  0.00000000E+00
  0.00000000E+00  0.00000000E+00  0.00000000E+00
  0.00000000E+00  0.00000000E+00  0.00000000E+00
  0.00000000E+00  0.00000000E+00  0.00000000E+00
  0.00000000E+00  0.00000000E+00  0.00000000E+00
  0.00000000E+00  0.00000000E+00  0.00000000E+00
  0.00000000E+00  0.00000000E+00  0.00000000E+00
  0.00000000E+00  0.00000000E+00  0.00000000E+00
  0.00000000E+00  0.00000000E+00  0.00000000E+00
  0.00000000E+00  0.00000000E+00  0.00000000E+00
  0.00000000E+00  0.00000000E+00  0.00000000E+00
  0.00000000E+00  0.00000000E+00  0.00000000E+00
  0.00000000E+00  0.00000000E+00  0.00000000E+00
  0.00000000E+00  0.00000000E+00  0.00000000E+00
  0.00000000E+00  0.00000000E+00  0.00000000E+00
  0.00000000E+00  0.00000000E+00  0.00000000E+00
  0.00000000E+00  0.00000000E+00  0.00000000E+00
  0.00000000E+00  0.00000000E+00  0.00000000E+00
  0.00000000E+00  0.00000000E+00  0.00000000E+00
  0.00000000E+00  0.00000000E+00  0.00000000E+00
  0.00000000E+00  0.00000000E+00  0.00000000E+00
  0.00000000E+00  0.00000000E+00  0.00000000E+00
  0.00000000E+00  0.00000000E+00  0.00000000E+00
  0.00000000E+00  0.00000000E+00  0.00000000E+00
  0.00000000E+00  0.00000000E+00  0.00000000E+00
  0.00000000E+00  0.00000000E+00  0.00000000E+00
  0.00000000E+00  0.00000000E+00  0.00000000E+00
  0.00000000E+00  0.00000000E+00  0.00000000E+00
  0.00000000E+00  0.00000000E+00  0.00000000E+00
  0.00000000E+00  0.00000000E+00  0.00000000E+00
  0.00000000E+00  0.00000000E+00  0.00000000E+00
  0.00000000E+00  0.00000000E+00  0.00000000E+00
  0.00000000E+00  0.00000000E+00  0.00000000E+00
  0.00000000E+00  0.00000000E+00  0.00000000E+00
  0.00000000E+00  0.00000000E+00  0.00000000E+00
  0.00000000E+00  0.00000000E+00  0.00000000E+00
  0.00000000E+00  0.00000000E+00  0.00000000E+00
  0.00000000E+00  0.00000000E+00  0.00000000E+00
  0.00000000E+00  0.00000000E+00  0.00000000E+00
  0.00000000E+00  0.00000000E+00  0.00000000E+00
  0.00000000E+00  0.00000000E+00  0.00000000E+00
  0.00000000E+00  0.00000000E+00  0.00000000E+00
  0.00000000E+00  0.00000000E+00  0.00000000E+00
  0.00000000E+00  0.00000000E+00  0.00000000E+00
  0.00000000E+00  0.00000000E+00  0.00000000E+00
  0.00000000E+00  0.00000000E+00  0.00000000E+00
  0.00000000E+00  0.00000000E+00  0.00000000E+00
  0.00000000E+00  0.00000000E+00  0.00000000E+00
  0.00000000E+00  0.00000000E+00  0.00000000E+00
  0.00000000E+00  0.00000000E+00  0.00000000E+00
  0.00000000E+00  0.00000000E+00  0.00000000E+00
  0.00000000E+00  0.00000000E+00  0.00000000E+00
  0.00000000E+00  0.00000000E+00  0.00000000E+00
  0.00000000E+00  0.00000000E+00  0.00000000E+00
  0.00000000E+00  0.00000000E+00  0.00000000E+00
  0.00000000E+00  0.00000000E+00  0.00000000E+00
  0.00000000E+00  0.00000000E+00  0.00000000E+00
  0.00000000E+00  0.00000000E+00  0.00000000E+00
  0.00000000E+00  0.00000000E+00  0.00000000E+00
  0.00000000E+00  0.00000000E+00  0.00000000E+00
  0.00000000E+00  0.00000000E+00  0.00000000E+00
  0.00000000E+00  0.00000000E+00  0.00000000E+00
  0.00000000E+00  0.00000000E+00  0.00000000E+00
  0.00000000E+00  0.00000000E+00  0.00000000E+00
  0.00000000E+00  0.00000000E+00  0.00000000E+00
  0.00000000E+00  0.00000000E+00  0.00000000E+00
  0.00000000E+00  0.00000000E+00  0.00000000E+00
  0.00000000E+00  0.00000000E+00  0.00000000E+00
  0.00000000E+00  0.00000000E+00  0.00000000E+00
  0.00000000E+00  0.00000000E+00  0.00000000E+00
  0.00000000E+00  0.00000000E+00  0.00000000E+00
  0.00000000E+00  0.00000000E+00  0.00000000E+00
  0.00000000E+00  0.00000000E+00  0.00000000E+00
  0.00000000E+00  0.00000000E+00  0.00000000E+00
  0.00000000E+00  0.00000000E+00  0.00000000E+00
  0.00000000E+00  0.00000000E+00  0.00000000E+00
  0.00000000E+00  0.00000000E+00  0.00000000E+00
  0.00000000E+00  0.00000000E+00  0.00000000E+00
  0.00000000E+00  0.00000000E+00  0.00000000E+00
  0.00000000E+00  0.00000000E+00  0.00000000E+00
  0.00000000E+00  0.00000000E+00  0.00000000E+00
  0.00000000E+00  0.00000000E+00  0.00000000E+00
  0.00000000E+00  0.00000000E+00  0.00000000E+00
  0.00000000E+00  0.00000000E+00  0.00000000E+00
  0.00000000E+00  0.00000000E+00  0.00000000E+00
  0.00000000E+00  0.00000000E+00  0.00000000E+00
  0.00000000E+00  0.00000000E+00  0.00000000E+00
  0.00000000E+00  0.00000000E+00  0.00000000E+00
  0.00000000E+00  0.00000000E+00  0.00000000E+00
  0.00000000E+00  0.00000000E+00  0.00000000E+00
  0.00000000E+00  0.00000000E+00  0.00000000E+00
  0.00000000E+00  0.00000000E+00  0.00000000E+00
  0.00000000E+00  0.00000000E+00  0.00000000E+00
  0.00000000E+00  0.00000000E+00  0.00000000E+00
  0.00000000E+00  0.00000000E+00  0.00000000E+00
  0.00000000E+00  0.00000000E+00  0.00000000E+00
  0.00000000E+00  0.00000000E+00  0.00000000E+00
  0.00000000E+00  0.00000000E+00  0.00000000E+00
  0.00000000E+00  0.00000000E+00  0.00000000E+00
  0.00000000E+00  0.00000000E+00  0.00000000E+00
  0.00000000E+00  0.00000000E+00  0.00000000E+00
  0.00000000E+00  0.00000000E+00  0.00000000E+00
  0.00000000E+00  0.00000000E+00  0.00000000E+00
  0.00000000E+00  0.00000000E+00  0.00000000E+00
  0.00000000E+00  0.00000000E+00  0.00000000E+00
  0.00000000E+00  0.00000000E+00  0.00000000E+00
  0.00000000E+00  0.00000000E+00  0.00000000E+00
  0.00000000E+00  0.00000000E+00  0.00000000E+00
  0.00000000E+00  0.00000000E+00  0.00000000E+00
  0.00000000E+00  0.00000000E+00  0.00000000E+00
  0.00000000E+00  0.00000000E+00  0.00000000E+00
  0.00000000E+00  0.00000000E+00  0.00000000E+00
  0.00000000E+00  0.00000000E+00  0.00000000E+00
  0.00000000E+00  0.00000000E+00  0.00000000E+00
  0.00000000E+00  0.00000000E+00  0.00000000E+00
  0.00000000E+00  0.00000000E+00  0.00000000E+00
  0.00000000E+00  0.00000000E+00  0.00000000E+00
  0.00000000E+00  0.00000000E+00  0.00000000E+00
  0.00000000E+00  0.00000000E+00  0.00000000E+00
