Br Cs Tl                                
   1.00000000000000     
    11.7738650000000007  -11.7738650000000007    0.0000000000000000
    11.7738650000000007   11.7738650000000007    0.0000000000000000
     0.0000000000000000    0.0000000000000000   23.5477290000000004
   Br   Cs   Tl
    96    32    32
Direct
  0.0028542504843735  0.2509954846841485  0.0017446279456699
  0.0005319170643491  0.2463310310620923  0.2483143924512974
  0.0011804162900503  0.2530902293462268  0.5015052355163792
 -0.0004471446721622  0.2468823073039127  0.7483325741734137
  0.5047769517364555  0.2483575133036934  0.9984383199234771
  0.4959219626304060  0.2500940175288508  0.2521095375434154
  0.5046538728893480  0.2486366962634713  0.4986212761379379
  0.4962483931774817  0.2499987430476303  0.7520743834999495
  0.2451124572678049  0.4990104148260092 -0.0000225895684814
  0.2551934059287124  0.4988468003456985  0.2501903632082386
  0.2453223568313333  0.5011038278370965  0.5002134383818723
  0.2556218642365898  0.5002266842554988  0.7500356430998694
  0.0047103901398257  0.7486956481674057  0.9986035414080152
 -0.0038357163054694  0.7494320013101954  0.2518770614207462
  0.0046080683594641  0.7488395320071183  0.4986298574467837
 -0.0042462703800371  0.7501604458949199  0.7517804683941965
  0.7507223631455565  0.4950494425315666  0.0000643766945496
  0.7508520566592438  0.5023123260898440  0.2500150926866345
  0.7482949544111177  0.4967588134601610  0.5000541532094469
  0.7507261282007952  0.5021734741370053  0.7500581815011100
  0.5005345368225624  0.7531102773134090  0.0018137566496557
  0.5011662705073121  0.7454051979768885  0.2486877512594153
  0.5014451263700183  0.7517285974414024  0.5022920005541149
  0.4999232658351211  0.7464726975768160  0.7481282959937631
  0.2499718126973297  0.9953103306088852  0.0001326894528406
  0.2510644229959193  0.0037214485061367  0.2500745231826420
  0.2497781117456089  0.9951208812898831  0.5000326607432439
  0.2532903595059580  0.0020920010622742  0.7500397050833393
  0.7456163705128482  0.0001801313904443  0.0000198433596398
  0.7556103328244357 -0.0009382725071093  0.2501404337615203
  0.7450160968637491  0.0007209487662897  0.5000805906563192
  0.7549798628913397 -0.0008154974658266  0.7500420067702931
  0.1243261610627314  0.1225391517680837  0.1238461762097711
  0.1238457684061624  0.1206763147006811  0.3762575298690569
  0.1227744346745867  0.1224192523701776  0.6239513968961889
  0.1245186920753187  0.1203626206558124  0.8758422543265365
  0.6261330120307597  0.1216317295988409  0.1271747303644586
  0.6212430018394556  0.1219938128594798  0.3724604737702407
  0.6239170072131779  0.1210791565850381  0.6273051976211204
  0.6217748141479728  0.1220082079004657  0.8725962849428661
  0.3749106535407831  0.3751530570524176  0.1229593908480628
  0.3793937332318055  0.3782605883050553  0.3786213129001724
  0.3766258845968875  0.3788747491198390  0.6231198142859403
  0.3794827558368333  0.3775328275225160  0.8777417166546563
  0.1268381141249542  0.6220986520509002  0.1271061699718131
  0.1219173534084274  0.6221359994043325  0.3726494926562324
  0.1241334144129110  0.6214023735992993  0.6273872025940357
  0.1223190990350727  0.6221125433952628  0.8727150394992609
  0.8772527699627404  0.3736938275076691  0.1263648403918360
  0.8766207782402579  0.3788031404445735  0.3740738289385783
  0.8780921949886578  0.3772882484135999  0.6255365297758971
  0.8768863294848033  0.3780702180292924  0.8744566835288129
  0.6251025535380732  0.6235848993164683  0.1231316120597315
  0.6240482259711392  0.6206041875671313  0.3760231308531501
  0.6218748792074353  0.6226578253612388  0.6243803932442294
  0.6241719208988983  0.6204327019139523  0.8760029145493674
  0.3762773070039521  0.8735299833046501  0.1273230306169197
  0.3769482254333270  0.8786059797006655  0.3740683287590851
  0.3794199273205097  0.8769024806255749  0.6262104523984470
  0.3769078656088763  0.8782687715107966  0.8741154089087002
  0.8750222246461847  0.8751772203000303  0.1229804910120632
  0.8791919746570200  0.8782154768582315  0.3785201737047033
  0.8760090452782714  0.8785378246248711  0.6231117314280209
  0.8788549068462771  0.8776022083396692  0.8777845941967075
  0.8760157037967592  0.1245548047513473  0.1230569787419576
  0.8708826199590994  0.1266948624296406  0.3766171627965743
  0.8726343837677589  0.1281559009790660  0.6229589182598719
  0.8712009141853102  0.1262596840377931  0.8766205300696510
  0.3746500200948306  0.1220528731953134  0.1234538450178397
  0.3723496096032589  0.1285154869366693  0.3773082192199480
  0.3716152255520753  0.1259032737251618  0.6232640927450671
  0.3727598856856106  0.1281612557084215  0.8772198504376151
  0.1266560210636298  0.3719396322901395  0.1269953708955192
  0.1294212644432587  0.3732669394351192  0.3735299190366579
  0.1280023001428936  0.3722105099183467  0.6272023944799898
  0.1295058244867794  0.3732017173950715  0.8730595915662425
  0.8750615534485480  0.6220162456128145  0.1234677625993138
  0.8724192973912039  0.6279752168460129  0.3771443111354248
  0.8710878033806556  0.6261186571062535  0.6233622435168208
  0.8725934266062099  0.6279498736717691  0.8771539804426431
  0.6278518559605608  0.3740297135600719  0.1264413606183599
  0.6274770872839803  0.3713432510786530  0.3729817075101121
  0.6287209325984495  0.3737946318583615  0.6267720766265689
  0.6274989075578287  0.3710111148746696  0.8733850054126131
  0.3757916327681006  0.6244514732998537  0.1231764609913602
  0.3711994536563588  0.6262164762308687  0.3767951504518255
  0.3731287823045186  0.6285917357238676  0.6231356568800489
  0.3714274130730618  0.6260641864523258  0.8767502357640671
  0.1280828762179649  0.8740451095280668  0.1267728498194516
  0.1280049230863035  0.8710795733911344  0.3723712686551589
  0.1288456809660537  0.8738499795963323  0.6267933865320195
  0.1279984941807598  0.8713195559188300  0.8725807001879392
  0.6264621846355327  0.8724978917198642  0.1269271474001142
  0.6291731579379205  0.8734781190828237  0.3734208273025965
  0.6274596076476797  0.8714956214825222  0.6270556711338668
  0.6293184061678968  0.8734615155650977  0.8733854047651559
  0.0003627258230514 -0.0000327359376106  0.0003978409596736
  0.0005369721116878 -0.0003873791426652  0.2503366631938617
  0.0001849669037476  0.0001056372085513  0.5003436585376092
  0.0002750668288892 -0.0004524376195946  0.7502528283909059
  0.5003122819771105 -0.0001079399626264  0.0003033445065953
  0.5001072940778650 -0.0004044256219720  0.2501804632153624
  0.5000907564086444  0.0002890937747551  0.5002105827636227
  0.5001261525223240 -0.0002071586928052  0.7502344594529398
  0.2501292650785975  0.2499404057253747  0.0001390920651113
  0.2501042206999901  0.2496187765936221  0.2497338134762160
  0.2499560355518526  0.2500617868002353  0.5003373468748459
  0.2501005024678680  0.2497246276838795  0.7500856602114025
 -0.0001086724200147  0.4997098048074191  0.0000074222996758
  0.0001576293477245  0.4996493584597454  0.2496194394696187
  0.0000828105924704  0.5002429962762347  0.4998295675762009
  0.0001254357888193  0.4997938910899915  0.7499636206255750
  0.7503030997978716  0.2496374408073598  0.0001727357625401
  0.7503250174220011  0.2496166779063807  0.2502954026996007
  0.7499043438308551  0.2500037191413505  0.5004299035829113
  0.7502505332481724  0.2497175029406078  0.7502122634224213
  0.5001663577813953  0.4997552966277227  0.0003034019833864
  0.5004075994763230  0.4996952713709090  0.2506313179074932
  0.5001622047827974  0.5003409308447949  0.5003235020802742
  0.5003987607214432  0.4996126057496092  0.7502763086954923
  0.2500560168632233  0.7500297345620027  0.0000532309656767
  0.2501528773463796  0.7497748765950185  0.2502911490589654
  0.2500669555978510  0.7497786337448896  0.5002128598079066
  0.2502731062984407  0.7495993471449217  0.7501998751230061
  0.7499868935997985  0.7499346208913291  0.0001810224621784
  0.7500568387279511  0.7496878202287879  0.2496694416919286
  0.7499382978620343  0.7498407674205180  0.5001810248448663
  0.7502041719971110  0.7497554553990364  0.7502653006845865
  0.0010010074326114  0.2485845093831658  0.1250525353514347
  0.0002906635895242  0.2497316310322107  0.3750775197813221
  0.0005229716803842  0.2499790068202641  0.6249185599848858
  0.0007354994974883  0.2493689656950007  0.8748753497563840
  0.5007843113315705  0.2486817523622428  0.1252778058921727
  0.4999800852368660  0.2497911649194866  0.3753768095708243
  0.5001316085540430  0.2498356496671189  0.6252462937297428
  0.5003496730187147  0.2494626912106522  0.8752323254596954
  0.2509137897376311  0.4987306437321446  0.1250363886995488
  0.2501778781181709  0.4998143909546519  0.3751474609665152
  0.2502915382503776  0.5000963797619604  0.6251025337405951
  0.2504979954764802  0.4996559308876880  0.8750179458813722
  0.0009283490478352  0.7486655334308221  0.1252062645649123
  0.0000595978976479  0.7497549346267742  0.3752528607685002
  0.0000844842838840  0.7499363162734456  0.6251978790697668
  0.0003303376481919  0.7495812195923185  0.8751795802177156
  0.7508589607583014  0.4986142856759345  0.1250023936323565
  0.7501450957629067  0.4995554596446171  0.3750214900537000
  0.7502159671696642  0.4996773572869793  0.6250537810373727
  0.7505358453538353  0.4992664931781270  0.8751255115144972
  0.5008525739370088  0.7486905378456372  0.1252254191035249
  0.5004453151319493  0.7496104220215530  0.3752145182088112
  0.5005418950527475  0.7498187469433658  0.6252430839344778
  0.5006604022614464  0.7494778330861908  0.8752370587946721
  0.2509397540909903  0.9985450741076122  0.1251947431448029
  0.2502828749693349 -0.0004339941852016  0.3751116684867211
  0.2504801141381630  0.9996426188144240  0.6250359502620466
  0.2506650114993497 -0.0007464994682347  0.8750628503092169
  0.7508299377543629 -0.0012210512260331  0.1250851440857924
  0.7501107815710090 -0.0000519179779190  0.3750962573962294
  0.7502884199793468  0.0001515631336323  0.6250313761813238
  0.7504602146112719 -0.0002807415193572  0.8750564946962740
 
  0.00000000E+00  0.00000000E+00  0.00000000E+00
  0.00000000E+00  0.00000000E+00  0.00000000E+00
  0.00000000E+00  0.00000000E+00  0.00000000E+00
  0.00000000E+00  0.00000000E+00  0.00000000E+00
  0.00000000E+00  0.00000000E+00  0.00000000E+00
  0.00000000E+00  0.00000000E+00  0.00000000E+00
  0.00000000E+00  0.00000000E+00  0.00000000E+00
  0.00000000E+00  0.00000000E+00  0.00000000E+00
  0.00000000E+00  0.00000000E+00  0.00000000E+00
  0.00000000E+00  0.00000000E+00  0.00000000E+00
  0.00000000E+00  0.00000000E+00  0.00000000E+00
  0.00000000E+00  0.00000000E+00  0.00000000E+00
  0.00000000E+00  0.00000000E+00  0.00000000E+00
  0.00000000E+00  0.00000000E+00  0.00000000E+00
  0.00000000E+00  0.00000000E+00  0.00000000E+00
  0.00000000E+00  0.00000000E+00  0.00000000E+00
  0.00000000E+00  0.00000000E+00  0.00000000E+00
  0.00000000E+00  0.00000000E+00  0.00000000E+00
  0.00000000E+00  0.00000000E+00  0.00000000E+00
  0.00000000E+00  0.00000000E+00  0.00000000E+00
  0.00000000E+00  0.00000000E+00  0.00000000E+00
  0.00000000E+00  0.00000000E+00  0.00000000E+00
  0.00000000E+00  0.00000000E+00  0.00000000E+00
  0.00000000E+00  0.00000000E+00  0.00000000E+00
  0.00000000E+00  0.00000000E+00  0.00000000E+00
  0.00000000E+00  0.00000000E+00  0.00000000E+00
  0.00000000E+00  0.00000000E+00  0.00000000E+00
  0.00000000E+00  0.00000000E+00  0.00000000E+00
  0.00000000E+00  0.00000000E+00  0.00000000E+00
  0.00000000E+00  0.00000000E+00  0.00000000E+00
  0.00000000E+00  0.00000000E+00  0.00000000E+00
  0.00000000E+00  0.00000000E+00  0.00000000E+00
  0.00000000E+00  0.00000000E+00  0.00000000E+00
  0.00000000E+00  0.00000000E+00  0.00000000E+00
  0.00000000E+00  0.00000000E+00  0.00000000E+00
  0.00000000E+00  0.00000000E+00  0.00000000E+00
  0.00000000E+00  0.00000000E+00  0.00000000E+00
  0.00000000E+00  0.00000000E+00  0.00000000E+00
  0.00000000E+00  0.00000000E+00  0.00000000E+00
  0.00000000E+00  0.00000000E+00  0.00000000E+00
  0.00000000E+00  0.00000000E+00  0.00000000E+00
  0.00000000E+00  0.00000000E+00  0.00000000E+00
  0.00000000E+00  0.00000000E+00  0.00000000E+00
  0.00000000E+00  0.00000000E+00  0.00000000E+00
  0.00000000E+00  0.00000000E+00  0.00000000E+00
  0.00000000E+00  0.00000000E+00  0.00000000E+00
  0.00000000E+00  0.00000000E+00  0.00000000E+00
  0.00000000E+00  0.00000000E+00  0.00000000E+00
  0.00000000E+00  0.00000000E+00  0.00000000E+00
  0.00000000E+00  0.00000000E+00  0.00000000E+00
  0.00000000E+00  0.00000000E+00  0.00000000E+00
  0.00000000E+00  0.00000000E+00  0.00000000E+00
  0.00000000E+00  0.00000000E+00  0.00000000E+00
  0.00000000E+00  0.00000000E+00  0.00000000E+00
  0.00000000E+00  0.00000000E+00  0.00000000E+00
  0.00000000E+00  0.00000000E+00  0.00000000E+00
  0.00000000E+00  0.00000000E+00  0.00000000E+00
  0.00000000E+00  0.00000000E+00  0.00000000E+00
  0.00000000E+00  0.00000000E+00  0.00000000E+00
  0.00000000E+00  0.00000000E+00  0.00000000E+00
  0.00000000E+00  0.00000000E+00  0.00000000E+00
  0.00000000E+00  0.00000000E+00  0.00000000E+00
  0.00000000E+00  0.00000000E+00  0.00000000E+00
  0.00000000E+00  0.00000000E+00  0.00000000E+00
  0.00000000E+00  0.00000000E+00  0.00000000E+00
  0.00000000E+00  0.00000000E+00  0.00000000E+00
  0.00000000E+00  0.00000000E+00  0.00000000E+00
  0.00000000E+00  0.00000000E+00  0.00000000E+00
  0.00000000E+00  0.00000000E+00  0.00000000E+00
  0.00000000E+00  0.00000000E+00  0.00000000E+00
  0.00000000E+00  0.00000000E+00  0.00000000E+00
  0.00000000E+00  0.00000000E+00  0.00000000E+00
  0.00000000E+00  0.00000000E+00  0.00000000E+00
  0.00000000E+00  0.00000000E+00  0.00000000E+00
  0.00000000E+00  0.00000000E+00  0.00000000E+00
  0.00000000E+00  0.00000000E+00  0.00000000E+00
  0.00000000E+00  0.00000000E+00  0.00000000E+00
  0.00000000E+00  0.00000000E+00  0.00000000E+00
  0.00000000E+00  0.00000000E+00  0.00000000E+00
  0.00000000E+00  0.00000000E+00  0.00000000E+00
  0.00000000E+00  0.00000000E+00  0.00000000E+00
  0.00000000E+00  0.00000000E+00  0.00000000E+00
  0.00000000E+00  0.00000000E+00  0.00000000E+00
  0.00000000E+00  0.00000000E+00  0.00000000E+00
  0.00000000E+00  0.00000000E+00  0.00000000E+00
  0.00000000E+00  0.00000000E+00  0.00000000E+00
  0.00000000E+00  0.00000000E+00  0.00000000E+00
  0.00000000E+00  0.00000000E+00  0.00000000E+00
  0.00000000E+00  0.00000000E+00  0.00000000E+00
  0.00000000E+00  0.00000000E+00  0.00000000E+00
  0.00000000E+00  0.00000000E+00  0.00000000E+00
  0.00000000E+00  0.00000000E+00  0.00000000E+00
  0.00000000E+00  0.00000000E+00  0.00000000E+00
  0.00000000E+00  0.00000000E+00  0.00000000E+00
  0.00000000E+00  0.00000000E+00  0.00000000E+00
  0.00000000E+00  0.00000000E+00  0.00000000E+00
  0.00000000E+00  0.00000000E+00  0.00000000E+00
  0.00000000E+00  0.00000000E+00  0.00000000E+00
  0.00000000E+00  0.00000000E+00  0.00000000E+00
  0.00000000E+00  0.00000000E+00  0.00000000E+00
  0.00000000E+00  0.00000000E+00  0.00000000E+00
  0.00000000E+00  0.00000000E+00  0.00000000E+00
  0.00000000E+00  0.00000000E+00  0.00000000E+00
  0.00000000E+00  0.00000000E+00  0.00000000E+00
  0.00000000E+00  0.00000000E+00  0.00000000E+00
  0.00000000E+00  0.00000000E+00  0.00000000E+00
  0.00000000E+00  0.00000000E+00  0.00000000E+00
  0.00000000E+00  0.00000000E+00  0.00000000E+00
  0.00000000E+00  0.00000000E+00  0.00000000E+00
  0.00000000E+00  0.00000000E+00  0.00000000E+00
  0.00000000E+00  0.00000000E+00  0.00000000E+00
  0.00000000E+00  0.00000000E+00  0.00000000E+00
  0.00000000E+00  0.00000000E+00  0.00000000E+00
  0.00000000E+00  0.00000000E+00  0.00000000E+00
  0.00000000E+00  0.00000000E+00  0.00000000E+00
  0.00000000E+00  0.00000000E+00  0.00000000E+00
  0.00000000E+00  0.00000000E+00  0.00000000E+00
  0.00000000E+00  0.00000000E+00  0.00000000E+00
  0.00000000E+00  0.00000000E+00  0.00000000E+00
  0.00000000E+00  0.00000000E+00  0.00000000E+00
  0.00000000E+00  0.00000000E+00  0.00000000E+00
  0.00000000E+00  0.00000000E+00  0.00000000E+00
  0.00000000E+00  0.00000000E+00  0.00000000E+00
  0.00000000E+00  0.00000000E+00  0.00000000E+00
  0.00000000E+00  0.00000000E+00  0.00000000E+00
  0.00000000E+00  0.00000000E+00  0.00000000E+00
  0.00000000E+00  0.00000000E+00  0.00000000E+00
  0.00000000E+00  0.00000000E+00  0.00000000E+00
  0.00000000E+00  0.00000000E+00  0.00000000E+00
  0.00000000E+00  0.00000000E+00  0.00000000E+00
  0.00000000E+00  0.00000000E+00  0.00000000E+00
  0.00000000E+00  0.00000000E+00  0.00000000E+00
  0.00000000E+00  0.00000000E+00  0.00000000E+00
  0.00000000E+00  0.00000000E+00  0.00000000E+00
  0.00000000E+00  0.00000000E+00  0.00000000E+00
  0.00000000E+00  0.00000000E+00  0.00000000E+00
  0.00000000E+00  0.00000000E+00  0.00000000E+00
  0.00000000E+00  0.00000000E+00  0.00000000E+00
  0.00000000E+00  0.00000000E+00  0.00000000E+00
  0.00000000E+00  0.00000000E+00  0.00000000E+00
  0.00000000E+00  0.00000000E+00  0.00000000E+00
  0.00000000E+00  0.00000000E+00  0.00000000E+00
  0.00000000E+00  0.00000000E+00  0.00000000E+00
  0.00000000E+00  0.00000000E+00  0.00000000E+00
  0.00000000E+00  0.00000000E+00  0.00000000E+00
  0.00000000E+00  0.00000000E+00  0.00000000E+00
  0.00000000E+00  0.00000000E+00  0.00000000E+00
  0.00000000E+00  0.00000000E+00  0.00000000E+00
  0.00000000E+00  0.00000000E+00  0.00000000E+00
  0.00000000E+00  0.00000000E+00  0.00000000E+00
  0.00000000E+00  0.00000000E+00  0.00000000E+00
  0.00000000E+00  0.00000000E+00  0.00000000E+00
  0.00000000E+00  0.00000000E+00  0.00000000E+00
  0.00000000E+00  0.00000000E+00  0.00000000E+00
  0.00000000E+00  0.00000000E+00  0.00000000E+00
  0.00000000E+00  0.00000000E+00  0.00000000E+00
  0.00000000E+00  0.00000000E+00  0.00000000E+00
  0.00000000E+00  0.00000000E+00  0.00000000E+00
  0.00000000E+00  0.00000000E+00  0.00000000E+00
  0.00000000E+00  0.00000000E+00  0.00000000E+00
