I Pb In                                 
   1.00000000000000     
    12.6312470000000001  -12.6312470000000001    0.0000000000000000
    12.6312470000000001   12.6312470000000001    0.0000000000000000
     0.0000000000000000    0.0000000000000000   25.2624940000000002
   I    In   Pb
    96    32    32
Direct
  0.0002123085399137  0.2845374258699570  0.9961477768190797
  0.9951073659463142  0.2009491293495680  0.2473423746547289
  0.9844885836287828  0.3029755363321822  0.4971220108820312
  0.9894081033685238  0.1931095223294440  0.7461995617165862
  0.4539149410949264  0.2511472589873300  0.9971878453952917
  0.5311960166816896  0.2690628297750207  0.2521619524140107
  0.4398873615544183  0.2244310415651319  0.5014898892084573
  0.5452263114303507  0.2702222809028594  0.7457783699851853
  0.2267587576898061  0.4562228221984273 -0.0002988519160966
  0.2524710501510483  0.5397377261801346  0.2499316967969041
  0.2269569193662659  0.4746620230598380  0.5015090371888532
  0.2450887054469385  0.5558021724039051  0.7503532080190315
  0.9381632855903745  0.7065184349770436  0.9992561820470346
  0.0165348384825035  0.7813643154199639  0.2441932281855788
  0.9722624295448070  0.7403716501469547  0.4970491884153789
  0.0402723591920795  0.7698757868883773  0.7488851981541912
  0.7701856646145993  0.5028066667516999  0.9950498304245111
  0.6933499111859893  0.4730811529882628  0.2478812044413833
  0.8001408121495349  0.5107098879841790  0.4960028412882868
  0.6967023589455853  0.5070012069872989  0.7433397257911174
  0.4968298667674481  0.7841631928954482  0.9977592542451107
  0.4673812459600069  0.6894674488231664  0.2478902866802201
  0.5069667732948883  0.7683528294506061  0.4967974307778421
  0.5056565836613727  0.6978241610230596  0.7477947722139577
  0.2744849172665873  0.0067586963690462  0.9977832352319898
  0.1988065378297984  0.9884383959633409  0.2498233854430181
  0.3044695620811138  0.0022923897563179  0.4973654631614783
  0.2107534570451501  0.9952007079204571  0.7464578767540958
  0.7078910410732571  0.9595485333217836  0.9972759725047828
  0.7797115501612811  0.0273651406021663  0.2460716331466935
  0.7308166955956695  0.9423550709734843  0.4943297620988518
  0.7546946278472549  0.0448783742907904  0.7424305481723615
  0.1022020614016413  0.1035518230986692  0.1051353957409341
  0.1186412791552039  0.1171412495769991  0.3868891375050502
  0.1459317435084302  0.1500115820610831  0.6187752003854365
  0.1072156618984103  0.1013039364652741  0.8805594076951947
  0.5875120076009755  0.1042931441352402  0.1298094292138383
  0.6041157587070232  0.1066011464857310  0.3668100410425875
  0.6337669009824248  0.1470422855106730  0.6031806902199304
  0.6017204236180934  0.1073915490486526  0.8650134360657269
  0.4256449512104329  0.4290865217908558  0.1377131155233189
  0.4092855306286753  0.4130965983432704  0.3743199202930170
  0.3345283231163688  0.3449329232851875  0.6465767610374321
  0.3896852440201498  0.4003759198800826  0.8687003502922540
  0.0998163189782580  0.5982840497605185  0.1314327667945797
  0.0847550751348292  0.5808683050560211  0.3754472879882524
  0.1215236914256141  0.6288643276671572  0.6117900105981383
  0.0988061820561715  0.6136198355091810  0.8721622357718797
  0.9036414907053762  0.4057329477661301  0.1389700357014571
  0.8937280478443105  0.3901507913894116  0.3317710518422895
  0.8293266839429880  0.3303964863899327  0.6372774698663654
  0.8762085509524078  0.3796572762009368  0.8559960075665271
  0.6104256139784345  0.6066443101418217  0.0944951657050098
  0.5965059779392660  0.5844801938401349  0.3815696952906347
  0.6384727795309856  0.6416874730513863  0.6056783902754604
  0.5895053468882840  0.5913116888465904  0.8891878552660528
  0.3843676777380715  0.8854051616048224  0.1299471932375963
  0.3939948174178395  0.8813828379767704  0.3588812803929125
  0.3291220703355837  0.8336170577949447  0.6271325300684449
  0.3845410989753960  0.8794482901963205  0.8361487920697774
  0.8751381832341064  0.8836394044091096  0.1178090620733604
  0.9017109762437645  0.8984670754224470  0.3666780308633921
  0.8441154192317630  0.8505996697482022  0.6266864819982594
  0.9038155259036840  0.9116958717541090  0.8891262966086000
  0.8628871171194055  0.1327050530030209  0.1028910235865476
  0.8444960388336323  0.1498455770186147  0.3959516869887214
  0.8848309324540300  0.1055930530571324  0.5776934794138820
  0.8431213553948257  0.1486231547973745  0.8965468939983370
  0.3494386747361363  0.1525754894474618  0.1608729371468934
  0.3571391696593890  0.1467943387635833  0.3449068172635205
  0.3992743393514359  0.1012409676840268  0.6445196564655290
  0.3466538971674074  0.1567509165935774  0.8449885727908223
  0.1370505405589180  0.3640296809370432  0.1442448163306078
  0.1450655030642679  0.3528342078704304  0.3412615028268554
  0.0986872586737904  0.3911897932658249  0.6303954098185545
  0.1457949802701439  0.3460347111267323  0.8456318990747491
  0.8387681498194831  0.6548282362982623  0.1519330422136836
  0.8484983414324574  0.6534293822098356  0.3443758504772352
  0.8726884382528414  0.6154577776757316  0.6408946761681297
  0.8504650573494645  0.6481012139444748  0.8315162970454462
  0.6532157611828878  0.3461769232387678  0.0933713987901656
  0.6601487565449703  0.3421929231715818  0.3994546218181840
  0.5895659974693398  0.4047016300950744  0.5796277256986595
  0.6471891193783618  0.3524502878063061  0.8936502749153912
  0.3404472876245149  0.6530261303243657  0.0919234531278048
  0.3476378790703725  0.6504848236736263  0.3946205498808986
  0.3975938569468922  0.6019022931333398  0.6071100576759378
  0.3408397758268151  0.6515381714365923  0.8988115421341965
  0.1375903011837566  0.8538850356749302  0.0903127018448108
  0.1629588183575509  0.8396006428786701  0.3908432538235116
  0.0912869792575437  0.9123793463714596  0.5920590340639048
  0.1380564045096941  0.8634488523280247  0.8908724259942893
  0.6291812234794527  0.8586741809322213  0.1382098140637451
  0.6534831048871123  0.8421610177847372  0.3318364594845923
  0.5833205824235629  0.9153062357942868  0.6400913067011402
  0.6497210289824732  0.8469809566512798  0.8386654286159536
  0.0866077040845940  0.9811294058941119  0.9981889679281453
  0.9607395647815993  0.0292977293444007  0.1923729346653174
  0.9208211524687125  0.9300625080096285  0.5045418270408192
  0.0355535335705100  0.9630316632662549  0.7978466835175990
  0.5276498375731397  0.9581509344330134  0.0473991295441993
  0.4830127132926005  0.0888972135329973  0.2504164697506053
  0.4948615676588077  0.0463292120643985  0.5399942757159804
  0.5643810070783489  0.0736914963346587  0.7259426272400645
  0.2772396512246972  0.2836916224017492  0.9397256834825378
  0.1916827953888813  0.1854984158697640  0.2742646866836880
  0.2229646627995513  0.2897253619098293  0.5477566335456100
  0.1795322875641552  0.1868141423560836  0.7567169482931386
  0.0393815092761667  0.4635251097784562  0.0492885522330631
  0.0694306712016435  0.4780699213635508  0.2530808123428516
  0.0444144047686304  0.5001975420955340  0.5251253544031498
  0.0559226705449251  0.5817745174283430  0.7415063761430943
  0.8090090688441810  0.3088119653270629  0.9726459293864439
  0.7226218613170807  0.2271597502890021  0.3056679341326822
  0.7998447814971067  0.2484734515616603  0.5125825831908104
  0.7333333456347984  0.2235944846053496  0.8033616274389438
  0.5815889404306616  0.4642365326220494  0.0026840615543282
  0.5019740886106815  0.4928383471181119  0.2676632507064199
  0.5230259908716739  0.5681882057908310  0.5118322019051951
  0.5144245104507553  0.5167274135379751  0.7803383214679588
  0.3022448790194420  0.8096205014346692  0.0199653312396167
  0.2813469805087170  0.7571172080978524  0.2984297959946634
  0.3175990005886798  0.8089513109317721  0.4764247471605053
  0.2394028817693432  0.7423654741243746  0.8108482258283285
  0.7568388351623316  0.7617943434940161  0.0575376277826809
  0.8269929660818104  0.7968640983791195  0.2566580134406228
  0.7937937352185154  0.6978616297520346  0.5332755404724908
  0.7383590136308120  0.6898997697340703  0.7200276689446051
  0.9969197412986596  0.2523741973307977  0.1249348827548069
  0.9884655563609230  0.2537915883458141  0.3731453195623726
  0.9887537485414973  0.2441121824141501  0.6231640269237733
  0.9979011895812169  0.2489322834141355  0.8692941334165915
  0.4992595230952010  0.2657469309953130  0.1191668174522384
  0.4943296959924922  0.2568479015628509  0.3799223157922431
  0.4928283556137829  0.2652836474372235  0.6196088651578765
  0.4975951917361125  0.2524426119591998  0.8702393628202050
  0.2644283028508878  0.5011904795068540  0.1234294518009624
  0.2479931206692108  0.4974718997077419  0.3725559348457070
  0.2542268084434637  0.5054834767838327  0.6285366257808903
  0.2438961069414069  0.5065035444293944  0.8772948177381471
  0.0011600845532349  0.7437341776614769  0.1197639975707699
  0.0000716144508702  0.7388217803466625  0.3685459450533081
  0.0063316057652829  0.7679417589108726  0.6238731525104562
  0.9771926824107747  0.7480937315633517  0.8837460207560869
  0.7498287916226126  0.4998442114687163  0.1314143065269646
  0.7556815069359104  0.4924974902511786  0.3686631967631612
  0.7438043217607082  0.4837959023022143  0.6148212269781622
  0.7479771129241602  0.5083128277086382  0.8691835246515600
  0.4933453309892143  0.7348480758849635  0.1246874959501312
  0.5141034252805886  0.7414755310283305  0.3660687006046068
  0.4900134331869074  0.7614428040175460  0.6250382743525174
  0.5056127573090531  0.7562940025397241  0.8688644177802507
  0.2527572382063435  0.0130780824668976  0.1325381945053561
  0.2479579464687551  0.9980595281682345  0.3737693534835013
  0.2510679382512597  0.9935743483733619  0.6188142265474864
  0.2635990437967685  0.0011245659782503  0.8696265049315631
  0.7397836525091415  0.0077729261306202  0.1244209867135740
  0.7432365146365753  0.9842676767977709  0.3720290382016447
  0.7436186237410339  0.0017032306452373  0.6191376919677679
  0.7418853924060974  0.9891417693026198  0.8773763413508640
 
  0.00000000E+00  0.00000000E+00  0.00000000E+00
  0.00000000E+00  0.00000000E+00  0.00000000E+00
  0.00000000E+00  0.00000000E+00  0.00000000E+00
  0.00000000E+00  0.00000000E+00  0.00000000E+00
  0.00000000E+00  0.00000000E+00  0.00000000E+00
  0.00000000E+00  0.00000000E+00  0.00000000E+00
  0.00000000E+00  0.00000000E+00  0.00000000E+00
  0.00000000E+00  0.00000000E+00  0.00000000E+00
  0.00000000E+00  0.00000000E+00  0.00000000E+00
  0.00000000E+00  0.00000000E+00  0.00000000E+00
  0.00000000E+00  0.00000000E+00  0.00000000E+00
  0.00000000E+00  0.00000000E+00  0.00000000E+00
  0.00000000E+00  0.00000000E+00  0.00000000E+00
  0.00000000E+00  0.00000000E+00  0.00000000E+00
  0.00000000E+00  0.00000000E+00  0.00000000E+00
  0.00000000E+00  0.00000000E+00  0.00000000E+00
  0.00000000E+00  0.00000000E+00  0.00000000E+00
  0.00000000E+00  0.00000000E+00  0.00000000E+00
  0.00000000E+00  0.00000000E+00  0.00000000E+00
  0.00000000E+00  0.00000000E+00  0.00000000E+00
  0.00000000E+00  0.00000000E+00  0.00000000E+00
  0.00000000E+00  0.00000000E+00  0.00000000E+00
  0.00000000E+00  0.00000000E+00  0.00000000E+00
  0.00000000E+00  0.00000000E+00  0.00000000E+00
  0.00000000E+00  0.00000000E+00  0.00000000E+00
  0.00000000E+00  0.00000000E+00  0.00000000E+00
  0.00000000E+00  0.00000000E+00  0.00000000E+00
  0.00000000E+00  0.00000000E+00  0.00000000E+00
  0.00000000E+00  0.00000000E+00  0.00000000E+00
  0.00000000E+00  0.00000000E+00  0.00000000E+00
  0.00000000E+00  0.00000000E+00  0.00000000E+00
  0.00000000E+00  0.00000000E+00  0.00000000E+00
  0.00000000E+00  0.00000000E+00  0.00000000E+00
  0.00000000E+00  0.00000000E+00  0.00000000E+00
  0.00000000E+00  0.00000000E+00  0.00000000E+00
  0.00000000E+00  0.00000000E+00  0.00000000E+00
  0.00000000E+00  0.00000000E+00  0.00000000E+00
  0.00000000E+00  0.00000000E+00  0.00000000E+00
  0.00000000E+00  0.00000000E+00  0.00000000E+00
  0.00000000E+00  0.00000000E+00  0.00000000E+00
  0.00000000E+00  0.00000000E+00  0.00000000E+00
  0.00000000E+00  0.00000000E+00  0.00000000E+00
  0.00000000E+00  0.00000000E+00  0.00000000E+00
  0.00000000E+00  0.00000000E+00  0.00000000E+00
  0.00000000E+00  0.00000000E+00  0.00000000E+00
  0.00000000E+00  0.00000000E+00  0.00000000E+00
  0.00000000E+00  0.00000000E+00  0.00000000E+00
  0.00000000E+00  0.00000000E+00  0.00000000E+00
  0.00000000E+00  0.00000000E+00  0.00000000E+00
  0.00000000E+00  0.00000000E+00  0.00000000E+00
  0.00000000E+00  0.00000000E+00  0.00000000E+00
  0.00000000E+00  0.00000000E+00  0.00000000E+00
  0.00000000E+00  0.00000000E+00  0.00000000E+00
  0.00000000E+00  0.00000000E+00  0.00000000E+00
  0.00000000E+00  0.00000000E+00  0.00000000E+00
  0.00000000E+00  0.00000000E+00  0.00000000E+00
  0.00000000E+00  0.00000000E+00  0.00000000E+00
  0.00000000E+00  0.00000000E+00  0.00000000E+00
  0.00000000E+00  0.00000000E+00  0.00000000E+00
  0.00000000E+00  0.00000000E+00  0.00000000E+00
  0.00000000E+00  0.00000000E+00  0.00000000E+00
  0.00000000E+00  0.00000000E+00  0.00000000E+00
  0.00000000E+00  0.00000000E+00  0.00000000E+00
  0.00000000E+00  0.00000000E+00  0.00000000E+00
  0.00000000E+00  0.00000000E+00  0.00000000E+00
  0.00000000E+00  0.00000000E+00  0.00000000E+00
  0.00000000E+00  0.00000000E+00  0.00000000E+00
  0.00000000E+00  0.00000000E+00  0.00000000E+00
  0.00000000E+00  0.00000000E+00  0.00000000E+00
  0.00000000E+00  0.00000000E+00  0.00000000E+00
  0.00000000E+00  0.00000000E+00  0.00000000E+00
  0.00000000E+00  0.00000000E+00  0.00000000E+00
  0.00000000E+00  0.00000000E+00  0.00000000E+00
  0.00000000E+00  0.00000000E+00  0.00000000E+00
  0.00000000E+00  0.00000000E+00  0.00000000E+00
  0.00000000E+00  0.00000000E+00  0.00000000E+00
  0.00000000E+00  0.00000000E+00  0.00000000E+00
  0.00000000E+00  0.00000000E+00  0.00000000E+00
  0.00000000E+00  0.00000000E+00  0.00000000E+00
  0.00000000E+00  0.00000000E+00  0.00000000E+00
  0.00000000E+00  0.00000000E+00  0.00000000E+00
  0.00000000E+00  0.00000000E+00  0.00000000E+00
  0.00000000E+00  0.00000000E+00  0.00000000E+00
  0.00000000E+00  0.00000000E+00  0.00000000E+00
  0.00000000E+00  0.00000000E+00  0.00000000E+00
  0.00000000E+00  0.00000000E+00  0.00000000E+00
  0.00000000E+00  0.00000000E+00  0.00000000E+00
  0.00000000E+00  0.00000000E+00  0.00000000E+00
  0.00000000E+00  0.00000000E+00  0.00000000E+00
  0.00000000E+00  0.00000000E+00  0.00000000E+00
  0.00000000E+00  0.00000000E+00  0.00000000E+00
  0.00000000E+00  0.00000000E+00  0.00000000E+00
  0.00000000E+00  0.00000000E+00  0.00000000E+00
  0.00000000E+00  0.00000000E+00  0.00000000E+00
  0.00000000E+00  0.00000000E+00  0.00000000E+00
  0.00000000E+00  0.00000000E+00  0.00000000E+00
  0.00000000E+00  0.00000000E+00  0.00000000E+00
  0.00000000E+00  0.00000000E+00  0.00000000E+00
  0.00000000E+00  0.00000000E+00  0.00000000E+00
  0.00000000E+00  0.00000000E+00  0.00000000E+00
  0.00000000E+00  0.00000000E+00  0.00000000E+00
  0.00000000E+00  0.00000000E+00  0.00000000E+00
  0.00000000E+00  0.00000000E+00  0.00000000E+00
  0.00000000E+00  0.00000000E+00  0.00000000E+00
  0.00000000E+00  0.00000000E+00  0.00000000E+00
  0.00000000E+00  0.00000000E+00  0.00000000E+00
  0.00000000E+00  0.00000000E+00  0.00000000E+00
  0.00000000E+00  0.00000000E+00  0.00000000E+00
  0.00000000E+00  0.00000000E+00  0.00000000E+00
  0.00000000E+00  0.00000000E+00  0.00000000E+00
  0.00000000E+00  0.00000000E+00  0.00000000E+00
  0.00000000E+00  0.00000000E+00  0.00000000E+00
  0.00000000E+00  0.00000000E+00  0.00000000E+00
  0.00000000E+00  0.00000000E+00  0.00000000E+00
  0.00000000E+00  0.00000000E+00  0.00000000E+00
  0.00000000E+00  0.00000000E+00  0.00000000E+00
  0.00000000E+00  0.00000000E+00  0.00000000E+00
  0.00000000E+00  0.00000000E+00  0.00000000E+00
  0.00000000E+00  0.00000000E+00  0.00000000E+00
  0.00000000E+00  0.00000000E+00  0.00000000E+00
  0.00000000E+00  0.00000000E+00  0.00000000E+00
  0.00000000E+00  0.00000000E+00  0.00000000E+00
  0.00000000E+00  0.00000000E+00  0.00000000E+00
  0.00000000E+00  0.00000000E+00  0.00000000E+00
  0.00000000E+00  0.00000000E+00  0.00000000E+00
  0.00000000E+00  0.00000000E+00  0.00000000E+00
  0.00000000E+00  0.00000000E+00  0.00000000E+00
  0.00000000E+00  0.00000000E+00  0.00000000E+00
  0.00000000E+00  0.00000000E+00  0.00000000E+00
  0.00000000E+00  0.00000000E+00  0.00000000E+00
  0.00000000E+00  0.00000000E+00  0.00000000E+00
  0.00000000E+00  0.00000000E+00  0.00000000E+00
  0.00000000E+00  0.00000000E+00  0.00000000E+00
  0.00000000E+00  0.00000000E+00  0.00000000E+00
  0.00000000E+00  0.00000000E+00  0.00000000E+00
  0.00000000E+00  0.00000000E+00  0.00000000E+00
  0.00000000E+00  0.00000000E+00  0.00000000E+00
  0.00000000E+00  0.00000000E+00  0.00000000E+00
  0.00000000E+00  0.00000000E+00  0.00000000E+00
  0.00000000E+00  0.00000000E+00  0.00000000E+00
  0.00000000E+00  0.00000000E+00  0.00000000E+00
  0.00000000E+00  0.00000000E+00  0.00000000E+00
  0.00000000E+00  0.00000000E+00  0.00000000E+00
  0.00000000E+00  0.00000000E+00  0.00000000E+00
  0.00000000E+00  0.00000000E+00  0.00000000E+00
  0.00000000E+00  0.00000000E+00  0.00000000E+00
  0.00000000E+00  0.00000000E+00  0.00000000E+00
  0.00000000E+00  0.00000000E+00  0.00000000E+00
  0.00000000E+00  0.00000000E+00  0.00000000E+00
  0.00000000E+00  0.00000000E+00  0.00000000E+00
  0.00000000E+00  0.00000000E+00  0.00000000E+00
  0.00000000E+00  0.00000000E+00  0.00000000E+00
  0.00000000E+00  0.00000000E+00  0.00000000E+00
  0.00000000E+00  0.00000000E+00  0.00000000E+00
  0.00000000E+00  0.00000000E+00  0.00000000E+00
  0.00000000E+00  0.00000000E+00  0.00000000E+00
  0.00000000E+00  0.00000000E+00  0.00000000E+00
  0.00000000E+00  0.00000000E+00  0.00000000E+00
  0.00000000E+00  0.00000000E+00  0.00000000E+00
  0.00000000E+00  0.00000000E+00  0.00000000E+00
