Rb Ga Cl                                
   1.00000000000000     
    10.3246929999999999  -10.3246929999999999    0.0000000000000000
    10.3246929999999999   10.3246929999999999    0.0000000000000000
     0.0000000000000000    0.0000000000000000   20.6493870000000008
   Rb   Ga   Cl
    32    32    96
Direct
  0.0032568027814180  0.0148836961465316  0.0074193878052274
  0.0051683548459137  0.0092096137938661  0.2475421862400727
  0.0112616588631641  0.9986860911985928  0.4824582180322941
  0.9903588229350528  0.0183429721113157  0.7640546504634230
  0.5071162926828215  0.9958893588854675  0.0061335548987611
  0.4941149928133403  0.0017547400276853  0.2486997738250994
  0.4889432168934906  0.9924284500181844  0.4958082478212872
  0.5072929514277547  0.0019196584164089  0.7465344473552611
  0.2601549741100643  0.2357575533129531  0.0095571043138477
  0.2535548211129974  0.2414009856206934  0.2491180311482601
  0.2512990332278742  0.2241955866439957  0.4916425983830821
  0.2589644194942755  0.2113025844271024  0.7293400481938881
  0.0101144607797279  0.4908754607100956  0.0129473492777170
  0.9652955029110162  0.5120176504518900  0.2582557216254128
  0.0032154567896338  0.5328852854045989  0.4810005211311258
  0.9709978015825150  0.4792923610747999  0.7405365479121284
  0.7853743932363488  0.2614877826980333  0.0079698623602558
  0.7457893730162704  0.2749315649537436  0.2413112169008663
  0.7377607283780832  0.2566169183839180  0.4862820715932543
  0.7363323713777884  0.2310979746034766  0.7726112490245931
  0.5432587115401296  0.5046526454955813  0.9966847494967248
  0.5013140366133485  0.5159289306075689  0.2520574789847658
  0.4595303231289459  0.5056105273799787  0.4978623346701495
  0.5167981741091392  0.4824801006041461  0.7580987653202852
  0.2570338397057995  0.7693124204013116  0.0172624227296913
  0.2524153770051405  0.7602121383515442  0.2531113220070894
  0.2479061955068378  0.7681082178590189  0.4861399132203345
  0.2861310952148385  0.7542739068229497  0.7496361287148121
  0.7633128939659681  0.7560210373132434  0.0044918807439621
  0.7378231666718402  0.7537800582784634  0.2458046963805934
  0.7427154405408272  0.7939904210655279  0.4767155777805842
  0.7487937055856457  0.7808919106118216  0.7710098485730690
  0.0170264989276172  0.2645287977540683  0.1353204374250049
  0.9973620462036504  0.2613522799564668  0.3791248034254160
  0.0078999589787503  0.2535418483794404  0.6284418661356495
  0.0210419869305271  0.2534990036625916  0.8810863548675120
  0.5065220632529547  0.2526916636836931  0.1264370995487194
  0.4947201175589585  0.2618523101842109  0.3736041057868312
  0.4875967956200633  0.2571977321282871  0.6195574041045664
  0.4809395611447474  0.2350851719305329  0.8788857299848229
  0.2760832444067249  0.4972559344070800  0.1223147710102406
  0.2384205825904019  0.5033910559640931  0.3738043614551232
  0.2420692145600802  0.5057676933508556  0.6266596660211950
  0.2412084261854457  0.5015838366653294  0.8440127703206437
  0.0137445772105669  0.7335333169049448  0.1348924326268930
  0.9946527665529102  0.7630738184197379  0.3691862449014608
  0.9951781540772298  0.7633177275371316  0.6456573010641293
  0.0024575172012913  0.7328599750011180  0.8863946623536362
  0.7513475855904655  0.5077375100962395  0.1243586415859505
  0.7397553014882564  0.5081560178245479  0.3823811047397663
  0.7146023442521799  0.5285393050553623  0.6067424429331922
  0.7638670584828690  0.4909091614060488  0.8724483447121014
  0.5044576378844099  0.7565266189713837  0.1194416455839921
  0.4952475194031332  0.7591470406292138  0.3684358202823337
  0.5089775693614179  0.7371921878160164  0.6222266038535332
  0.5055212225827277  0.7428944253092415  0.8729611747148999
  0.2522097679373337  0.9988732281166400  0.1259658741675445
  0.2491327737948728  0.0117746189937021  0.3722712291176949
  0.2542661861126301  0.9886298655289387  0.6269871350214645
  0.2483593805785844  0.9748837709595606  0.8778910529740264
  0.7638297177143464  0.0188460848249087  0.1282138557626591
  0.7488084738675287  0.0231833530690959  0.3681745756078125
  0.7404163101975385  0.0132388778679475  0.6223635729404169
  0.7569424711749245  0.0003388903549767  0.8840911714396181
  0.0154800158045054  0.2494286118158361  0.0058276681965713
  0.0291845166136072  0.2989329815748606  0.2701175143097778
  0.9620086668297083  0.2180518944748297  0.4861758116054766
  0.0342810661396420  0.2587252617342884  0.7376888925811423
  0.4986334533956310  0.2230896716007199  0.9927326335597807
  0.4870245637623437  0.2888824607268561  0.2599296128357950
  0.5061886834489284  0.2291810044499445  0.4882460729049065
  0.5003997757671258  0.2572972005147547  0.7646057537689911
  0.2311226526441376  0.5554214607764449  0.0255507443555138
  0.2698520321396349  0.4750742427315097  0.2327283533414030
  0.2364077279692930  0.5478250306235161  0.4987033093861916
  0.2893052405279033  0.4252319910750827  0.7575287211099183
  0.0205659803473488  0.7208729252726751  0.0199786835045635
  0.9722555113410646  0.7813522341976296  0.2494897640587347
  0.0078189564813150  0.7567294766898375  0.4815093593302688
  0.9858995295798721  0.7940068722829359  0.7519049262028847
  0.7784852816478063  0.5305905296104558  0.9853899390359712
  0.7369448031318478  0.5005737034843533  0.2563717475157521
  0.6714497799676367  0.5922158933783196  0.5142521169986330
  0.7545943864398328  0.4467537576359543  0.7622642470807313
  0.4823632050154131  0.7299667359762743  0.0098382391292140
  0.4989244368435387  0.7686875521072906  0.2505152747899420
  0.4933388045545830  0.7539196764785050  0.4813132612074807
  0.5142983999575469  0.7775724544104302  0.7477793516376334
  0.2620497192288977  0.9965829744307095  0.9893105674138357
  0.2501684751070864  0.9937158921614643  0.2459337755015505
  0.2458121764319999  0.9971192680744392  0.5030378607640329
  0.2516833149948859  0.9881119386762383  0.7650643791963425
  0.7420379672287404  0.0319100213714380  0.0157188142717637
  0.7528241355203680  0.9771214083147630  0.2369206069477714
  0.7368892757450620  0.0268862975461962  0.5044681190570804
  0.7486823004978352  0.0023697185879160  0.7414098483398488
  0.1270930523093536  0.1166228177943400  0.1281839022737368
  0.1093198925768929  0.1395549325844814  0.3712349861008645
  0.0996179233855094  0.1348328428258882  0.6079714702091069
  0.1255677952612591  0.0829724943515807  0.8792486069453705
  0.6301058133231368  0.1070606700049059  0.1420464628785559
  0.6255814082314081  0.1642859648930980  0.3538489819222099
  0.6533648154935290  0.1406040851859663  0.6320953571267495
  0.5924169159073508  0.1217688703933406  0.8713020499991323
  0.3960678584420397  0.4077036700798329  0.0926001054188398
  0.3639964119636716  0.3585288671801709  0.3913051891379339
  0.3366542494140046  0.3540754012130051  0.6024583750873237
  0.4288196664012314  0.3809330628978091  0.8920854181652674
  0.1102974769859697  0.6203548264332031  0.1657813681450221
  0.0998316367683777  0.6411825647587108  0.3513508412027958
  0.0697320816316377  0.6325801656896668  0.6336983630436334
  0.1329271987460909  0.5971269286081908  0.8071719755035998
  0.8866570021402470  0.3976704835981559  0.1289751999381766
  0.8836142383595864  0.3813525457287941  0.3857576410509374
  0.8572981660609323  0.2506734719384509  0.6298048036683140
  0.9013168822119596  0.3991169095712263  0.8843517965634612
  0.6046005464556682  0.6350191866620065  0.1331317260703041
  0.6178374728910826  0.6536604595180753  0.3611721613105308
  0.6641519307096987  0.6231721330960918  0.6815396767747613
  0.6360990965677739  0.5947321052880016  0.8648010846013768
  0.3873767234081700  0.8649160025627991  0.1271527279613911
  0.3741902820909976  0.8692397996035015  0.3686701798985883
  0.3616374433598049  0.8511662910390246  0.6167461948117852
  0.3974538616763075  0.9099414467476701  0.8760453912286614
  0.8666455964012160  0.8994428422495377  0.1099151911970193
  0.8879761266212179  0.8882779190611354  0.3751208624045420
  0.8510820369770202  0.7549169311389389  0.6155624829705975
  0.8958034688565779  0.8782734791352058  0.8976151361706910
  0.8683086078863653  0.1352373239502233  0.1399505733724390
  0.8798323589968466  0.1553966997338191  0.3406222726086953
  0.8932990097543650  0.0026423744309232  0.6193979990397900
  0.8812510088074982  0.1426947083773520  0.8769824959400452
  0.3727081953433424  0.1216028933315782  0.1287142520406921
  0.3947181765015503  0.1322439543021269  0.3646385144134145
  0.3963485901636141  0.1042647388336174  0.6258688657795994
  0.3461718606808649  0.1575188301898019  0.8701681220451362
  0.1629749523624925  0.3801534715534799  0.1124708139708155
  0.1139916250152964  0.3641988594922972  0.4154131719069378
  0.0725306822607387  0.3824471389373964  0.5956794407413493
  0.1734230736548564  0.4014935052057339  0.9076876995965754
  0.8748042403565749  0.6582117450188282  0.1344284279155238
  0.8698625876041108  0.6578453546937688  0.3696905250643563
  0.8616805969271315  0.4993135413271690  0.6014696509102261
  0.8625126358410795  0.6183777966560362  0.8433876805430380
  0.6448586394299134  0.3711016985066010  0.1097009803932916
  0.5940211602617859  0.3907572058098895  0.3902081661348325
  0.6347496008583503  0.3991481671519688  0.6111010558345518
  0.6681389181622686  0.3651288687018487  0.8992137876232541
  0.3609346629619518  0.6346612305111448  0.1447100396531314
  0.3838505490354082  0.6371433583073250  0.3616021369592398
  0.3973968318793598  0.5972475405983775  0.6455021179256369
  0.3496565576123258  0.5983777512185786  0.8750034326767497
  0.1088822486954162  0.8595879106451153  0.1304325808170454
  0.1170497955343594  0.8696765698361212  0.3623529573309680
  0.0899367925214049  0.8723158331195141  0.6125968062796503
  0.1684703113925774  0.8380567752186728  0.8798659901787607
  0.6240176933589894  0.8640098785508489  0.1132628926157734
  0.6036973617603164  0.8866564059493066  0.3703001859784571
  0.6462331641862895  0.8904979918953561  0.6168252523965133
  0.6333933827845616  0.8569018368980541  0.8968822681959633
 
  0.00000000E+00  0.00000000E+00  0.00000000E+00
  0.00000000E+00  0.00000000E+00  0.00000000E+00
  0.00000000E+00  0.00000000E+00  0.00000000E+00
  0.00000000E+00  0.00000000E+00  0.00000000E+00
  0.00000000E+00  0.00000000E+00  0.00000000E+00
  0.00000000E+00  0.00000000E+00  0.00000000E+00
  0.00000000E+00  0.00000000E+00  0.00000000E+00
  0.00000000E+00  0.00000000E+00  0.00000000E+00
  0.00000000E+00  0.00000000E+00  0.00000000E+00
  0.00000000E+00  0.00000000E+00  0.00000000E+00
  0.00000000E+00  0.00000000E+00  0.00000000E+00
  0.00000000E+00  0.00000000E+00  0.00000000E+00
  0.00000000E+00  0.00000000E+00  0.00000000E+00
  0.00000000E+00  0.00000000E+00  0.00000000E+00
  0.00000000E+00  0.00000000E+00  0.00000000E+00
  0.00000000E+00  0.00000000E+00  0.00000000E+00
  0.00000000E+00  0.00000000E+00  0.00000000E+00
  0.00000000E+00  0.00000000E+00  0.00000000E+00
  0.00000000E+00  0.00000000E+00  0.00000000E+00
  0.00000000E+00  0.00000000E+00  0.00000000E+00
  0.00000000E+00  0.00000000E+00  0.00000000E+00
  0.00000000E+00  0.00000000E+00  0.00000000E+00
  0.00000000E+00  0.00000000E+00  0.00000000E+00
  0.00000000E+00  0.00000000E+00  0.00000000E+00
  0.00000000E+00  0.00000000E+00  0.00000000E+00
  0.00000000E+00  0.00000000E+00  0.00000000E+00
  0.00000000E+00  0.00000000E+00  0.00000000E+00
  0.00000000E+00  0.00000000E+00  0.00000000E+00
  0.00000000E+00  0.00000000E+00  0.00000000E+00
  0.00000000E+00  0.00000000E+00  0.00000000E+00
  0.00000000E+00  0.00000000E+00  0.00000000E+00
  0.00000000E+00  0.00000000E+00  0.00000000E+00
  0.00000000E+00  0.00000000E+00  0.00000000E+00
  0.00000000E+00  0.00000000E+00  0.00000000E+00
  0.00000000E+00  0.00000000E+00  0.00000000E+00
  0.00000000E+00  0.00000000E+00  0.00000000E+00
  0.00000000E+00  0.00000000E+00  0.00000000E+00
  0.00000000E+00  0.00000000E+00  0.00000000E+00
  0.00000000E+00  0.00000000E+00  0.00000000E+00
  0.00000000E+00  0.00000000E+00  0.00000000E+00
  0.00000000E+00  0.00000000E+00  0.00000000E+00
  0.00000000E+00  0.00000000E+00  0.00000000E+00
  0.00000000E+00  0.00000000E+00  0.00000000E+00
  0.00000000E+00  0.00000000E+00  0.00000000E+00
  0.00000000E+00  0.00000000E+00  0.00000000E+00
  0.00000000E+00  0.00000000E+00  0.00000000E+00
  0.00000000E+00  0.00000000E+00  0.00000000E+00
  0.00000000E+00  0.00000000E+00  0.00000000E+00
  0.00000000E+00  0.00000000E+00  0.00000000E+00
  0.00000000E+00  0.00000000E+00  0.00000000E+00
  0.00000000E+00  0.00000000E+00  0.00000000E+00
  0.00000000E+00  0.00000000E+00  0.00000000E+00
  0.00000000E+00  0.00000000E+00  0.00000000E+00
  0.00000000E+00  0.00000000E+00  0.00000000E+00
  0.00000000E+00  0.00000000E+00  0.00000000E+00
  0.00000000E+00  0.00000000E+00  0.00000000E+00
  0.00000000E+00  0.00000000E+00  0.00000000E+00
  0.00000000E+00  0.00000000E+00  0.00000000E+00
  0.00000000E+00  0.00000000E+00  0.00000000E+00
  0.00000000E+00  0.00000000E+00  0.00000000E+00
  0.00000000E+00  0.00000000E+00  0.00000000E+00
  0.00000000E+00  0.00000000E+00  0.00000000E+00
  0.00000000E+00  0.00000000E+00  0.00000000E+00
  0.00000000E+00  0.00000000E+00  0.00000000E+00
  0.00000000E+00  0.00000000E+00  0.00000000E+00
  0.00000000E+00  0.00000000E+00  0.00000000E+00
  0.00000000E+00  0.00000000E+00  0.00000000E+00
  0.00000000E+00  0.00000000E+00  0.00000000E+00
  0.00000000E+00  0.00000000E+00  0.00000000E+00
  0.00000000E+00  0.00000000E+00  0.00000000E+00
  0.00000000E+00  0.00000000E+00  0.00000000E+00
  0.00000000E+00  0.00000000E+00  0.00000000E+00
  0.00000000E+00  0.00000000E+00  0.00000000E+00
  0.00000000E+00  0.00000000E+00  0.00000000E+00
  0.00000000E+00  0.00000000E+00  0.00000000E+00
  0.00000000E+00  0.00000000E+00  0.00000000E+00
  0.00000000E+00  0.00000000E+00  0.00000000E+00
  0.00000000E+00  0.00000000E+00  0.00000000E+00
  0.00000000E+00  0.00000000E+00  0.00000000E+00
  0.00000000E+00  0.00000000E+00  0.00000000E+00
  0.00000000E+00  0.00000000E+00  0.00000000E+00
  0.00000000E+00  0.00000000E+00  0.00000000E+00
  0.00000000E+00  0.00000000E+00  0.00000000E+00
  0.00000000E+00  0.00000000E+00  0.00000000E+00
  0.00000000E+00  0.00000000E+00  0.00000000E+00
  0.00000000E+00  0.00000000E+00  0.00000000E+00
  0.00000000E+00  0.00000000E+00  0.00000000E+00
  0.00000000E+00  0.00000000E+00  0.00000000E+00
  0.00000000E+00  0.00000000E+00  0.00000000E+00
  0.00000000E+00  0.00000000E+00  0.00000000E+00
  0.00000000E+00  0.00000000E+00  0.00000000E+00
  0.00000000E+00  0.00000000E+00  0.00000000E+00
  0.00000000E+00  0.00000000E+00  0.00000000E+00
  0.00000000E+00  0.00000000E+00  0.00000000E+00
  0.00000000E+00  0.00000000E+00  0.00000000E+00
  0.00000000E+00  0.00000000E+00  0.00000000E+00
  0.00000000E+00  0.00000000E+00  0.00000000E+00
  0.00000000E+00  0.00000000E+00  0.00000000E+00
  0.00000000E+00  0.00000000E+00  0.00000000E+00
  0.00000000E+00  0.00000000E+00  0.00000000E+00
  0.00000000E+00  0.00000000E+00  0.00000000E+00
  0.00000000E+00  0.00000000E+00  0.00000000E+00
  0.00000000E+00  0.00000000E+00  0.00000000E+00
  0.00000000E+00  0.00000000E+00  0.00000000E+00
  0.00000000E+00  0.00000000E+00  0.00000000E+00
  0.00000000E+00  0.00000000E+00  0.00000000E+00
  0.00000000E+00  0.00000000E+00  0.00000000E+00
  0.00000000E+00  0.00000000E+00  0.00000000E+00
  0.00000000E+00  0.00000000E+00  0.00000000E+00
  0.00000000E+00  0.00000000E+00  0.00000000E+00
  0.00000000E+00  0.00000000E+00  0.00000000E+00
  0.00000000E+00  0.00000000E+00  0.00000000E+00
  0.00000000E+00  0.00000000E+00  0.00000000E+00
  0.00000000E+00  0.00000000E+00  0.00000000E+00
  0.00000000E+00  0.00000000E+00  0.00000000E+00
  0.00000000E+00  0.00000000E+00  0.00000000E+00
  0.00000000E+00  0.00000000E+00  0.00000000E+00
  0.00000000E+00  0.00000000E+00  0.00000000E+00
  0.00000000E+00  0.00000000E+00  0.00000000E+00
  0.00000000E+00  0.00000000E+00  0.00000000E+00
  0.00000000E+00  0.00000000E+00  0.00000000E+00
  0.00000000E+00  0.00000000E+00  0.00000000E+00
  0.00000000E+00  0.00000000E+00  0.00000000E+00
  0.00000000E+00  0.00000000E+00  0.00000000E+00
  0.00000000E+00  0.00000000E+00  0.00000000E+00
  0.00000000E+00  0.00000000E+00  0.00000000E+00
  0.00000000E+00  0.00000000E+00  0.00000000E+00
  0.00000000E+00  0.00000000E+00  0.00000000E+00
  0.00000000E+00  0.00000000E+00  0.00000000E+00
  0.00000000E+00  0.00000000E+00  0.00000000E+00
  0.00000000E+00  0.00000000E+00  0.00000000E+00
  0.00000000E+00  0.00000000E+00  0.00000000E+00
  0.00000000E+00  0.00000000E+00  0.00000000E+00
  0.00000000E+00  0.00000000E+00  0.00000000E+00
  0.00000000E+00  0.00000000E+00  0.00000000E+00
  0.00000000E+00  0.00000000E+00  0.00000000E+00
  0.00000000E+00  0.00000000E+00  0.00000000E+00
  0.00000000E+00  0.00000000E+00  0.00000000E+00
  0.00000000E+00  0.00000000E+00  0.00000000E+00
  0.00000000E+00  0.00000000E+00  0.00000000E+00
  0.00000000E+00  0.00000000E+00  0.00000000E+00
  0.00000000E+00  0.00000000E+00  0.00000000E+00
  0.00000000E+00  0.00000000E+00  0.00000000E+00
  0.00000000E+00  0.00000000E+00  0.00000000E+00
  0.00000000E+00  0.00000000E+00  0.00000000E+00
  0.00000000E+00  0.00000000E+00  0.00000000E+00
  0.00000000E+00  0.00000000E+00  0.00000000E+00
  0.00000000E+00  0.00000000E+00  0.00000000E+00
  0.00000000E+00  0.00000000E+00  0.00000000E+00
  0.00000000E+00  0.00000000E+00  0.00000000E+00
  0.00000000E+00  0.00000000E+00  0.00000000E+00
  0.00000000E+00  0.00000000E+00  0.00000000E+00
  0.00000000E+00  0.00000000E+00  0.00000000E+00
  0.00000000E+00  0.00000000E+00  0.00000000E+00
  0.00000000E+00  0.00000000E+00  0.00000000E+00
  0.00000000E+00  0.00000000E+00  0.00000000E+00
  0.00000000E+00  0.00000000E+00  0.00000000E+00
  0.00000000E+00  0.00000000E+00  0.00000000E+00
  0.00000000E+00  0.00000000E+00  0.00000000E+00
  0.00000000E+00  0.00000000E+00  0.00000000E+00
