Tl Hg F                                 
   1.00000000000000     
     9.2012190000000000   -9.2012190000000000    0.0000000000000000
     9.2012190000000000    9.2012190000000000    0.0000000000000000
     0.0000000000000000    0.0000000000000000   18.4024380000000001
   F    Hg   Tl
    96    32    32
Direct
  0.1194382233357223  0.1408078790026714  0.0323506904758639
  0.1255167955961820  0.1320647634440913  0.2172812007502949
  0.1148545378720383  0.1402094233494414  0.5229072452250639
  0.1161666353821996  0.1382165561077168  0.7205662789733569
  0.5939118506399518  0.1507289847288425  0.0020422415366808
  0.5987730416827464  0.1531129273722679  0.2488325909558798
  0.6157479153813281  0.1336079855840128  0.4698294150102340
  0.5856912280192202  0.1473976237231352  0.7578240866278552
  0.3823930144544214  0.3599249417882696  0.9700534915152075
  0.3742031942550229  0.3681115075314301  0.2816221514663211
  0.3839440379817901  0.3617114453205342  0.4670848634964283
  0.4047003822929649  0.3364640925465688  0.7670969737512351
  0.1109303797909552  0.6326727687404514  0.9700371508371429
  0.0899247803580663  0.6499037544754324  0.2607462625577024
  0.0988403180505587  0.6414837471526442  0.5020018152773147
  0.0891986136957218  0.6505641158730497  0.7464067768266163
  0.9134262830687429  0.3497361606791035  0.0070921179924976
  0.8828223437436750  0.3750568958663724  0.2246468422626781
  0.8979741175391207  0.3508213086301599  0.5124759168530932
  0.9120868682891539  0.3452171901071490  0.7495175369194842
  0.6060730263259674  0.6533710201251420  0.0216845498654972
  0.6158123384253140  0.6410909082824007  0.2204879941372563
  0.6206429460300414  0.6412040658316189  0.5338509291489028
  0.6169231617650723  0.6369473477105987  0.7128548971369011
  0.4049772229597463  0.8505245983367175  0.0095806560174533
  0.4110512461882926  0.8460094736609216  0.2532725386302352
  0.4093910709866984  0.8509106510787959  0.4990645661105647
  0.4135315275347901  0.8470143894769103  0.7482484748643784
  0.8818501934423072  0.8595443761886186  0.9669044901152579
  0.9065429270460424  0.8425774482887700  0.2696543354452240
  0.8823832549892635  0.8632656002292932  0.4742875154324714
  0.8774044533154661  0.8678597894824214  0.7841474355640728
  0.8587626950068088  0.0897456688231957 -0.0014576026632039
  0.8673211174145800  0.1299878332006783  0.2325035688889463
  0.8649115905088057  0.0983147857856360  0.5055422303825610
  0.8353292945239003  0.1052140543653980  0.7520719033197825
  0.3641401276531187  0.1159467984630198  0.9648408040520188
  0.3654812941056527  0.1168183848013946  0.2817115736662086
  0.3670417325974381  0.1174379489143310  0.4637484667512535
  0.3397857404816924  0.0948529854153138  0.7631470154319547
  0.1561826394828679  0.4065660227660551  0.0152905439754009
  0.1265531306969958  0.3801016132247176  0.2132562530282307
  0.1356825692509259  0.3847962274040885  0.5252256834584139
  0.1430677404129189  0.3890090183499614  0.7166799973574969
  0.8603990450819263  0.6141273250070824  0.9624713624910308
  0.8415480697987301  0.6001206262851767  0.2637658369370550
  0.8663294093919797  0.6183056474072799  0.4665449806563878
  0.8524474750559947  0.6109108306062809  0.7770425576355031
  0.6339032043172572  0.4068714196778701  0.9886055394343665
  0.6557548060201794  0.3989637917914277  0.2559675171104906
  0.6463168603014370  0.4100799904966970  0.5007304861572673
  0.6636751574608157  0.3915617248366310  0.7451721578950817
  0.3569916305494244  0.5899533002111930  0.0027197538358099
  0.3356353101545573  0.6060122419122141  0.2472573026377145
  0.3652228594934493  0.5880720115611541  0.5064450170870008
  0.3355440833321138  0.6070330830955993  0.7454823271766730
  0.1424202923406351  0.9116365343840559  0.0021697660525502
  0.1635806945802664  0.8945788496131122  0.2452789930780098
  0.1253733574783264  0.8869677091706683  0.4793040127414381
  0.1641762548673252  0.8952673746183354  0.7538279031472430
  0.6448966523379708  0.8957504346609687  0.0264809614575584
  0.6443762142577744  0.8947537125373490  0.2204644252425792
  0.6538102764979027  0.9049230228572765  0.5168678851028838
  0.6386705399651953  0.8852870690161295  0.7113887346606529
  0.9765866949089193  0.9669056698972970  0.1335583085574138
  0.0209011910923058  0.0379947433472720  0.3664034267768686
  0.9731810120335144  0.9676835836245640  0.6357242027243611
  0.0331602769303707  0.0312054116289608  0.8670534054194207
  0.4677147929378849  0.0343125441979674  0.1276938812352988
  0.5307397003850277  0.9662796546948589  0.3742870842299696
  0.4671920810184802  0.0353534111616189  0.6235313138083619
  0.5293070471479266  0.9630783190005855  0.8774870889086301
  0.2985894924043450  0.2288376222767231  0.1257081774473808
  0.2010028887042856  0.2316519448018473  0.3738486086708058
  0.2895710549709315  0.2292472258071401  0.6248929299935811
  0.1996559408088787  0.2736764114146950  0.8753892505880361
  0.9674594020766990  0.5476338676072087  0.1231333760177543
  0.9819618727916348  0.4574350851714326  0.3737490137949095
  0.9663583603370562  0.5344219122896262  0.6259272190766924
  0.0229904010019209  0.4637573266732284  0.8739177450370521
  0.7287136014016491  0.2528013193535690  0.1175074102581736
  0.7809793784329510  0.2726519320267690  0.3810374776803814
  0.7164127897226008  0.2148276548788570  0.6179246759054167
  0.7681523026856472  0.2735646312175946  0.8844689798049279
  0.4694537843698350  0.4680971890846121  0.1333384327787897
  0.4904962388169462  0.5358943978821580  0.3673085435351686
  0.4622272367737825  0.4672777348320278  0.6365246287805130
  0.5313914661693704  0.5335887449082012  0.8622384353008049
  0.2241405493107029  0.7162202116546684  0.1163197754626942
  0.2732674666650617  0.7300246406191767  0.3831922675619389
  0.2368034733153808  0.7401776954797411  0.6175273002719879
  0.2706628452721047  0.7821819625953633  0.8846556721072651
  0.7935905290612875  0.7670537169521643  0.1261267230554999
  0.7053392464317210  0.7758639565963857  0.3754943227999988
  0.8001044224876682  0.7289149625942298  0.6255369853208810
  0.7002509658265407  0.7728479338050630  0.8735249984476301
  0.0001880247748182  0.0000112223092654 -0.0003505966738169
  0.9992394980968212  0.0002483355101912  0.2512140751566873
  0.0028879136697358  0.9986714746142179  0.5028596857557095
  0.9990635772307770  0.0001217328235118  0.7519217997908875
  0.4979661351154123  0.0011716114788024  0.0018869242021337
  0.5002291505944740  0.0009410678800343  0.2510357538586534
  0.4985979337385308  0.0043949757471441  0.5014217033800176
  0.5002611068085772 -0.0023001854083388  0.7521644110928796
  0.2495022947149440  0.2503988439532068  0.0011733038586366
  0.2481448300261388  0.2547622348421849  0.2493083883187369
  0.2531340358556960  0.2518391814987107  0.4994173984808669
  0.2486292395276491  0.2537709957272253  0.7544485544234043
  0.9976868306120041  0.5037177753497607  0.0028090869671939
  0.0028572883370908  0.5014730298519522  0.2497777666161780
 -0.0023935815444070  0.4982105652206059  0.5001677292638894
  0.9984782721604996  0.4988817902944557  0.7499248263146380
  0.7519073187002445  0.2532654096216390  0.0012329692214306
  0.7494144704645045  0.2510009100258143  0.2521531159801221
  0.7469887508752847  0.2498135404086158  0.5013764657808686
  0.7501201956803344  0.2486376337662426  0.7486270610407483
  0.4997167558446500  0.5027549247832434  0.0008242077493887
  0.5010835095896724  0.5030722037411667  0.2489773833676988
  0.5060010090127026  0.4982906787442393  0.5029613408631154
  0.4959711686206099  0.5004541123259806  0.7502198595256482
  0.2466195733791024  0.7515992122464780  0.0013601375628427
  0.2511636441791403  0.7521266463363458  0.2491921348820534
  0.2542096538975137  0.7515558078951585  0.5002499747795043
  0.2497344057498745  0.7505002245213639  0.7529417115412814
  0.7510828213424904  0.7471145888689936  0.0008931930125123
  0.7497678399214911  0.7550926961277699  0.2536037583644810
  0.7503943609427479  0.7498842845111079  0.5008408634465072
  0.7475259380156509  0.7523026691835683  0.7497444097915640
  0.9974377218963882  0.2525452376432788  0.1346636860056313
  0.9938553970243720  0.2491951509244873  0.3971458980731535
  0.0235531343524397  0.2698923873493563  0.6269883388996051
  0.9883335063765617  0.2632532279758583  0.8782206037771828
  0.5113418269645820  0.2375719460992446  0.1259411925560250
  0.4848656317108958  0.2349971503114318  0.3719155367503501
  0.4964348017476925  0.2468980545088035  0.6462348692939512
  0.4936442724066022  0.2387146167795602  0.8857942145724591
  0.2615149509300415  0.5062293866054811  0.1255359691885747
  0.2875630818849387  0.5054503855439785  0.3776094722536016
  0.2545119497845320  0.5144295596706669  0.6251809076044494
  0.2336008520301878  0.4857842358807230  0.8957201747620832
 -0.0012497235219046  0.7530573266861161  0.1469489407587062
  0.0015531507311859  0.7472914658321899  0.3885633432786367
  0.0108995207034249  0.7357881521082783  0.6241225862651958
  0.9791972861615841  0.7274534914335967  0.8726506046747646
  0.7589154464431456  0.5063136603518543  0.1493127711477271
  0.7692805276923047  0.4866854340751670  0.3751404539171113
  0.7468097336420928  0.5289924758913029  0.6289922387132629
  0.7384546300892569  0.4916472984382267  0.8724908637462605
  0.5237548125085868  0.7737736242030050  0.1258658379065028
  0.4915667402803654  0.7641251910170413  0.3758435572908552
  0.5121059577951660  0.7684829649910906  0.6288130726713720
  0.4921722561713666  0.7621497603392215  0.8847723740667843
  0.2415724595122200  0.0276191250033982  0.1242593552053501
  0.2345969851507946  0.0240293211537805  0.3721808689299652
  0.2521888692821261  0.0287115401922366  0.6413024505801720
  0.2393490292578294  0.9937030729069776  0.8754591792849752
  0.7645987286095107  0.9912178531139259  0.1232858517315136
  0.7364807120020407  0.9855757309568942  0.3969382841607101
  0.7637945787445952  0.0079849335550259  0.6262598097970629
  0.7550519035494008  0.9722038436057638  0.8810966430954686
 
  0.00000000E+00  0.00000000E+00  0.00000000E+00
  0.00000000E+00  0.00000000E+00  0.00000000E+00
  0.00000000E+00  0.00000000E+00  0.00000000E+00
  0.00000000E+00  0.00000000E+00  0.00000000E+00
  0.00000000E+00  0.00000000E+00  0.00000000E+00
  0.00000000E+00  0.00000000E+00  0.00000000E+00
  0.00000000E+00  0.00000000E+00  0.00000000E+00
  0.00000000E+00  0.00000000E+00  0.00000000E+00
  0.00000000E+00  0.00000000E+00  0.00000000E+00
  0.00000000E+00  0.00000000E+00  0.00000000E+00
  0.00000000E+00  0.00000000E+00  0.00000000E+00
  0.00000000E+00  0.00000000E+00  0.00000000E+00
  0.00000000E+00  0.00000000E+00  0.00000000E+00
  0.00000000E+00  0.00000000E+00  0.00000000E+00
  0.00000000E+00  0.00000000E+00  0.00000000E+00
  0.00000000E+00  0.00000000E+00  0.00000000E+00
  0.00000000E+00  0.00000000E+00  0.00000000E+00
  0.00000000E+00  0.00000000E+00  0.00000000E+00
  0.00000000E+00  0.00000000E+00  0.00000000E+00
  0.00000000E+00  0.00000000E+00  0.00000000E+00
  0.00000000E+00  0.00000000E+00  0.00000000E+00
  0.00000000E+00  0.00000000E+00  0.00000000E+00
  0.00000000E+00  0.00000000E+00  0.00000000E+00
  0.00000000E+00  0.00000000E+00  0.00000000E+00
  0.00000000E+00  0.00000000E+00  0.00000000E+00
  0.00000000E+00  0.00000000E+00  0.00000000E+00
  0.00000000E+00  0.00000000E+00  0.00000000E+00
  0.00000000E+00  0.00000000E+00  0.00000000E+00
  0.00000000E+00  0.00000000E+00  0.00000000E+00
  0.00000000E+00  0.00000000E+00  0.00000000E+00
  0.00000000E+00  0.00000000E+00  0.00000000E+00
  0.00000000E+00  0.00000000E+00  0.00000000E+00
  0.00000000E+00  0.00000000E+00  0.00000000E+00
  0.00000000E+00  0.00000000E+00  0.00000000E+00
  0.00000000E+00  0.00000000E+00  0.00000000E+00
  0.00000000E+00  0.00000000E+00  0.00000000E+00
  0.00000000E+00  0.00000000E+00  0.00000000E+00
  0.00000000E+00  0.00000000E+00  0.00000000E+00
  0.00000000E+00  0.00000000E+00  0.00000000E+00
  0.00000000E+00  0.00000000E+00  0.00000000E+00
  0.00000000E+00  0.00000000E+00  0.00000000E+00
  0.00000000E+00  0.00000000E+00  0.00000000E+00
  0.00000000E+00  0.00000000E+00  0.00000000E+00
  0.00000000E+00  0.00000000E+00  0.00000000E+00
  0.00000000E+00  0.00000000E+00  0.00000000E+00
  0.00000000E+00  0.00000000E+00  0.00000000E+00
  0.00000000E+00  0.00000000E+00  0.00000000E+00
  0.00000000E+00  0.00000000E+00  0.00000000E+00
  0.00000000E+00  0.00000000E+00  0.00000000E+00
  0.00000000E+00  0.00000000E+00  0.00000000E+00
  0.00000000E+00  0.00000000E+00  0.00000000E+00
  0.00000000E+00  0.00000000E+00  0.00000000E+00
  0.00000000E+00  0.00000000E+00  0.00000000E+00
  0.00000000E+00  0.00000000E+00  0.00000000E+00
  0.00000000E+00  0.00000000E+00  0.00000000E+00
  0.00000000E+00  0.00000000E+00  0.00000000E+00
  0.00000000E+00  0.00000000E+00  0.00000000E+00
  0.00000000E+00  0.00000000E+00  0.00000000E+00
  0.00000000E+00  0.00000000E+00  0.00000000E+00
  0.00000000E+00  0.00000000E+00  0.00000000E+00
  0.00000000E+00  0.00000000E+00  0.00000000E+00
  0.00000000E+00  0.00000000E+00  0.00000000E+00
  0.00000000E+00  0.00000000E+00  0.00000000E+00
  0.00000000E+00  0.00000000E+00  0.00000000E+00
  0.00000000E+00  0.00000000E+00  0.00000000E+00
  0.00000000E+00  0.00000000E+00  0.00000000E+00
  0.00000000E+00  0.00000000E+00  0.00000000E+00
  0.00000000E+00  0.00000000E+00  0.00000000E+00
  0.00000000E+00  0.00000000E+00  0.00000000E+00
  0.00000000E+00  0.00000000E+00  0.00000000E+00
  0.00000000E+00  0.00000000E+00  0.00000000E+00
  0.00000000E+00  0.00000000E+00  0.00000000E+00
  0.00000000E+00  0.00000000E+00  0.00000000E+00
  0.00000000E+00  0.00000000E+00  0.00000000E+00
  0.00000000E+00  0.00000000E+00  0.00000000E+00
  0.00000000E+00  0.00000000E+00  0.00000000E+00
  0.00000000E+00  0.00000000E+00  0.00000000E+00
  0.00000000E+00  0.00000000E+00  0.00000000E+00
  0.00000000E+00  0.00000000E+00  0.00000000E+00
  0.00000000E+00  0.00000000E+00  0.00000000E+00
  0.00000000E+00  0.00000000E+00  0.00000000E+00
  0.00000000E+00  0.00000000E+00  0.00000000E+00
  0.00000000E+00  0.00000000E+00  0.00000000E+00
  0.00000000E+00  0.00000000E+00  0.00000000E+00
  0.00000000E+00  0.00000000E+00  0.00000000E+00
  0.00000000E+00  0.00000000E+00  0.00000000E+00
  0.00000000E+00  0.00000000E+00  0.00000000E+00
  0.00000000E+00  0.00000000E+00  0.00000000E+00
  0.00000000E+00  0.00000000E+00  0.00000000E+00
  0.00000000E+00  0.00000000E+00  0.00000000E+00
  0.00000000E+00  0.00000000E+00  0.00000000E+00
  0.00000000E+00  0.00000000E+00  0.00000000E+00
  0.00000000E+00  0.00000000E+00  0.00000000E+00
  0.00000000E+00  0.00000000E+00  0.00000000E+00
  0.00000000E+00  0.00000000E+00  0.00000000E+00
  0.00000000E+00  0.00000000E+00  0.00000000E+00
  0.00000000E+00  0.00000000E+00  0.00000000E+00
  0.00000000E+00  0.00000000E+00  0.00000000E+00
  0.00000000E+00  0.00000000E+00  0.00000000E+00
  0.00000000E+00  0.00000000E+00  0.00000000E+00
  0.00000000E+00  0.00000000E+00  0.00000000E+00
  0.00000000E+00  0.00000000E+00  0.00000000E+00
  0.00000000E+00  0.00000000E+00  0.00000000E+00
  0.00000000E+00  0.00000000E+00  0.00000000E+00
  0.00000000E+00  0.00000000E+00  0.00000000E+00
  0.00000000E+00  0.00000000E+00  0.00000000E+00
  0.00000000E+00  0.00000000E+00  0.00000000E+00
  0.00000000E+00  0.00000000E+00  0.00000000E+00
  0.00000000E+00  0.00000000E+00  0.00000000E+00
  0.00000000E+00  0.00000000E+00  0.00000000E+00
  0.00000000E+00  0.00000000E+00  0.00000000E+00
  0.00000000E+00  0.00000000E+00  0.00000000E+00
  0.00000000E+00  0.00000000E+00  0.00000000E+00
  0.00000000E+00  0.00000000E+00  0.00000000E+00
  0.00000000E+00  0.00000000E+00  0.00000000E+00
  0.00000000E+00  0.00000000E+00  0.00000000E+00
  0.00000000E+00  0.00000000E+00  0.00000000E+00
  0.00000000E+00  0.00000000E+00  0.00000000E+00
  0.00000000E+00  0.00000000E+00  0.00000000E+00
  0.00000000E+00  0.00000000E+00  0.00000000E+00
  0.00000000E+00  0.00000000E+00  0.00000000E+00
  0.00000000E+00  0.00000000E+00  0.00000000E+00
  0.00000000E+00  0.00000000E+00  0.00000000E+00
  0.00000000E+00  0.00000000E+00  0.00000000E+00
  0.00000000E+00  0.00000000E+00  0.00000000E+00
  0.00000000E+00  0.00000000E+00  0.00000000E+00
  0.00000000E+00  0.00000000E+00  0.00000000E+00
  0.00000000E+00  0.00000000E+00  0.00000000E+00
  0.00000000E+00  0.00000000E+00  0.00000000E+00
  0.00000000E+00  0.00000000E+00  0.00000000E+00
  0.00000000E+00  0.00000000E+00  0.00000000E+00
  0.00000000E+00  0.00000000E+00  0.00000000E+00
  0.00000000E+00  0.00000000E+00  0.00000000E+00
  0.00000000E+00  0.00000000E+00  0.00000000E+00
  0.00000000E+00  0.00000000E+00  0.00000000E+00
  0.00000000E+00  0.00000000E+00  0.00000000E+00
  0.00000000E+00  0.00000000E+00  0.00000000E+00
  0.00000000E+00  0.00000000E+00  0.00000000E+00
  0.00000000E+00  0.00000000E+00  0.00000000E+00
  0.00000000E+00  0.00000000E+00  0.00000000E+00
  0.00000000E+00  0.00000000E+00  0.00000000E+00
  0.00000000E+00  0.00000000E+00  0.00000000E+00
  0.00000000E+00  0.00000000E+00  0.00000000E+00
  0.00000000E+00  0.00000000E+00  0.00000000E+00
  0.00000000E+00  0.00000000E+00  0.00000000E+00
  0.00000000E+00  0.00000000E+00  0.00000000E+00
  0.00000000E+00  0.00000000E+00  0.00000000E+00
  0.00000000E+00  0.00000000E+00  0.00000000E+00
  0.00000000E+00  0.00000000E+00  0.00000000E+00
  0.00000000E+00  0.00000000E+00  0.00000000E+00
  0.00000000E+00  0.00000000E+00  0.00000000E+00
  0.00000000E+00  0.00000000E+00  0.00000000E+00
  0.00000000E+00  0.00000000E+00  0.00000000E+00
  0.00000000E+00  0.00000000E+00  0.00000000E+00
  0.00000000E+00  0.00000000E+00  0.00000000E+00
  0.00000000E+00  0.00000000E+00  0.00000000E+00
  0.00000000E+00  0.00000000E+00  0.00000000E+00
  0.00000000E+00  0.00000000E+00  0.00000000E+00
  0.00000000E+00  0.00000000E+00  0.00000000E+00
  0.00000000E+00  0.00000000E+00  0.00000000E+00
