Tl Br Cd                                
   1.00000000000000     
    11.0683779999999992  -11.0683779999999992    0.0000000000000000
    11.0683779999999992   11.0683779999999992    0.0000000000000000
     0.0000000000000000    0.0000000000000000   22.1367569999999994
   Br   Cd   Tl
    96    32    32
Direct
  0.9762605885638905  0.2083713888656023  0.9864705222665646
  0.9916676147515103  0.3299362379744239  0.2640076979549028
  0.9934415781820465  0.2081505101241410  0.4952716711171494
  0.0010006102928852  0.2974584914087754  0.7549450393352111
  0.4125481735531061  0.2111804999531450  0.0089108187930412
  0.5180358492570317  0.2886908274209340  0.2419401725381134
  0.4419844645817556  0.2373030707427992  0.5201285828649487
  0.5508218468374985  0.2446876683450564  0.7293354482501246
  0.3517502624536263  0.4625756096883009  0.9778434105982343
  0.2467830996725036  0.5180171049115239  0.2759449902861942
  0.2915781323292536  0.4837440702353691  0.5099835447905757
  0.2082092015803339  0.5175379546095483  0.7497342854218121
  0.9124542338248542  0.7150525283266228  0.9782054878678846
  0.0619772821620475  0.7411495533561050  0.2612851251456990
  0.9470580797201774  0.7654161454215938  0.5007176732515651
  0.0523730630228868  0.7528029983585794  0.7408490421473631
  0.7709546074815750  0.4878046645986583  0.0177573665312795
  0.7191497292273136  0.4731219703606422  0.2465598997602846
  0.7632772002972034  0.5783904658398176  0.5097480630248283
  0.7530557341344734  0.4353837318067000  0.7335188940884559
  0.4853502450728677  0.7130308226243625  0.9958705626892173
  0.4919125913741303  0.7540845815846460  0.2574491844269881
  0.5141710789707066  0.7288622431477573  0.5092970301284733
  0.5025294373443976  0.8221991195911891  0.7461080884800100
  0.2374849766286690  0.0170206441235441  0.0265351032593423
  0.2235617808999712  0.9507919677156353  0.2438867611860421
  0.2337815516841085  0.0495652248659761  0.5003391274323811
  0.2540650309822627  0.9390921602842067  0.7402437079455161
  0.8238223252852728  0.9475563091480386  0.9940366024542778
  0.7106302242174846  0.0311145423629749  0.2566054435214868
  0.7917230418613120  0.0035152290754135  0.4732654552420750
  0.7024401019776568  0.0071066776041091  0.7531590231367299
  0.1461904622176214  0.1682832704688434  0.1634473319966214
  0.1553606788846863  0.1642595547450701  0.3588306760134424
  0.0917689432879471  0.1086741366273553  0.6497386262554425
  0.1663094890103511  0.1156793982049441  0.8690165079083892
  0.6496446495934028  0.1107626181023995  0.0884820009983601
  0.6165998291331838  0.1631556125824158  0.3960348863735431
  0.6255252533900515  0.0964203436590373  0.5879057599606596
  0.6759381227660742  0.1224506393100329  0.9022055243821639
  0.3021828090304909  0.3538138062076407  0.1376746031569711
  0.3571394847339561  0.3468783428492540  0.3750630759689026
  0.4048789679922681  0.4215933479206016  0.6535727487434282
  0.3490747096853245  0.3574803588913836  0.8259409560611618
  0.1608968732937577  0.6036423129370609  0.0937520616717942
  0.1392474903656550  0.6576527207913697  0.4282003121416180
  0.1067569871524669  0.6110103070312003  0.5987239143063742
  0.1824719220076626  0.6287041707159748  0.9030076391584809
  0.8035937291214198  0.3023215515114993  0.1409941877878717
  0.8342196870961806  0.3609975552905434  0.3997651400305374
  0.9004183272725107  0.4000976978169532  0.5946783189079231
  0.8383870572122484  0.3578319974934809  0.8863476792140150
  0.6468426922529386  0.6382520884642963  0.1264454809294159
  0.6596852672057704  0.6460339203211007  0.3620827864014445
  0.6036373878855834  0.6102535620420818  0.6572041831821731
  0.6854230056359129  0.6180592930036090  0.8630294573031060
  0.3529720758924994  0.8390953118946707  0.1207734446656988
  0.3132878946047455  0.8367387553786444  0.3858986282992360
  0.3985412673432376  0.9077636471561054  0.5923149350676096
  0.3483390756255952  0.8752595026803979  0.9022365193826248
  0.8298421194981073  0.8597689086288490  0.1565127386573994
  0.8557153689027645  0.8388444983875712  0.3401149296066842
  0.9025367418171957  0.9138440756626364  0.6418673326608182
  0.8541066501521486  0.8533858659179346  0.8259220187490046
  0.9295553222699023  0.0864970203914921  0.1344996224480181
  0.9080347671366543  0.1279582328079813  0.3265624743763164
  0.8448917675044936  0.1612482206955246  0.6403792099165251
  0.9147627546276906  0.0960425696894620  0.8370705279810042
  0.4132418120560478  0.1019508449140757  0.1544632588570034
  0.3852863484129129  0.0774050400272723  0.3525563256650877
  0.3396389536414387  0.1443693006794397  0.6550312993105664
  0.4412339947405932  0.1026783406412597  0.8477429054078478
  0.0564487930946675  0.3778740320148566  0.1020745906361399
  0.1025916725783887  0.4032269061235076  0.4133448935514791
  0.1448373515352732  0.3526924743669337  0.6187118658146681
  0.1118451113595482  0.3742993805526136  0.9110418659648426
  0.9114305223094722  0.6121651316071060  0.1362957655152177
  0.9109515244387467  0.5955305697573730  0.3516766922916832
  0.8608869858844076  0.6483176382518321  0.6628153705859793
  0.9593123995699580  0.5776253338939206  0.8440727321591742
  0.5738976182685183  0.3776347203113274  0.0790004001538950
  0.5936842152667670  0.4295314307152109  0.4061553118076492
  0.6505207133940174  0.3765054417378611  0.5761418474654122
  0.5905724782372942  0.3479390142439282  0.8900243903532803
  0.4132345877877110  0.5880093472214648  0.1519906783090692
  0.4066725680983141  0.6043366636757922  0.3910295005479462
  0.3509108428627192  0.6632388313783494  0.6464390707902601
  0.4329502297101541  0.6225045946175276  0.8407810118849550
  0.0765111263691087  0.8623072382075231  0.0982421885502080
  0.0789259920974609  0.9224529399941040  0.3876382588421125
  0.1397175191429454  0.8657101474568385  0.5960316455507413
  0.1014946641758136  0.8590832523951222  0.8934381309433117
  0.5978032758168369  0.8797001501099360  0.1120138872098631
  0.5824286199559172  0.8926845573656522  0.3887332787422228
  0.6639415100112328  0.8487648352914073  0.6087429836905071
  0.6146443827540683  0.8778352897143800  0.9009179586135098
  0.9699382098291064  0.2528744966434112  0.1547878287535052
  0.0070288473953960  0.2597641157744500  0.3757706379757685
  0.9934393129158126  0.2528521518978816  0.6213335804439314
  0.9837716667131104  0.2557784092299407  0.8719273043170004
  0.4561471185030576  0.2744810149431582  0.1294742718793856
  0.5053154947553684  0.2841375570887864  0.4084440493135304
  0.5145529591403445  0.2928243696440597  0.6208671976829538
  0.4476753506242223  0.2619419744600643  0.8982444438292070
  0.2965541237049206  0.5097384769170473  0.0855144339705679
  0.2378210225369171  0.5227862611443383  0.3935234526903206
  0.2506970195934302  0.5096521077349452  0.6297467447443720
  0.2428758438407885  0.4766810614536428  0.8777830377561090
  0.9436652666863861  0.7646769627338723  0.0927020737742005
  0.0086749826371344  0.7524689553801004  0.3766094647376632
  0.9959578417163755  0.7552156529298040  0.6215967340726725
  0.9824342624098904  0.7489906119550095  0.8627678976073088
  0.7136503559917822  0.4665819542287937  0.1280855068731526
  0.7608704456682585  0.5143289759497254  0.3924451455621739
  0.7525314326308065  0.5146803317184728  0.6231953175574708
  0.8042565874573889  0.5099865562105154  0.8368309716120895
  0.4958069733895657  0.7396342902504641  0.1214067066832352
  0.4720363520795035  0.7638817883416203  0.3816875663683862
  0.4992865290242521  0.7648412280949699  0.6298776353756346
  0.4871985970114390  0.7749051816707144  0.8730879743370079
  0.2519927925142083  0.0354750420765605  0.1427386639530095
  0.2361390158362218  0.9999045244504478  0.3763218836065422
  0.2497372666338426  0.0068024787530948  0.6207779294875783
  0.2944058341879576  0.0166333120749048  0.8439011068281080
  0.7776915750246846  0.0105692714324938  0.1070700341693873
  0.7991626309513512  0.0011798965437947  0.3555524162310167
  0.7508052877304889  0.9997559919573109  0.6359353491506430
  0.7774705613847395  0.9947590773486059  0.8772934340942844
  0.0328323949493433  0.0075310090710757  0.9860222617130986
  0.0133498027897921  0.9415105889617910  0.2414740743099672
  0.0086818485098949  0.9942772995289890  0.5202033266733199
  0.0371895383400874  0.9646667895754610  0.7581746549241474
  0.4917772229535478  0.0017384280524209  0.0219728664116674
  0.5157684559154488  0.9628802643703235  0.2536569256904602
  0.4893904612774123  0.0289073518292796  0.4808191510552391
  0.5020773531904337  0.0361580894050581  0.7039662052567459
  0.1811300417287633  0.2438320653142433  0.0252220132408545
  0.3028350215763421  0.2254104632793363  0.2666982058481228
  0.2236727776097358  0.2649160579136055  0.4878816819930247
  0.2044925748519249  0.2428204626980212  0.7389651756050594
  0.9844596434406832  0.5147500278521495  0.0065456963070938
  0.0537046086267469  0.5281590147920290  0.2264825420217938
  0.9802263901537557  0.5347705270571030  0.4897982041216285
  0.0078733364468977  0.5004203869746293  0.7034303855848204
  0.7327579836411706  0.2669611756315602  0.0019063490727879
  0.7324151094887147  0.2532608003686426  0.2794289097369438
  0.7670737848893597  0.2178588762638192  0.5068021306770312
  0.7497003836599793  0.2134565132171351  0.7763332224627549
  0.5619031093202185  0.5231633132032627  0.9686147762713678
  0.5078897329777528  0.5029980737218445  0.2809573980494419
  0.5011439310407260  0.5256640130727156  0.5257527927228864
  0.5360922939886740  0.4721309259490268  0.7658766046346011
  0.2275032926883018  0.7791562465768825  0.0114664345693784
  0.2788026885474011  0.7332645264486093  0.2400950064686095
  0.2791807896065370  0.7513047960316867  0.5228421818003554
  0.2593166223597909  0.7210202480454410  0.7800657186537561
  0.6979728062411666  0.7626579825710041  0.0073975346556470
  0.7747718882558620  0.6825953985295126  0.2443409557027301
  0.7295473344007363  0.7873611465493545  0.4707688383529351
  0.7069300326163366  0.7611793780887830  0.7389858041572984
 
  0.00000000E+00  0.00000000E+00  0.00000000E+00
  0.00000000E+00  0.00000000E+00  0.00000000E+00
  0.00000000E+00  0.00000000E+00  0.00000000E+00
  0.00000000E+00  0.00000000E+00  0.00000000E+00
  0.00000000E+00  0.00000000E+00  0.00000000E+00
  0.00000000E+00  0.00000000E+00  0.00000000E+00
  0.00000000E+00  0.00000000E+00  0.00000000E+00
  0.00000000E+00  0.00000000E+00  0.00000000E+00
  0.00000000E+00  0.00000000E+00  0.00000000E+00
  0.00000000E+00  0.00000000E+00  0.00000000E+00
  0.00000000E+00  0.00000000E+00  0.00000000E+00
  0.00000000E+00  0.00000000E+00  0.00000000E+00
  0.00000000E+00  0.00000000E+00  0.00000000E+00
  0.00000000E+00  0.00000000E+00  0.00000000E+00
  0.00000000E+00  0.00000000E+00  0.00000000E+00
  0.00000000E+00  0.00000000E+00  0.00000000E+00
  0.00000000E+00  0.00000000E+00  0.00000000E+00
  0.00000000E+00  0.00000000E+00  0.00000000E+00
  0.00000000E+00  0.00000000E+00  0.00000000E+00
  0.00000000E+00  0.00000000E+00  0.00000000E+00
  0.00000000E+00  0.00000000E+00  0.00000000E+00
  0.00000000E+00  0.00000000E+00  0.00000000E+00
  0.00000000E+00  0.00000000E+00  0.00000000E+00
  0.00000000E+00  0.00000000E+00  0.00000000E+00
  0.00000000E+00  0.00000000E+00  0.00000000E+00
  0.00000000E+00  0.00000000E+00  0.00000000E+00
  0.00000000E+00  0.00000000E+00  0.00000000E+00
  0.00000000E+00  0.00000000E+00  0.00000000E+00
  0.00000000E+00  0.00000000E+00  0.00000000E+00
  0.00000000E+00  0.00000000E+00  0.00000000E+00
  0.00000000E+00  0.00000000E+00  0.00000000E+00
  0.00000000E+00  0.00000000E+00  0.00000000E+00
  0.00000000E+00  0.00000000E+00  0.00000000E+00
  0.00000000E+00  0.00000000E+00  0.00000000E+00
  0.00000000E+00  0.00000000E+00  0.00000000E+00
  0.00000000E+00  0.00000000E+00  0.00000000E+00
  0.00000000E+00  0.00000000E+00  0.00000000E+00
  0.00000000E+00  0.00000000E+00  0.00000000E+00
  0.00000000E+00  0.00000000E+00  0.00000000E+00
  0.00000000E+00  0.00000000E+00  0.00000000E+00
  0.00000000E+00  0.00000000E+00  0.00000000E+00
  0.00000000E+00  0.00000000E+00  0.00000000E+00
  0.00000000E+00  0.00000000E+00  0.00000000E+00
  0.00000000E+00  0.00000000E+00  0.00000000E+00
  0.00000000E+00  0.00000000E+00  0.00000000E+00
  0.00000000E+00  0.00000000E+00  0.00000000E+00
  0.00000000E+00  0.00000000E+00  0.00000000E+00
  0.00000000E+00  0.00000000E+00  0.00000000E+00
  0.00000000E+00  0.00000000E+00  0.00000000E+00
  0.00000000E+00  0.00000000E+00  0.00000000E+00
  0.00000000E+00  0.00000000E+00  0.00000000E+00
  0.00000000E+00  0.00000000E+00  0.00000000E+00
  0.00000000E+00  0.00000000E+00  0.00000000E+00
  0.00000000E+00  0.00000000E+00  0.00000000E+00
  0.00000000E+00  0.00000000E+00  0.00000000E+00
  0.00000000E+00  0.00000000E+00  0.00000000E+00
  0.00000000E+00  0.00000000E+00  0.00000000E+00
  0.00000000E+00  0.00000000E+00  0.00000000E+00
  0.00000000E+00  0.00000000E+00  0.00000000E+00
  0.00000000E+00  0.00000000E+00  0.00000000E+00
  0.00000000E+00  0.00000000E+00  0.00000000E+00
  0.00000000E+00  0.00000000E+00  0.00000000E+00
  0.00000000E+00  0.00000000E+00  0.00000000E+00
  0.00000000E+00  0.00000000E+00  0.00000000E+00
  0.00000000E+00  0.00000000E+00  0.00000000E+00
  0.00000000E+00  0.00000000E+00  0.00000000E+00
  0.00000000E+00  0.00000000E+00  0.00000000E+00
  0.00000000E+00  0.00000000E+00  0.00000000E+00
  0.00000000E+00  0.00000000E+00  0.00000000E+00
  0.00000000E+00  0.00000000E+00  0.00000000E+00
  0.00000000E+00  0.00000000E+00  0.00000000E+00
  0.00000000E+00  0.00000000E+00  0.00000000E+00
  0.00000000E+00  0.00000000E+00  0.00000000E+00
  0.00000000E+00  0.00000000E+00  0.00000000E+00
  0.00000000E+00  0.00000000E+00  0.00000000E+00
  0.00000000E+00  0.00000000E+00  0.00000000E+00
  0.00000000E+00  0.00000000E+00  0.00000000E+00
  0.00000000E+00  0.00000000E+00  0.00000000E+00
  0.00000000E+00  0.00000000E+00  0.00000000E+00
  0.00000000E+00  0.00000000E+00  0.00000000E+00
  0.00000000E+00  0.00000000E+00  0.00000000E+00
  0.00000000E+00  0.00000000E+00  0.00000000E+00
  0.00000000E+00  0.00000000E+00  0.00000000E+00
  0.00000000E+00  0.00000000E+00  0.00000000E+00
  0.00000000E+00  0.00000000E+00  0.00000000E+00
  0.00000000E+00  0.00000000E+00  0.00000000E+00
  0.00000000E+00  0.00000000E+00  0.00000000E+00
  0.00000000E+00  0.00000000E+00  0.00000000E+00
  0.00000000E+00  0.00000000E+00  0.00000000E+00
  0.00000000E+00  0.00000000E+00  0.00000000E+00
  0.00000000E+00  0.00000000E+00  0.00000000E+00
  0.00000000E+00  0.00000000E+00  0.00000000E+00
  0.00000000E+00  0.00000000E+00  0.00000000E+00
  0.00000000E+00  0.00000000E+00  0.00000000E+00
  0.00000000E+00  0.00000000E+00  0.00000000E+00
  0.00000000E+00  0.00000000E+00  0.00000000E+00
  0.00000000E+00  0.00000000E+00  0.00000000E+00
  0.00000000E+00  0.00000000E+00  0.00000000E+00
  0.00000000E+00  0.00000000E+00  0.00000000E+00
  0.00000000E+00  0.00000000E+00  0.00000000E+00
  0.00000000E+00  0.00000000E+00  0.00000000E+00
  0.00000000E+00  0.00000000E+00  0.00000000E+00
  0.00000000E+00  0.00000000E+00  0.00000000E+00
  0.00000000E+00  0.00000000E+00  0.00000000E+00
  0.00000000E+00  0.00000000E+00  0.00000000E+00
  0.00000000E+00  0.00000000E+00  0.00000000E+00
  0.00000000E+00  0.00000000E+00  0.00000000E+00
  0.00000000E+00  0.00000000E+00  0.00000000E+00
  0.00000000E+00  0.00000000E+00  0.00000000E+00
  0.00000000E+00  0.00000000E+00  0.00000000E+00
  0.00000000E+00  0.00000000E+00  0.00000000E+00
  0.00000000E+00  0.00000000E+00  0.00000000E+00
  0.00000000E+00  0.00000000E+00  0.00000000E+00
  0.00000000E+00  0.00000000E+00  0.00000000E+00
  0.00000000E+00  0.00000000E+00  0.00000000E+00
  0.00000000E+00  0.00000000E+00  0.00000000E+00
  0.00000000E+00  0.00000000E+00  0.00000000E+00
  0.00000000E+00  0.00000000E+00  0.00000000E+00
  0.00000000E+00  0.00000000E+00  0.00000000E+00
  0.00000000E+00  0.00000000E+00  0.00000000E+00
  0.00000000E+00  0.00000000E+00  0.00000000E+00
  0.00000000E+00  0.00000000E+00  0.00000000E+00
  0.00000000E+00  0.00000000E+00  0.00000000E+00
  0.00000000E+00  0.00000000E+00  0.00000000E+00
  0.00000000E+00  0.00000000E+00  0.00000000E+00
  0.00000000E+00  0.00000000E+00  0.00000000E+00
  0.00000000E+00  0.00000000E+00  0.00000000E+00
  0.00000000E+00  0.00000000E+00  0.00000000E+00
  0.00000000E+00  0.00000000E+00  0.00000000E+00
  0.00000000E+00  0.00000000E+00  0.00000000E+00
  0.00000000E+00  0.00000000E+00  0.00000000E+00
  0.00000000E+00  0.00000000E+00  0.00000000E+00
  0.00000000E+00  0.00000000E+00  0.00000000E+00
  0.00000000E+00  0.00000000E+00  0.00000000E+00
  0.00000000E+00  0.00000000E+00  0.00000000E+00
  0.00000000E+00  0.00000000E+00  0.00000000E+00
  0.00000000E+00  0.00000000E+00  0.00000000E+00
  0.00000000E+00  0.00000000E+00  0.00000000E+00
  0.00000000E+00  0.00000000E+00  0.00000000E+00
  0.00000000E+00  0.00000000E+00  0.00000000E+00
  0.00000000E+00  0.00000000E+00  0.00000000E+00
  0.00000000E+00  0.00000000E+00  0.00000000E+00
  0.00000000E+00  0.00000000E+00  0.00000000E+00
  0.00000000E+00  0.00000000E+00  0.00000000E+00
  0.00000000E+00  0.00000000E+00  0.00000000E+00
  0.00000000E+00  0.00000000E+00  0.00000000E+00
  0.00000000E+00  0.00000000E+00  0.00000000E+00
  0.00000000E+00  0.00000000E+00  0.00000000E+00
  0.00000000E+00  0.00000000E+00  0.00000000E+00
  0.00000000E+00  0.00000000E+00  0.00000000E+00
  0.00000000E+00  0.00000000E+00  0.00000000E+00
  0.00000000E+00  0.00000000E+00  0.00000000E+00
  0.00000000E+00  0.00000000E+00  0.00000000E+00
  0.00000000E+00  0.00000000E+00  0.00000000E+00
  0.00000000E+00  0.00000000E+00  0.00000000E+00
  0.00000000E+00  0.00000000E+00  0.00000000E+00
  0.00000000E+00  0.00000000E+00  0.00000000E+00
  0.00000000E+00  0.00000000E+00  0.00000000E+00
  0.00000000E+00  0.00000000E+00  0.00000000E+00
  0.00000000E+00  0.00000000E+00  0.00000000E+00
