Na Ca F                                 
   1.00000000000000     
     8.8648190000000007   -8.8648190000000007    0.0000000000000000
     8.8648190000000007    8.8648190000000007    0.0000000000000000
     0.0000000000000000    0.0000000000000000   17.7296380000000013
   Ca   F    Na
    32    96    32
Direct
  0.0001654358202875  0.2494124277294942  0.1185326210684493
  0.9918163745553842  0.2680595906220886  0.3662177372192342
  0.9977423864443361  0.2547831901549453  0.6201537521440947
  0.0075220067332075  0.2431995116272802  0.8698760199443802
  0.5045105953919172  0.2508578700648744  0.1242729779676927
  0.5022892941938623  0.2633937271218449  0.3790111957446432
  0.5033072154425783  0.2445733572959441  0.6326996392434817
  0.4973290677062234  0.2423421048578532  0.8742159276102591
  0.2529253379880414  0.4958948273988089  0.1205772752378573
  0.2387582939811179  0.5178614239060304  0.3784168304871833
  0.2397391767964782  0.4982498186196638  0.6367368610245513
  0.2490621963886604  0.4999362544681540  0.8714417715278009
  0.0040453890936721  0.7525587402736358  0.1255016917353652
  0.9936544334977748  0.7596429086050394  0.3812486703315425
  0.9857475003235355  0.7730661816248467  0.6295334845591388
  0.9960226352394812  0.7479124861492563  0.8779617418201147
  0.7647785321483068  0.4934905065839868  0.1260891343161441
  0.7481183845649970  0.5115235892589945  0.3802016193948762
  0.7499015548263021  0.4953429773123008  0.6386064571411071
  0.7592315103174088  0.4848614137381584  0.8797469628665456
  0.5065483808578427  0.7395253944691790  0.1203983735999235
  0.5077327059324200  0.7621030310396125  0.3730317844189925
  0.4990118906556107  0.7519496160717113  0.6356198752909414
  0.4983799641179854  0.7416990239869867  0.8785184388967274
  0.2593795923494471  0.9876376321991451  0.1222459327954347
  0.2593897300863402  0.9941359150324837  0.3760655053577056
  0.2392869020649934  0.9995586430932233  0.6244108962778046
  0.2438894753993094  0.9900690793009613  0.8705974239364870
  0.7613855747286098  0.9960842286297702  0.1261760440345717
  0.7418895471457132  0.0023746599667296  0.3716754686855858
  0.7444626900863780  0.0053765021524480  0.6206108686238844
  0.7408884186418258  0.9847245775165793  0.8721651896974861
  0.0248927229086130  0.1893752127063512  0.9948169270177843
  0.9438560095816778  0.2617952335815262  0.2421992326999037
  0.0526866481202339  0.2414687478876703  0.4923385335272811
  0.9509539441287033  0.2340135906347081  0.7453529160551420
  0.4996412652871495  0.2946332571743790  0.9988089070557591
  0.4668886578254879  0.2692320838610621  0.2520462190569030
  0.5085162194808444  0.2865176036713561  0.5069743956250314
  0.5317206543954811  0.1906518657994334  0.7531070327599811
  0.3024064706750261  0.5101642145153747  0.9954359221703969
  0.2316732086738028  0.5329734019640952  0.2477230010390946
  0.2681704458110817  0.5245550149913722  0.5100337335520342
  0.1884006600668788  0.5439200905882466  0.7528598943814868
  0.9524456345167177  0.7923592430722393  0.0016777769974949
  0.0142337948504336  0.7104421771675264  0.2539344791849331
  0.9354124246839516  0.7556115586171630  0.5066910976972732
  0.0339231686207883  0.7263469837857457  0.7505070796148375
  0.7129336522371563  0.5212676054082437  0.0041127130390840
  0.8054127634640406  0.5166414173245620  0.2533969767603732
  0.7490806443982126  0.5506631431659039  0.5114631370716449
  0.8190529814927365  0.5009713422649495  0.7583445702756244
  0.5130069137454375  0.6795872031929242  0.0010141286249390
  0.4625892490477835  0.7789357370000388  0.2442547984852324
  0.5476085131677342  0.7591395577779054  0.5058933485460783
  0.5069636252841053  0.8034918253507919  0.7569332454957872
  0.2576881508361369  0.0340889859125155  0.9975842104792029
  0.2965688486330882  0.9957072246253965  0.2495218186887335
  0.2172817342306727  0.0479012428764972  0.4980048998591239
  0.2632449579349743  0.9355585095080582  0.7471195042449835
  0.7914774457583638  0.9977933983556514  0.9983806838607447
  0.7859020583350751  0.0516054527621627  0.2497668384811221
  0.7127596006125799  0.9564915922256104  0.4958045630293570
  0.7518465409870130  0.0484339596071593  0.7475753712596847
  0.1231362209585221  0.1117491424657882  0.1374829069678307
  0.1377679235187490  0.1502775604403103  0.3548746263582145
  0.0881570016279432  0.0970187839774508  0.6467163857212818
  0.1569609019530687  0.1468421889082581  0.8348210529479229
  0.6052121704371920  0.0978280927832137  0.1450990092309930
  0.6507123911089278  0.1601289014435372  0.3915272743723748
  0.5783343590656069  0.0795338658961760  0.6084890090749071
  0.6618363898410884  0.1502018003110105  0.8924431146721178
  0.4241206938252789  0.4219483836560935  0.1308893428786181
  0.3420034123598820  0.3684390577411787  0.4052970506772519
  0.3930512514038360  0.3979312700918663  0.6316839934826942
  0.3492584139446714  0.3460392660307111  0.8341078735698207
  0.1067349127155640  0.6038761659517154  0.0852360345363510
  0.1444930464516898  0.6681205186977865  0.4135645406840677
  0.0849535199631294  0.6084925573189517  0.6051329109959971
  0.1406682354849282  0.6443624176555960  0.9128122297706825
  0.9153432645704325  0.4077035994617917  0.0886474706742694
  0.8412361353726897  0.3552183603421685  0.4054008519036876
  0.9154434269419847  0.4240501999307505  0.6091948951253523
  0.8507021759000357  0.3289508426187033  0.9021697201602602
  0.6124598660100584  0.5978856122569639  0.1635079859896431
  0.6588464989283221  0.6651073619512257  0.3480242691483565
  0.6033937547038154  0.6029559067131339  0.6706551584971173
  0.6451591062301485  0.6297056513276326  0.8439792303244003
  0.4248677797690126  0.9052600824863768  0.0983886476326738
  0.3880957503308995  0.8866701826155273  0.4176534184871241
  0.4079293471346205  0.9103344488549995  0.6128971775817548
  0.3497187631873351  0.8426505837358587  0.9132020790111524
  0.9171589536908000  0.9088685956945144  0.1556601831119850
  0.8631981163231466  0.8727181811660701  0.3451332717801404
  0.9020828722412972  0.9254902859052435  0.6522435551120910
  0.8303528218301526  0.8276494197360019  0.8438431337217813
  0.8372827195530083  0.1649266807993820  0.1040742455061885
  0.8936689604071977  0.1132672640672682  0.3991504932355051
  0.8433771976627042  0.1564443842664395  0.5836460129069043
  0.9033571498837311  0.0841121966678858  0.8736089495359849
  0.3498559744970791  0.1560082667649365  0.1261293671691656
  0.3647342802927929  0.1427592987221417  0.3759138807862673
  0.3472274382245072  0.1409811217265386  0.6612049914696315
  0.4058258715794559  0.0822564880497279  0.8753325307002549
  0.1562278983941638  0.3453752154273412  0.1017653306272226
  0.0875018129033851  0.4198622825878338  0.3551443693147649
  0.1486024039042438  0.3457191543887526  0.6586415599443091
  0.1006571545893164  0.3962207652581192  0.8972934824134255
  0.8414721326755943  0.6610217344662610  0.1203095381720890
  0.9109608201938649  0.5961546560273977  0.3903278170996669
  0.8443235343541032  0.6593382684895129  0.6439311042502226
  0.8976358629731258  0.5979221638239047  0.9162706383301182
  0.6579117794156852  0.3499390195213719  0.1604018947924583
  0.5951962069559744  0.4172112157480675  0.3536756675582532
  0.6541360308962872  0.3444225246996480  0.6580158160795481
  0.6145484237138288  0.3827597602904191  0.8409225522945069
  0.3430006441508036  0.6585672200073174  0.1243310113853461
  0.3775544423257093  0.6343901503607901  0.3597969401613561
  0.3331858585155669  0.6646337603823163  0.6367256008340678
  0.4022056064631236  0.5942556079988324  0.8421810015727998
  0.1635344067218660  0.8374388551281516  0.1057442830569960
  0.0908132191209671  0.9187281877208647  0.3760816250416080
  0.1544129386027355  0.8361905283502844  0.6085063382003921
  0.0860175871838466  0.9047053109053957  0.8884614830474732
  0.6540456919871943  0.8483117457907153  0.1514737701085477
  0.5957340399922983  0.9148313704123247  0.3355737606798715
  0.6673246158767636  0.8361110371152660  0.6375682565867937
  0.5930855572444501  0.8930829045124703  0.9111279614387553
  0.9767910553415522  0.9872063284438637  0.9739506727855171
  0.9562668168650496  0.9830261713621491  0.2687734086787546
  0.0410679232425646  0.0588963970579829  0.4624417354454459
  0.9494136877897710  0.0514529550039367  0.7411892632780106
  0.4490480662946874  0.9672551082978313  0.9741811114039103
  0.5218153479731542  0.9524468897100311  0.2178565792871248
  0.5196549079688204  0.9493348721761381  0.5141677608777145
  0.4622202597518342  0.0128202157551476  0.7224509808964239
  0.2129830920922789  0.1998308802267837  0.0373970013408062
  0.3044984257910061  0.1799901265502175  0.2517719335139565
  0.2341691827824918  0.2269921167241420  0.4498111126890489
  0.2485502826793624  0.2431072228915503  0.7454744968453232
  0.0217202728652842  0.5017186644890143  0.9914334285194552
  0.9854128044948305  0.5346052933419475  0.2817624154329137
  0.9415195933924444  0.5608740840186340  0.5177027106362757
  0.9936895250652542  0.5405352533407485  0.7151286503059364
  0.7992093633860831  0.1880948081419752  0.9759784948791225
  0.7658828213715214  0.2236205968768112  0.2154138965114370
  0.7764407026647366  0.2192182481946699  0.4735881582291501
  0.7113037433825540  0.2313675601006998  0.7707696510174001
  0.4840991202766515  0.4931847302135536  0.0148047449950636
  0.5389364498706464  0.4540359196727745  0.2323603971955640
  0.4223896098557171  0.4387803201602399  0.5091119985606973
  0.5314549461326030  0.5144256368514912  0.7750074912100031
  0.2354804200907070  0.7114994503627059  0.0152587396053781
  0.3090055576800058  0.6921653404345141  0.2462612032963160
  0.2152663258671848  0.7003792108326330  0.5298963016586169
  0.2194355296937473  0.7486864189320145  0.7240669767167106
  0.7961676662549477  0.6932509882533154  0.9983258435943940
  0.7314067083412510  0.7075598418551605  0.2306628950028956
  0.7347015025837114  0.7445161583941786  0.5314831942425526
  0.7247787457653042  0.7280080744402446  0.7453309432076645
 
  0.00000000E+00  0.00000000E+00  0.00000000E+00
  0.00000000E+00  0.00000000E+00  0.00000000E+00
  0.00000000E+00  0.00000000E+00  0.00000000E+00
  0.00000000E+00  0.00000000E+00  0.00000000E+00
  0.00000000E+00  0.00000000E+00  0.00000000E+00
  0.00000000E+00  0.00000000E+00  0.00000000E+00
  0.00000000E+00  0.00000000E+00  0.00000000E+00
  0.00000000E+00  0.00000000E+00  0.00000000E+00
  0.00000000E+00  0.00000000E+00  0.00000000E+00
  0.00000000E+00  0.00000000E+00  0.00000000E+00
  0.00000000E+00  0.00000000E+00  0.00000000E+00
  0.00000000E+00  0.00000000E+00  0.00000000E+00
  0.00000000E+00  0.00000000E+00  0.00000000E+00
  0.00000000E+00  0.00000000E+00  0.00000000E+00
  0.00000000E+00  0.00000000E+00  0.00000000E+00
  0.00000000E+00  0.00000000E+00  0.00000000E+00
  0.00000000E+00  0.00000000E+00  0.00000000E+00
  0.00000000E+00  0.00000000E+00  0.00000000E+00
  0.00000000E+00  0.00000000E+00  0.00000000E+00
  0.00000000E+00  0.00000000E+00  0.00000000E+00
  0.00000000E+00  0.00000000E+00  0.00000000E+00
  0.00000000E+00  0.00000000E+00  0.00000000E+00
  0.00000000E+00  0.00000000E+00  0.00000000E+00
  0.00000000E+00  0.00000000E+00  0.00000000E+00
  0.00000000E+00  0.00000000E+00  0.00000000E+00
  0.00000000E+00  0.00000000E+00  0.00000000E+00
  0.00000000E+00  0.00000000E+00  0.00000000E+00
  0.00000000E+00  0.00000000E+00  0.00000000E+00
  0.00000000E+00  0.00000000E+00  0.00000000E+00
  0.00000000E+00  0.00000000E+00  0.00000000E+00
  0.00000000E+00  0.00000000E+00  0.00000000E+00
  0.00000000E+00  0.00000000E+00  0.00000000E+00
  0.00000000E+00  0.00000000E+00  0.00000000E+00
  0.00000000E+00  0.00000000E+00  0.00000000E+00
  0.00000000E+00  0.00000000E+00  0.00000000E+00
  0.00000000E+00  0.00000000E+00  0.00000000E+00
  0.00000000E+00  0.00000000E+00  0.00000000E+00
  0.00000000E+00  0.00000000E+00  0.00000000E+00
  0.00000000E+00  0.00000000E+00  0.00000000E+00
  0.00000000E+00  0.00000000E+00  0.00000000E+00
  0.00000000E+00  0.00000000E+00  0.00000000E+00
  0.00000000E+00  0.00000000E+00  0.00000000E+00
  0.00000000E+00  0.00000000E+00  0.00000000E+00
  0.00000000E+00  0.00000000E+00  0.00000000E+00
  0.00000000E+00  0.00000000E+00  0.00000000E+00
  0.00000000E+00  0.00000000E+00  0.00000000E+00
  0.00000000E+00  0.00000000E+00  0.00000000E+00
  0.00000000E+00  0.00000000E+00  0.00000000E+00
  0.00000000E+00  0.00000000E+00  0.00000000E+00
  0.00000000E+00  0.00000000E+00  0.00000000E+00
  0.00000000E+00  0.00000000E+00  0.00000000E+00
  0.00000000E+00  0.00000000E+00  0.00000000E+00
  0.00000000E+00  0.00000000E+00  0.00000000E+00
  0.00000000E+00  0.00000000E+00  0.00000000E+00
  0.00000000E+00  0.00000000E+00  0.00000000E+00
  0.00000000E+00  0.00000000E+00  0.00000000E+00
  0.00000000E+00  0.00000000E+00  0.00000000E+00
  0.00000000E+00  0.00000000E+00  0.00000000E+00
  0.00000000E+00  0.00000000E+00  0.00000000E+00
  0.00000000E+00  0.00000000E+00  0.00000000E+00
  0.00000000E+00  0.00000000E+00  0.00000000E+00
  0.00000000E+00  0.00000000E+00  0.00000000E+00
  0.00000000E+00  0.00000000E+00  0.00000000E+00
  0.00000000E+00  0.00000000E+00  0.00000000E+00
  0.00000000E+00  0.00000000E+00  0.00000000E+00
  0.00000000E+00  0.00000000E+00  0.00000000E+00
  0.00000000E+00  0.00000000E+00  0.00000000E+00
  0.00000000E+00  0.00000000E+00  0.00000000E+00
  0.00000000E+00  0.00000000E+00  0.00000000E+00
  0.00000000E+00  0.00000000E+00  0.00000000E+00
  0.00000000E+00  0.00000000E+00  0.00000000E+00
  0.00000000E+00  0.00000000E+00  0.00000000E+00
  0.00000000E+00  0.00000000E+00  0.00000000E+00
  0.00000000E+00  0.00000000E+00  0.00000000E+00
  0.00000000E+00  0.00000000E+00  0.00000000E+00
  0.00000000E+00  0.00000000E+00  0.00000000E+00
  0.00000000E+00  0.00000000E+00  0.00000000E+00
  0.00000000E+00  0.00000000E+00  0.00000000E+00
  0.00000000E+00  0.00000000E+00  0.00000000E+00
  0.00000000E+00  0.00000000E+00  0.00000000E+00
  0.00000000E+00  0.00000000E+00  0.00000000E+00
  0.00000000E+00  0.00000000E+00  0.00000000E+00
  0.00000000E+00  0.00000000E+00  0.00000000E+00
  0.00000000E+00  0.00000000E+00  0.00000000E+00
  0.00000000E+00  0.00000000E+00  0.00000000E+00
  0.00000000E+00  0.00000000E+00  0.00000000E+00
  0.00000000E+00  0.00000000E+00  0.00000000E+00
  0.00000000E+00  0.00000000E+00  0.00000000E+00
  0.00000000E+00  0.00000000E+00  0.00000000E+00
  0.00000000E+00  0.00000000E+00  0.00000000E+00
  0.00000000E+00  0.00000000E+00  0.00000000E+00
  0.00000000E+00  0.00000000E+00  0.00000000E+00
  0.00000000E+00  0.00000000E+00  0.00000000E+00
  0.00000000E+00  0.00000000E+00  0.00000000E+00
  0.00000000E+00  0.00000000E+00  0.00000000E+00
  0.00000000E+00  0.00000000E+00  0.00000000E+00
  0.00000000E+00  0.00000000E+00  0.00000000E+00
  0.00000000E+00  0.00000000E+00  0.00000000E+00
  0.00000000E+00  0.00000000E+00  0.00000000E+00
  0.00000000E+00  0.00000000E+00  0.00000000E+00
  0.00000000E+00  0.00000000E+00  0.00000000E+00
  0.00000000E+00  0.00000000E+00  0.00000000E+00
  0.00000000E+00  0.00000000E+00  0.00000000E+00
  0.00000000E+00  0.00000000E+00  0.00000000E+00
  0.00000000E+00  0.00000000E+00  0.00000000E+00
  0.00000000E+00  0.00000000E+00  0.00000000E+00
  0.00000000E+00  0.00000000E+00  0.00000000E+00
  0.00000000E+00  0.00000000E+00  0.00000000E+00
  0.00000000E+00  0.00000000E+00  0.00000000E+00
  0.00000000E+00  0.00000000E+00  0.00000000E+00
  0.00000000E+00  0.00000000E+00  0.00000000E+00
  0.00000000E+00  0.00000000E+00  0.00000000E+00
  0.00000000E+00  0.00000000E+00  0.00000000E+00
  0.00000000E+00  0.00000000E+00  0.00000000E+00
  0.00000000E+00  0.00000000E+00  0.00000000E+00
  0.00000000E+00  0.00000000E+00  0.00000000E+00
  0.00000000E+00  0.00000000E+00  0.00000000E+00
  0.00000000E+00  0.00000000E+00  0.00000000E+00
  0.00000000E+00  0.00000000E+00  0.00000000E+00
  0.00000000E+00  0.00000000E+00  0.00000000E+00
  0.00000000E+00  0.00000000E+00  0.00000000E+00
  0.00000000E+00  0.00000000E+00  0.00000000E+00
  0.00000000E+00  0.00000000E+00  0.00000000E+00
  0.00000000E+00  0.00000000E+00  0.00000000E+00
  0.00000000E+00  0.00000000E+00  0.00000000E+00
  0.00000000E+00  0.00000000E+00  0.00000000E+00
  0.00000000E+00  0.00000000E+00  0.00000000E+00
  0.00000000E+00  0.00000000E+00  0.00000000E+00
  0.00000000E+00  0.00000000E+00  0.00000000E+00
  0.00000000E+00  0.00000000E+00  0.00000000E+00
  0.00000000E+00  0.00000000E+00  0.00000000E+00
  0.00000000E+00  0.00000000E+00  0.00000000E+00
  0.00000000E+00  0.00000000E+00  0.00000000E+00
  0.00000000E+00  0.00000000E+00  0.00000000E+00
  0.00000000E+00  0.00000000E+00  0.00000000E+00
  0.00000000E+00  0.00000000E+00  0.00000000E+00
  0.00000000E+00  0.00000000E+00  0.00000000E+00
  0.00000000E+00  0.00000000E+00  0.00000000E+00
  0.00000000E+00  0.00000000E+00  0.00000000E+00
  0.00000000E+00  0.00000000E+00  0.00000000E+00
  0.00000000E+00  0.00000000E+00  0.00000000E+00
  0.00000000E+00  0.00000000E+00  0.00000000E+00
  0.00000000E+00  0.00000000E+00  0.00000000E+00
  0.00000000E+00  0.00000000E+00  0.00000000E+00
  0.00000000E+00  0.00000000E+00  0.00000000E+00
  0.00000000E+00  0.00000000E+00  0.00000000E+00
  0.00000000E+00  0.00000000E+00  0.00000000E+00
  0.00000000E+00  0.00000000E+00  0.00000000E+00
  0.00000000E+00  0.00000000E+00  0.00000000E+00
  0.00000000E+00  0.00000000E+00  0.00000000E+00
  0.00000000E+00  0.00000000E+00  0.00000000E+00
  0.00000000E+00  0.00000000E+00  0.00000000E+00
  0.00000000E+00  0.00000000E+00  0.00000000E+00
  0.00000000E+00  0.00000000E+00  0.00000000E+00
  0.00000000E+00  0.00000000E+00  0.00000000E+00
  0.00000000E+00  0.00000000E+00  0.00000000E+00
  0.00000000E+00  0.00000000E+00  0.00000000E+00
  0.00000000E+00  0.00000000E+00  0.00000000E+00
  0.00000000E+00  0.00000000E+00  0.00000000E+00
  0.00000000E+00  0.00000000E+00  0.00000000E+00
