Cs Ba F                                 
   1.00000000000000     
    10.2116299999999995  -10.2116299999999995    0.0000000000000000
    10.2116299999999995   10.2116299999999995    0.0000000000000000
     0.0000000000000000    0.0000000000000000   20.4232590000000016
   Ba   Cs   F 
    32    32    96
Direct
  0.9952883364789497  0.0035678088728099  0.0011815796754262
  0.0014150907460403  0.0008147129473624  0.2497030174759896
  0.0046841744099532  0.9965494830645754  0.4989696063356548
  0.0001502846307510  0.0005962139585862  0.7499630838779011
  0.4981931183864803  0.0032838765194299  0.0011440301535660
  0.5015515237915352  0.0011852168892001  0.2502554627406137
  0.5035072646430079  0.9958692799706240  0.4995198702090317
  0.5001463499947020  0.9998448982050272  0.7511400540003317
  0.2500043229959130  0.2513921286646123  0.0008236310669032
  0.2515591114878946  0.2504039049440543  0.2501845522454091
  0.2542322350077396  0.2464551179784583  0.4991151073132846
  0.2497271014585709  0.2480033706734669  0.7495275561938169
  0.0004624921784410  0.5044423248986312  0.9997771827001499
  0.0024338700573214  0.5007621466510348  0.2505513711252681
  0.0001516869758974  0.4955421851189614  0.5003361370511888
  0.0007240525873811  0.4987209127919847  0.7506644366375285
  0.7459256531933338  0.2509206963257369  0.0018609887552937
  0.7513141918664125  0.2516649922258049  0.2502167590842899
  0.7545804182717100  0.2474978728669458  0.5003856414115412
  0.7481509807617818  0.2501508651044473  0.7522664597904680
  0.4981111041401580  0.5025283274830240  0.0007462517116292
  0.5013001888137772  0.5015447948700144  0.2500450840203182
  0.5021385004650996  0.4983800162061154  0.5002824401116642
  0.5002423211277957  0.5002217296414296  0.7497017021207979
  0.2464288920103591  0.7509038619383048  0.0001322726741278
  0.2531368276962156  0.7503244643684117  0.2500765390655128
  0.2545428139047745  0.7494450689077591  0.5005366102724635
  0.2515475748807555  0.7494642084240399  0.7489963303961488
  0.7478401721196097  0.7536050239424014  0.0004066183360042
  0.7530819500666763  0.7502220436987979  0.2503492210042886
  0.7527759418503254  0.7461243296525827  0.4994140792219529
  0.7524803297685474  0.7494956556593896  0.7508490164768848
  0.9864808841661259  0.2643972927299838  0.1184802140597677
  0.9962579092053252  0.2544351239024454  0.3627006869142741
  0.0094864098494947  0.2584246883787717  0.6200998734218102
  0.9964634762515080  0.2596957498593503  0.8774892834855014
  0.5063849783608547  0.2466275641679242  0.1375785729594817
  0.5168324233400873  0.2359797098374747  0.3806965343678494
  0.5078533378409262  0.2433564825750169  0.6249370751781983
  0.5164648931595891  0.2571434411683293  0.8751394158713838
  0.2611387806122944  0.4868109067580667  0.1312854327205335
  0.2577983607948313  0.4946198353127296  0.3867419887734122
  0.2481589072457287  0.4986797826848208  0.6291124334293227
  0.2632166129293885  0.4951134130654673  0.8854553656697947
  0.0075764469141245  0.7448164045609938  0.1383629106534530
  0.0199909302706188  0.7392237085728400  0.3812235171112150
  0.0087293927719846  0.7448855668434192  0.6258963391785141
  0.0005637988809809  0.7555694555708802  0.8760831272128549
  0.7467522471144106  0.5094688105663918  0.1131229357122959
  0.7376909489466704  0.5091876519768661  0.3686404120996249
  0.7379179287207583  0.5015621930716039  0.6143103045070953
  0.7498684103133773  0.5051037160343045  0.8715093946605971
  0.4910009960512297  0.7685887627687235  0.1193632416861393
  0.4976561535861907  0.7553464289759629  0.3640840381399629
  0.4940880040759483  0.7494949274214034  0.6289645538866414
  0.4937877208969002  0.7560864011394637  0.8764067850716540
  0.2437642040112213  0.0050789271678701  0.1123634070395709
  0.2394504499145645  0.0099510838934126  0.3679899178173561
  0.2537396603978281  0.0171916722455042  0.6244763655247102
  0.2301904218883262  0.0148597119213395  0.8753314024258034
  0.7604926209515922  0.9885033706800096  0.1333523548822571
  0.7578478291576846  0.9946881844581464  0.3880988999548613
  0.7690527429628825  0.9818209242389354  0.6249839468172859
  0.7536959915224707  0.9909434887541404  0.8693723211506326
  0.1075445331553544  0.1429285635583623  0.0292178083891912
  0.1588405113965383  0.0932787451625728  0.2365654332518534
  0.1188619047298234  0.1317046494410008  0.5307962219382066
  0.1187559002569084  0.1289945583429218  0.7179191383105913
  0.5885784069794203  0.1605718454793451  0.0131364823725110
  0.6388459021530352  0.1142454745908089  0.2184497614925515
  0.6000625533943881  0.1508710357891740  0.5109526853051739
  0.5932261649236402  0.1555411888338010  0.7446469218207342
  0.3862877255057743  0.3642912193308971  0.9693522822339805
  0.3439918257115673  0.4083477801427330  0.2638972098477498
  0.3934062903611616  0.3574192236009376  0.4704976846380103
  0.3750668478990248  0.3733487045891755  0.7743983421194698
  0.0890226812601808  0.6614397421881718  0.0117391492641624
  0.1421830277894669  0.6110707489066973  0.2194321688259868
  0.1036908306604510  0.6455474687250743  0.5164587660028711
  0.1240116843492931  0.6257903789610092  0.7200732835503193
  0.8972537723495123  0.3532165606008801  0.9872714238630986
  0.8640667811551520  0.3892386232302827  0.2817666523191280
  0.9119461931997804  0.3373476438473126  0.4883043994728966
  0.8791483587288865  0.3698311824530888  0.7803877661894593
  0.6079428942718326  0.6425764738606173  0.0294884399291869
  0.6593794489123014  0.5934247959692797  0.2367060450765716
  0.6138598504400039  0.6362210761613708  0.5315748629845678
  0.6271523026092867  0.6248281914678961  0.7235384127610082
  0.3998269490015091  0.8489497641982197  0.9896689774971587
  0.3647844295578739  0.8881950087219893  0.2825113074988417
  0.4121592785215853  0.8385482731883500  0.4897758492093596
  0.4031198163817185  0.8469127543318544  0.7596245772270835
  0.8788729354337977  0.8717542576024280  0.9661844931003829
  0.8447348939453475  0.9079781048451316  0.2637100938213597
  0.8948496854875391  0.8548978919489799  0.4711160976938830
  0.8803449407443416  0.8716636949501436  0.7802377666631783
  0.8552517855010412  0.1117248017425905  0.0296160697729304
  0.9016757374778747  0.1515551959727623  0.2313082252509759
  0.8529389449660321  0.0951368321134185  0.5132990710872328
  0.8562941692854124  0.1076633915319094  0.7318715581505827
  0.3433869139495251  0.0970839726507043  0.9858167573655825
  0.4020277654404269  0.1515980006055021  0.2695331271756295
  0.3539100404635622  0.0966943539691344  0.4801576370387501
  0.3483124934890354  0.0976457684176166  0.7661809094698674
  0.1456673385589099  0.3979963936056670  0.0206196877384731
  0.1020892161207768  0.3508067082533559  0.2305955174236970
  0.1467205468591443  0.3903441740694294  0.5219075347983985
  0.1246630620811291  0.3727720555095753  0.7198486934007465
  0.8497024586197606  0.6041195209722687  0.9818701810938838
  0.9053173819266663  0.6530580653504653  0.2684378751262952
  0.8509044453461952  0.5949632235965990  0.4816066626965114
  0.8802640032259386  0.6274151821946061  0.7804172246988479
  0.6447073690390676  0.3993896207136914  0.9786056950300325
  0.6029103415870528  0.3532940828118074  0.2713933318724596
  0.6526987658718811  0.3974711886126496  0.4814439399840875
  0.6309366290716029  0.3834639499193230  0.7819009339952682
  0.3453172252016978  0.5995565117526636  0.0186226104042689
  0.4044855412998051  0.6529900187695690  0.2311505689423246
  0.3522086845908204  0.5977081535672464  0.5198223505769525
  0.3716853203197688  0.6196547900319485  0.7170721120182653
  0.1427726504323324  0.8991811047368580  0.9817946149102540
  0.1034844879752695  0.8518353768991958  0.2691468830198036
  0.1442911682870102  0.8872520650114158  0.4704035561518790
  0.1277653660392803  0.8765893435034173  0.7791539498095390
  0.6401440649047546  0.8952158944139447  0.0284584482680231
  0.6049174771042461  0.8532508803439653  0.2308537456262894
  0.6565425029490993  0.8988774613102134  0.5127724332627331
  0.6455614304968447  0.8936616558272990  0.7299978769139206
  0.9935135513377927  0.9549804865533459  0.1250978863775280
  0.0077232452237321  0.0443341059453733  0.3747723789728965
  0.9908382455606338  0.9524873657302035  0.6248554522315893
  0.0075690988334434  0.0492298018345047  0.8753309892211130
  0.4540735927999247  0.9947183183871678  0.1263110091885930
  0.5461573165650494  0.0069454750274984  0.3746524452232942
  0.4669541030470188  0.0052529134828240  0.6247923063308604
  0.5389162293130147  0.9909305954031663  0.8765600779164494
  0.2951226069893486  0.2582021587884120  0.1252469856150519
  0.2071171173897266  0.2431890692744894  0.3750508212104360
  0.2983336247080443  0.2431820477593379  0.6246642746122398
  0.2046313986891282  0.2408262374129687  0.8750551673616630
  0.9578613443590567  0.4952140502158944  0.1253800620174227
  0.0469310517906186  0.5049998475614320  0.3756861251048582
  0.9542269784507282  0.4931609633741673  0.6255464413070513
  0.0479720695858014  0.4918821425886408  0.8753327895544026
  0.7495530876444190  0.2993802098955555  0.1261321743346226
  0.7443049558005087  0.2069675560492965  0.3749176566977590
  0.7445098820020856  0.2868623577974190  0.6260861371276838
  0.7452954276807812  0.2043956444921272  0.8775150804627158
  0.4928545126533911  0.4569053289649345  0.1252792125583165
  0.5067119492964202  0.5444880796337154  0.3755650890061028
  0.5103980055045162  0.4517297408347498  0.6250113959970843
  0.4909877866325700  0.5467105494781256  0.8750853414195142
  0.2542521010839021  0.7946769206791543  0.1252959512765163
  0.2477440311650703  0.7037426045029429  0.3751103408003534
  0.2435513634839074  0.7984992321950033  0.6244272910203027
  0.2562280255271356  0.7083482531773853  0.8745504633249402
  0.7961336826045303  0.7541556805707498  0.1248911839467960
  0.7081498254536686  0.7400729413682517  0.3748935185891658
  0.7980603904877767  0.7570913147592511  0.6251476732161606
  0.7024129987138622  0.7479047276940008  0.8752592445921863
 
  0.00000000E+00  0.00000000E+00  0.00000000E+00
  0.00000000E+00  0.00000000E+00  0.00000000E+00
  0.00000000E+00  0.00000000E+00  0.00000000E+00
  0.00000000E+00  0.00000000E+00  0.00000000E+00
  0.00000000E+00  0.00000000E+00  0.00000000E+00
  0.00000000E+00  0.00000000E+00  0.00000000E+00
  0.00000000E+00  0.00000000E+00  0.00000000E+00
  0.00000000E+00  0.00000000E+00  0.00000000E+00
  0.00000000E+00  0.00000000E+00  0.00000000E+00
  0.00000000E+00  0.00000000E+00  0.00000000E+00
  0.00000000E+00  0.00000000E+00  0.00000000E+00
  0.00000000E+00  0.00000000E+00  0.00000000E+00
  0.00000000E+00  0.00000000E+00  0.00000000E+00
  0.00000000E+00  0.00000000E+00  0.00000000E+00
  0.00000000E+00  0.00000000E+00  0.00000000E+00
  0.00000000E+00  0.00000000E+00  0.00000000E+00
  0.00000000E+00  0.00000000E+00  0.00000000E+00
  0.00000000E+00  0.00000000E+00  0.00000000E+00
  0.00000000E+00  0.00000000E+00  0.00000000E+00
  0.00000000E+00  0.00000000E+00  0.00000000E+00
  0.00000000E+00  0.00000000E+00  0.00000000E+00
  0.00000000E+00  0.00000000E+00  0.00000000E+00
  0.00000000E+00  0.00000000E+00  0.00000000E+00
  0.00000000E+00  0.00000000E+00  0.00000000E+00
  0.00000000E+00  0.00000000E+00  0.00000000E+00
  0.00000000E+00  0.00000000E+00  0.00000000E+00
  0.00000000E+00  0.00000000E+00  0.00000000E+00
  0.00000000E+00  0.00000000E+00  0.00000000E+00
  0.00000000E+00  0.00000000E+00  0.00000000E+00
  0.00000000E+00  0.00000000E+00  0.00000000E+00
  0.00000000E+00  0.00000000E+00  0.00000000E+00
  0.00000000E+00  0.00000000E+00  0.00000000E+00
  0.00000000E+00  0.00000000E+00  0.00000000E+00
  0.00000000E+00  0.00000000E+00  0.00000000E+00
  0.00000000E+00  0.00000000E+00  0.00000000E+00
  0.00000000E+00  0.00000000E+00  0.00000000E+00
  0.00000000E+00  0.00000000E+00  0.00000000E+00
  0.00000000E+00  0.00000000E+00  0.00000000E+00
  0.00000000E+00  0.00000000E+00  0.00000000E+00
  0.00000000E+00  0.00000000E+00  0.00000000E+00
  0.00000000E+00  0.00000000E+00  0.00000000E+00
  0.00000000E+00  0.00000000E+00  0.00000000E+00
  0.00000000E+00  0.00000000E+00  0.00000000E+00
  0.00000000E+00  0.00000000E+00  0.00000000E+00
  0.00000000E+00  0.00000000E+00  0.00000000E+00
  0.00000000E+00  0.00000000E+00  0.00000000E+00
  0.00000000E+00  0.00000000E+00  0.00000000E+00
  0.00000000E+00  0.00000000E+00  0.00000000E+00
  0.00000000E+00  0.00000000E+00  0.00000000E+00
  0.00000000E+00  0.00000000E+00  0.00000000E+00
  0.00000000E+00  0.00000000E+00  0.00000000E+00
  0.00000000E+00  0.00000000E+00  0.00000000E+00
  0.00000000E+00  0.00000000E+00  0.00000000E+00
  0.00000000E+00  0.00000000E+00  0.00000000E+00
  0.00000000E+00  0.00000000E+00  0.00000000E+00
  0.00000000E+00  0.00000000E+00  0.00000000E+00
  0.00000000E+00  0.00000000E+00  0.00000000E+00
  0.00000000E+00  0.00000000E+00  0.00000000E+00
  0.00000000E+00  0.00000000E+00  0.00000000E+00
  0.00000000E+00  0.00000000E+00  0.00000000E+00
  0.00000000E+00  0.00000000E+00  0.00000000E+00
  0.00000000E+00  0.00000000E+00  0.00000000E+00
  0.00000000E+00  0.00000000E+00  0.00000000E+00
  0.00000000E+00  0.00000000E+00  0.00000000E+00
  0.00000000E+00  0.00000000E+00  0.00000000E+00
  0.00000000E+00  0.00000000E+00  0.00000000E+00
  0.00000000E+00  0.00000000E+00  0.00000000E+00
  0.00000000E+00  0.00000000E+00  0.00000000E+00
  0.00000000E+00  0.00000000E+00  0.00000000E+00
  0.00000000E+00  0.00000000E+00  0.00000000E+00
  0.00000000E+00  0.00000000E+00  0.00000000E+00
  0.00000000E+00  0.00000000E+00  0.00000000E+00
  0.00000000E+00  0.00000000E+00  0.00000000E+00
  0.00000000E+00  0.00000000E+00  0.00000000E+00
  0.00000000E+00  0.00000000E+00  0.00000000E+00
  0.00000000E+00  0.00000000E+00  0.00000000E+00
  0.00000000E+00  0.00000000E+00  0.00000000E+00
  0.00000000E+00  0.00000000E+00  0.00000000E+00
  0.00000000E+00  0.00000000E+00  0.00000000E+00
  0.00000000E+00  0.00000000E+00  0.00000000E+00
  0.00000000E+00  0.00000000E+00  0.00000000E+00
  0.00000000E+00  0.00000000E+00  0.00000000E+00
  0.00000000E+00  0.00000000E+00  0.00000000E+00
  0.00000000E+00  0.00000000E+00  0.00000000E+00
  0.00000000E+00  0.00000000E+00  0.00000000E+00
  0.00000000E+00  0.00000000E+00  0.00000000E+00
  0.00000000E+00  0.00000000E+00  0.00000000E+00
  0.00000000E+00  0.00000000E+00  0.00000000E+00
  0.00000000E+00  0.00000000E+00  0.00000000E+00
  0.00000000E+00  0.00000000E+00  0.00000000E+00
  0.00000000E+00  0.00000000E+00  0.00000000E+00
  0.00000000E+00  0.00000000E+00  0.00000000E+00
  0.00000000E+00  0.00000000E+00  0.00000000E+00
  0.00000000E+00  0.00000000E+00  0.00000000E+00
  0.00000000E+00  0.00000000E+00  0.00000000E+00
  0.00000000E+00  0.00000000E+00  0.00000000E+00
  0.00000000E+00  0.00000000E+00  0.00000000E+00
  0.00000000E+00  0.00000000E+00  0.00000000E+00
  0.00000000E+00  0.00000000E+00  0.00000000E+00
  0.00000000E+00  0.00000000E+00  0.00000000E+00
  0.00000000E+00  0.00000000E+00  0.00000000E+00
  0.00000000E+00  0.00000000E+00  0.00000000E+00
  0.00000000E+00  0.00000000E+00  0.00000000E+00
  0.00000000E+00  0.00000000E+00  0.00000000E+00
  0.00000000E+00  0.00000000E+00  0.00000000E+00
  0.00000000E+00  0.00000000E+00  0.00000000E+00
  0.00000000E+00  0.00000000E+00  0.00000000E+00
  0.00000000E+00  0.00000000E+00  0.00000000E+00
  0.00000000E+00  0.00000000E+00  0.00000000E+00
  0.00000000E+00  0.00000000E+00  0.00000000E+00
  0.00000000E+00  0.00000000E+00  0.00000000E+00
  0.00000000E+00  0.00000000E+00  0.00000000E+00
  0.00000000E+00  0.00000000E+00  0.00000000E+00
  0.00000000E+00  0.00000000E+00  0.00000000E+00
  0.00000000E+00  0.00000000E+00  0.00000000E+00
  0.00000000E+00  0.00000000E+00  0.00000000E+00
  0.00000000E+00  0.00000000E+00  0.00000000E+00
  0.00000000E+00  0.00000000E+00  0.00000000E+00
  0.00000000E+00  0.00000000E+00  0.00000000E+00
  0.00000000E+00  0.00000000E+00  0.00000000E+00
  0.00000000E+00  0.00000000E+00  0.00000000E+00
  0.00000000E+00  0.00000000E+00  0.00000000E+00
  0.00000000E+00  0.00000000E+00  0.00000000E+00
  0.00000000E+00  0.00000000E+00  0.00000000E+00
  0.00000000E+00  0.00000000E+00  0.00000000E+00
  0.00000000E+00  0.00000000E+00  0.00000000E+00
  0.00000000E+00  0.00000000E+00  0.00000000E+00
  0.00000000E+00  0.00000000E+00  0.00000000E+00
  0.00000000E+00  0.00000000E+00  0.00000000E+00
  0.00000000E+00  0.00000000E+00  0.00000000E+00
  0.00000000E+00  0.00000000E+00  0.00000000E+00
  0.00000000E+00  0.00000000E+00  0.00000000E+00
  0.00000000E+00  0.00000000E+00  0.00000000E+00
  0.00000000E+00  0.00000000E+00  0.00000000E+00
  0.00000000E+00  0.00000000E+00  0.00000000E+00
  0.00000000E+00  0.00000000E+00  0.00000000E+00
  0.00000000E+00  0.00000000E+00  0.00000000E+00
  0.00000000E+00  0.00000000E+00  0.00000000E+00
  0.00000000E+00  0.00000000E+00  0.00000000E+00
  0.00000000E+00  0.00000000E+00  0.00000000E+00
  0.00000000E+00  0.00000000E+00  0.00000000E+00
  0.00000000E+00  0.00000000E+00  0.00000000E+00
  0.00000000E+00  0.00000000E+00  0.00000000E+00
  0.00000000E+00  0.00000000E+00  0.00000000E+00
  0.00000000E+00  0.00000000E+00  0.00000000E+00
  0.00000000E+00  0.00000000E+00  0.00000000E+00
  0.00000000E+00  0.00000000E+00  0.00000000E+00
  0.00000000E+00  0.00000000E+00  0.00000000E+00
  0.00000000E+00  0.00000000E+00  0.00000000E+00
  0.00000000E+00  0.00000000E+00  0.00000000E+00
  0.00000000E+00  0.00000000E+00  0.00000000E+00
  0.00000000E+00  0.00000000E+00  0.00000000E+00
  0.00000000E+00  0.00000000E+00  0.00000000E+00
  0.00000000E+00  0.00000000E+00  0.00000000E+00
  0.00000000E+00  0.00000000E+00  0.00000000E+00
  0.00000000E+00  0.00000000E+00  0.00000000E+00
  0.00000000E+00  0.00000000E+00  0.00000000E+00
  0.00000000E+00  0.00000000E+00  0.00000000E+00
  0.00000000E+00  0.00000000E+00  0.00000000E+00
  0.00000000E+00  0.00000000E+00  0.00000000E+00
