Pb Rb Br                                
   1.00000000000000     
    11.9344920000000005  -11.9344920000000005    0.0000000000000000
    11.9344920000000005   11.9344920000000005    0.0000000000000000
     0.0000000000000000    0.0000000000000000   23.8689840000000011
   Br   Pb   Rb
    96    32    32
Direct
  0.0961616884206327  0.1601888340075478  0.9818358659731992
  0.1325199125730148  0.1173186932777472  0.2835034594796312
  0.1420470675859020  0.1090633416952012  0.4722278385270139
  0.1459232049149279  0.1080045402070357  0.7775043293001399
  0.6083398710405935  0.1427454349917336  0.9704534688771305
  0.6445386657531441  0.1054421135614453  0.2604143062424540
  0.6554628295636926  0.0918577461247399  0.4952810841435255
  0.6617054343140252  0.0854393732106020  0.7593275041243838
  0.4102109605778574  0.3462865674089576  0.0182043265531781
  0.3547222655844353  0.3939418360540431  0.2249999283965125
  0.3635361385135075  0.3866470091548100  0.5291716212289700
  0.3665310913952574  0.3868028375313323  0.7177723084662918
  0.1094507052442407  0.6420638605166832  0.9703246300633876
  0.1432511235989783  0.6048048279417263  0.2584097349151034
  0.1571405556149580  0.5893260666395079  0.4992987404157763
  0.1606706732106561  0.5884910973687941  0.7621490929423939
  0.8926810352176137  0.3579919981547454  0.0291520654703572
  0.8345951460251058  0.4135892412422253  0.2390773589305058
  0.8423710966251848  0.4046966562041366  0.5038025163563158
  0.8525350654827840  0.3934506103107991  0.7400206793638894
  0.5976525415570652  0.6588943361553227  0.9823890869999161
  0.6268898837694118  0.6209913463999820  0.2850763117205541
  0.6421219549236796  0.6076134202774957  0.4766512798478736
  0.6453543672573123  0.6072824486845296  0.7754788458266524
  0.3921006103538378  0.8594869897420919  0.0295270523326080
  0.3386873189059871  0.9109586337959833  0.2376678371716178
  0.3430393649780982  0.9029075177240959  0.4994871149975880
  0.3510747381956228  0.8974750482462092  0.7387038204479148
  0.9096335887216426  0.8466875686245374  0.0183323289583025
  0.8546093128177099  0.8944074647536626  0.2250048749537331
  0.8581325102992576  0.8932274727399641  0.5268756062584379
  0.8740031229763641  0.8797128812453826  0.7155165512154776
  0.8501812029172260  0.1006344097578843  0.0216476956259744
  0.8871698130382841  0.1484528437800866  0.2206991916612381
  0.8978795430528723  0.1428532199877858  0.5258841822500235
  0.8993398936550421  0.1373221295276064  0.7289480083351411
  0.3488437034378420  0.1012949170193939  0.9766991926307540
  0.3908901465983788  0.1519885089520402  0.2704307181975851
  0.3921335347605559  0.1450210908089974  0.4727853794068604
  0.4035139982701753  0.1466104778223782  0.7709322961265579
  0.1528683044542930  0.4036328864020902  0.0207322507406486
  0.0978546265839865  0.3583578086208526  0.2225693916993605
  0.0930289052441198  0.3436655383635395  0.5166281117757969
  0.1016957577969174  0.3438881490668691  0.7339912253674845
  0.8507278280108954  0.6016786840986890  0.9789710991094419
  0.8929015375029842  0.6551320506641796  0.2648935037383826
  0.8999654444478700  0.6529816677008011  0.4827353156635195
  0.8937674749403409  0.6364880033850985  0.7813627722088506
  0.6537407853695664  0.4035387453672086  0.9790164495887070
  0.5965958756366114  0.3601319758848033  0.2714819387663028
  0.6059420752755682  0.3522056480831458  0.4724776787717379
  0.6076598497479425  0.3478450105793660  0.7784498132011152
  0.3511495515408349  0.6011202776212057  0.0208794827037867
  0.3848959208288247  0.6469275975067305  0.2174197892771466
  0.3986587193183833  0.6429602535324574  0.5256650523720300
  0.4016853916099973  0.6409825884674557  0.7291341782794559
  0.1521434621454239  0.9033055410196753  0.9799141068166920
  0.0932578669176343  0.8552207594685727  0.2664708676300411
  0.0952953796422792  0.8421405316053104  0.4827180889918875
  0.1119586412441932  0.8512504947657072  0.7833952931849584
  0.6514240089059917  0.9035522401714967  0.0193599068678412
  0.6036798298639821  0.8639732310852254  0.2161299593770093
  0.5928419728299223  0.8440578050998503  0.5162778203838269
  0.6021306806048240  0.8440671975916045  0.7343556191671239
  0.0456041230667788  0.0095806804182794  0.1250726888905414
  0.9497568376052204  0.0005269120741252  0.3755001998941362
  0.0517844225580035  0.9969790153694152  0.6243405906296524
  0.9544343829383407  0.9933567215974137  0.8746054345883251
  0.4957209964451260  0.0513833630519369  0.1224062204163435
  0.5058535797303482  0.9585045271386174  0.3712168069461677
  0.4833466085338936  0.0363535042198996  0.6228822163386416
  0.4986049167352445  0.9546770291766351  0.8742837315120456
  0.2415600973992548  0.2040658494622023  0.1248597624504737
  0.2442837662882508  0.3000605758657934  0.3753849866715499
  0.2536565028379607  0.2001504080449379  0.6246399784920733
  0.2597523219531950  0.2961929202810039  0.8750120515580737
  0.9946419866664407  0.5467313238076228  0.1235561404981984
  0.0106012757584510  0.4630091490029766  0.3741324686540246
  0.9844663467274729  0.5375854103195391  0.6260251706007910
  0.0018999567960862  0.4512334713470298  0.8757793051360173
  0.7019610960775203  0.2547340851059391  0.1246077065575269
  0.7928906762620843  0.2444325240024453  0.3746787053691514
  0.7080188182614795  0.2524939675267387  0.6257380123448839
  0.7971412700134397  0.2433092313879218  0.8760189122061086
  0.5473743979544774  0.5061763435701512  0.1257822282669472
  0.4500402231205638  0.5046676734995488  0.3763951854450158
  0.5506242603645529  0.4941676287065069  0.6254904695661549
  0.4548902336356417  0.4934942150923641  0.8754298215386856
  0.2022024100637945  0.7547596897107003  0.1242041456113126
  0.2885803827717821  0.7311357680100590  0.3747937645885911
  0.2107609554342952  0.7539836830971032  0.6263705553765022
  0.3002347635484431  0.7468627776334508  0.8761697287343956
  0.7411209376400264  0.7044220564642073  0.1249775657658811
  0.7477411456053734  0.7989422852190504  0.3754466503183304
  0.7527668332331937  0.7024166758995105  0.6253765916607974
  0.7566371350820900  0.7977261724723411  0.8753043639058509
  0.0001636940191573  0.9986656768509382  0.0006997060077489
  0.9975803433952257  0.0054089275723309  0.2495701853075964
  0.0003272733049732  0.9992914292589546  0.4997527933495862
  0.0034385743431496  0.9902168551137858  0.7515271480129019
  0.4997618194223320  0.0010177242936897  0.9996227310989956
  0.4962987932762917  0.0000838477329849  0.2466496592675941
  0.5013141013365809  0.9975686930796854  0.4994498354535322
  0.5051231565696265  0.9956453256679482  0.7497207838406836
  0.2481664059539388  0.2497136509220684  0.9995300959893663
  0.2415316598306414  0.2531819372151462  0.2476707360928517
  0.2493222889008466  0.2495036351171306  0.5002991104643376
  0.2553950539980685  0.2470687193689099  0.7522767175955817
  0.0006969463503001  0.4996033365467417  0.9997248465918065
  0.9928132790091968  0.5019116388484197  0.2487949207850400
  0.0002223245142782  0.4978651184171172  0.5005208399963441
  0.0050735933493231  0.4963628863098945  0.7505944271559128
  0.7501503669437595  0.2500900655508848  0.0000317682369622
  0.7490994813340043  0.2541283819287312  0.2481668718006858
  0.7495005774480737  0.2499144365793408  0.4992163850292040
  0.7496149792957075  0.2447522175220952  0.7514354962141602
  0.5013728390306295  0.4975090964623838  0.0006319495413737
  0.4957786413430337  0.5087986138518067  0.2489638742088893
  0.5000298875302217  0.4978067072952707  0.5017894184158437
  0.5024100210337620  0.4926956612810730  0.7521049008265167
  0.2506246866123280  0.7502172757370263  0.9996489373859256
  0.2470933558126700  0.7548539508754739  0.2483853721258792
  0.2470403317764119  0.7492822170972250  0.4982199132111570
  0.2502982397987733  0.7466568880528685  0.7518565328364409
  0.7485418679814805  0.7504452946786593  0.9995793463761300
  0.7426114046790175  0.7523946029559390  0.2481260851942805
  0.7502629167785453  0.7498813759307538  0.4995263458467241
  0.7572752847513188  0.7467337868491721  0.7519606620741233
  0.0169716293576005  0.2298527779800572  0.1135150305189214
  0.0203848513800627  0.2451452583462150  0.3849212663971399
  0.0363982149599171  0.2135512518681611  0.6276437161057762
  0.0092980644414744  0.2375841695301713  0.8530793492578236
  0.4897478228931599  0.2639063887168281  0.1479537456228521
  0.4610213766502165  0.2874466750743074  0.3729618743627712
  0.4802485001813662  0.2547113754351806  0.6286721063837116
  0.4789009457639308  0.2660210764659844  0.8866614781211424
  0.2309971979938502  0.5234108737795293  0.1353661925381361
  0.2353766257861290  0.5137361126657172  0.3733650772019341
  0.2671718544303857  0.5349952457656119  0.6279958927718503
  0.2402182310577116  0.5116987291135819  0.8950903307720841
  0.9884470976532016  0.7602068855079837  0.1473678207556060
  0.9635997035242809  0.7827894802205863  0.3723247021798693
  0.9869594939981439  0.7575992745438032  0.6062401241786818
  0.9788252771474585  0.7659089930243310  0.8876562953429050
  0.7632442734748259  0.4905022656278874  0.1044760828985261
  0.7338859515235893  0.4672713502886934  0.3735046643468558
  0.7651629349656155  0.4912266950046908  0.6256438745776067
  0.7741779610341153  0.4828481449564559  0.8640849990082367
  0.5171954844571256  0.7303553761436969  0.1123822913594653
  0.5085112176902769  0.7356740856514773  0.3943180371247228
  0.5382373827986836  0.7130746805497558  0.6275059538165756
  0.5131558630489554  0.7401248097550051  0.8540204453477697
  0.2601754969690712  0.9887840520929118  0.1049614241035949
  0.2852345012773946  0.0174069124111255  0.3715701787870194
  0.2646217606750526  0.9878495965060952  0.6215251201965724
  0.2696586858919912  0.9770294452941343  0.8647174035194809
  0.7289034773752264  0.0203143140804771  0.1358426476042778
  0.7380893975718053  0.0104939851098945  0.3731649216251334
  0.7679761116797560  0.0333978137729658  0.6266669536613698
  0.7405551893088750  0.0138801933755713  0.8947794922262071
 
  0.00000000E+00  0.00000000E+00  0.00000000E+00
  0.00000000E+00  0.00000000E+00  0.00000000E+00
  0.00000000E+00  0.00000000E+00  0.00000000E+00
  0.00000000E+00  0.00000000E+00  0.00000000E+00
  0.00000000E+00  0.00000000E+00  0.00000000E+00
  0.00000000E+00  0.00000000E+00  0.00000000E+00
  0.00000000E+00  0.00000000E+00  0.00000000E+00
  0.00000000E+00  0.00000000E+00  0.00000000E+00
  0.00000000E+00  0.00000000E+00  0.00000000E+00
  0.00000000E+00  0.00000000E+00  0.00000000E+00
  0.00000000E+00  0.00000000E+00  0.00000000E+00
  0.00000000E+00  0.00000000E+00  0.00000000E+00
  0.00000000E+00  0.00000000E+00  0.00000000E+00
  0.00000000E+00  0.00000000E+00  0.00000000E+00
  0.00000000E+00  0.00000000E+00  0.00000000E+00
  0.00000000E+00  0.00000000E+00  0.00000000E+00
  0.00000000E+00  0.00000000E+00  0.00000000E+00
  0.00000000E+00  0.00000000E+00  0.00000000E+00
  0.00000000E+00  0.00000000E+00  0.00000000E+00
  0.00000000E+00  0.00000000E+00  0.00000000E+00
  0.00000000E+00  0.00000000E+00  0.00000000E+00
  0.00000000E+00  0.00000000E+00  0.00000000E+00
  0.00000000E+00  0.00000000E+00  0.00000000E+00
  0.00000000E+00  0.00000000E+00  0.00000000E+00
  0.00000000E+00  0.00000000E+00  0.00000000E+00
  0.00000000E+00  0.00000000E+00  0.00000000E+00
  0.00000000E+00  0.00000000E+00  0.00000000E+00
  0.00000000E+00  0.00000000E+00  0.00000000E+00
  0.00000000E+00  0.00000000E+00  0.00000000E+00
  0.00000000E+00  0.00000000E+00  0.00000000E+00
  0.00000000E+00  0.00000000E+00  0.00000000E+00
  0.00000000E+00  0.00000000E+00  0.00000000E+00
  0.00000000E+00  0.00000000E+00  0.00000000E+00
  0.00000000E+00  0.00000000E+00  0.00000000E+00
  0.00000000E+00  0.00000000E+00  0.00000000E+00
  0.00000000E+00  0.00000000E+00  0.00000000E+00
  0.00000000E+00  0.00000000E+00  0.00000000E+00
  0.00000000E+00  0.00000000E+00  0.00000000E+00
  0.00000000E+00  0.00000000E+00  0.00000000E+00
  0.00000000E+00  0.00000000E+00  0.00000000E+00
  0.00000000E+00  0.00000000E+00  0.00000000E+00
  0.00000000E+00  0.00000000E+00  0.00000000E+00
  0.00000000E+00  0.00000000E+00  0.00000000E+00
  0.00000000E+00  0.00000000E+00  0.00000000E+00
  0.00000000E+00  0.00000000E+00  0.00000000E+00
  0.00000000E+00  0.00000000E+00  0.00000000E+00
  0.00000000E+00  0.00000000E+00  0.00000000E+00
  0.00000000E+00  0.00000000E+00  0.00000000E+00
  0.00000000E+00  0.00000000E+00  0.00000000E+00
  0.00000000E+00  0.00000000E+00  0.00000000E+00
  0.00000000E+00  0.00000000E+00  0.00000000E+00
  0.00000000E+00  0.00000000E+00  0.00000000E+00
  0.00000000E+00  0.00000000E+00  0.00000000E+00
  0.00000000E+00  0.00000000E+00  0.00000000E+00
  0.00000000E+00  0.00000000E+00  0.00000000E+00
  0.00000000E+00  0.00000000E+00  0.00000000E+00
  0.00000000E+00  0.00000000E+00  0.00000000E+00
  0.00000000E+00  0.00000000E+00  0.00000000E+00
  0.00000000E+00  0.00000000E+00  0.00000000E+00
  0.00000000E+00  0.00000000E+00  0.00000000E+00
  0.00000000E+00  0.00000000E+00  0.00000000E+00
  0.00000000E+00  0.00000000E+00  0.00000000E+00
  0.00000000E+00  0.00000000E+00  0.00000000E+00
  0.00000000E+00  0.00000000E+00  0.00000000E+00
  0.00000000E+00  0.00000000E+00  0.00000000E+00
  0.00000000E+00  0.00000000E+00  0.00000000E+00
  0.00000000E+00  0.00000000E+00  0.00000000E+00
  0.00000000E+00  0.00000000E+00  0.00000000E+00
  0.00000000E+00  0.00000000E+00  0.00000000E+00
  0.00000000E+00  0.00000000E+00  0.00000000E+00
  0.00000000E+00  0.00000000E+00  0.00000000E+00
  0.00000000E+00  0.00000000E+00  0.00000000E+00
  0.00000000E+00  0.00000000E+00  0.00000000E+00
  0.00000000E+00  0.00000000E+00  0.00000000E+00
  0.00000000E+00  0.00000000E+00  0.00000000E+00
  0.00000000E+00  0.00000000E+00  0.00000000E+00
  0.00000000E+00  0.00000000E+00  0.00000000E+00
  0.00000000E+00  0.00000000E+00  0.00000000E+00
  0.00000000E+00  0.00000000E+00  0.00000000E+00
  0.00000000E+00  0.00000000E+00  0.00000000E+00
  0.00000000E+00  0.00000000E+00  0.00000000E+00
  0.00000000E+00  0.00000000E+00  0.00000000E+00
  0.00000000E+00  0.00000000E+00  0.00000000E+00
  0.00000000E+00  0.00000000E+00  0.00000000E+00
  0.00000000E+00  0.00000000E+00  0.00000000E+00
  0.00000000E+00  0.00000000E+00  0.00000000E+00
  0.00000000E+00  0.00000000E+00  0.00000000E+00
  0.00000000E+00  0.00000000E+00  0.00000000E+00
  0.00000000E+00  0.00000000E+00  0.00000000E+00
  0.00000000E+00  0.00000000E+00  0.00000000E+00
  0.00000000E+00  0.00000000E+00  0.00000000E+00
  0.00000000E+00  0.00000000E+00  0.00000000E+00
  0.00000000E+00  0.00000000E+00  0.00000000E+00
  0.00000000E+00  0.00000000E+00  0.00000000E+00
  0.00000000E+00  0.00000000E+00  0.00000000E+00
  0.00000000E+00  0.00000000E+00  0.00000000E+00
  0.00000000E+00  0.00000000E+00  0.00000000E+00
  0.00000000E+00  0.00000000E+00  0.00000000E+00
  0.00000000E+00  0.00000000E+00  0.00000000E+00
  0.00000000E+00  0.00000000E+00  0.00000000E+00
  0.00000000E+00  0.00000000E+00  0.00000000E+00
  0.00000000E+00  0.00000000E+00  0.00000000E+00
  0.00000000E+00  0.00000000E+00  0.00000000E+00
  0.00000000E+00  0.00000000E+00  0.00000000E+00
  0.00000000E+00  0.00000000E+00  0.00000000E+00
  0.00000000E+00  0.00000000E+00  0.00000000E+00
  0.00000000E+00  0.00000000E+00  0.00000000E+00
  0.00000000E+00  0.00000000E+00  0.00000000E+00
  0.00000000E+00  0.00000000E+00  0.00000000E+00
  0.00000000E+00  0.00000000E+00  0.00000000E+00
  0.00000000E+00  0.00000000E+00  0.00000000E+00
  0.00000000E+00  0.00000000E+00  0.00000000E+00
  0.00000000E+00  0.00000000E+00  0.00000000E+00
  0.00000000E+00  0.00000000E+00  0.00000000E+00
  0.00000000E+00  0.00000000E+00  0.00000000E+00
  0.00000000E+00  0.00000000E+00  0.00000000E+00
  0.00000000E+00  0.00000000E+00  0.00000000E+00
  0.00000000E+00  0.00000000E+00  0.00000000E+00
  0.00000000E+00  0.00000000E+00  0.00000000E+00
  0.00000000E+00  0.00000000E+00  0.00000000E+00
  0.00000000E+00  0.00000000E+00  0.00000000E+00
  0.00000000E+00  0.00000000E+00  0.00000000E+00
  0.00000000E+00  0.00000000E+00  0.00000000E+00
  0.00000000E+00  0.00000000E+00  0.00000000E+00
  0.00000000E+00  0.00000000E+00  0.00000000E+00
  0.00000000E+00  0.00000000E+00  0.00000000E+00
  0.00000000E+00  0.00000000E+00  0.00000000E+00
  0.00000000E+00  0.00000000E+00  0.00000000E+00
  0.00000000E+00  0.00000000E+00  0.00000000E+00
  0.00000000E+00  0.00000000E+00  0.00000000E+00
  0.00000000E+00  0.00000000E+00  0.00000000E+00
  0.00000000E+00  0.00000000E+00  0.00000000E+00
  0.00000000E+00  0.00000000E+00  0.00000000E+00
  0.00000000E+00  0.00000000E+00  0.00000000E+00
  0.00000000E+00  0.00000000E+00  0.00000000E+00
  0.00000000E+00  0.00000000E+00  0.00000000E+00
  0.00000000E+00  0.00000000E+00  0.00000000E+00
  0.00000000E+00  0.00000000E+00  0.00000000E+00
  0.00000000E+00  0.00000000E+00  0.00000000E+00
  0.00000000E+00  0.00000000E+00  0.00000000E+00
  0.00000000E+00  0.00000000E+00  0.00000000E+00
  0.00000000E+00  0.00000000E+00  0.00000000E+00
  0.00000000E+00  0.00000000E+00  0.00000000E+00
  0.00000000E+00  0.00000000E+00  0.00000000E+00
  0.00000000E+00  0.00000000E+00  0.00000000E+00
  0.00000000E+00  0.00000000E+00  0.00000000E+00
  0.00000000E+00  0.00000000E+00  0.00000000E+00
  0.00000000E+00  0.00000000E+00  0.00000000E+00
  0.00000000E+00  0.00000000E+00  0.00000000E+00
  0.00000000E+00  0.00000000E+00  0.00000000E+00
  0.00000000E+00  0.00000000E+00  0.00000000E+00
  0.00000000E+00  0.00000000E+00  0.00000000E+00
  0.00000000E+00  0.00000000E+00  0.00000000E+00
  0.00000000E+00  0.00000000E+00  0.00000000E+00
  0.00000000E+00  0.00000000E+00  0.00000000E+00
  0.00000000E+00  0.00000000E+00  0.00000000E+00
  0.00000000E+00  0.00000000E+00  0.00000000E+00
  0.00000000E+00  0.00000000E+00  0.00000000E+00
  0.00000000E+00  0.00000000E+00  0.00000000E+00
  0.00000000E+00  0.00000000E+00  0.00000000E+00
