In Br Cd                                
   1.00000000000000     
    11.0606559999999998  -11.0606559999999998    0.0000000000000000
    11.0606559999999998   11.0606559999999998    0.0000000000000000
     0.0000000000000000    0.0000000000000000   22.1213109999999986
   Br   Cd   In
    96    32    32
Direct
  0.9768682703738487  0.3238416467879136  0.9774207966344538
  0.0155074127505059  0.2311893166352890  0.2607383916182621
  0.9663193514256702  0.2754166191124398  0.5004754219347111
  0.0277720711914331  0.1864801998701988  0.7469865871377283
  0.4883815917091118  0.3237101812636583  0.9941332049056513
  0.4603876308174605  0.2312845624093710  0.2577182429794305
  0.5319752178746875  0.2615803981805551  0.4663289498462498
  0.5163482815558348  0.1742997064676270  0.7703756755946913
  0.2550125562398936  0.4525249519208172  0.0022071680109298
  0.1816030492478935  0.4883264368733353  0.2600096348842951
  0.2791874585314169  0.4896386785930626  0.5118118729762726
  0.2686614449500686  0.5210011733097277  0.7271051953736063
  0.0354496168972243  0.7645785315612272  0.9813154195463912
  0.9952523910209637  0.7024726575564294  0.2565803522278707
  0.9904338408816523  0.8048164449858285  0.5019884487299865
  0.0195292616248766  0.7113219436657388  0.7557195432857767
  0.7226995386231460  0.4539269628809945  0.9813499796143407
  0.7651972927981180  0.5723196767383094  0.2582980929048791
  0.7542510937669529  0.4609906100407190  0.4881429006373276
  0.7726433707428929  0.5901244944725483  0.7598670850941288
  0.4575592716186619  0.7377088621125112  0.0309944714360511
  0.5515283097518506  0.7206666806205767  0.2467928008518874
  0.4833871971930268  0.8150948944533810  0.4981671465788300
  0.5335890738962112  0.7007614116137314  0.7384715708787373
  0.2753012328766181  0.9365169746839703  0.0218514615509060
  0.2346540548149736  0.0538354950600730  0.2377688207580436
  0.2288898286365256  0.9280639394938845  0.5086903702005000
  0.2732447079609032  0.0842985117889566  0.7363618201877035
  0.7502640693054828  0.9940557101195184  0.0113422933316629
  0.7856929195358323  0.0039428186848115  0.2203711190907438
  0.7071386922195388  0.9781502027593496  0.5048418809074603
  0.7676631521877212  0.0490762564235222  0.7520755465318074
  0.1595219354192991  0.1323313417498674  0.0772861172177930
  0.0874658068910148  0.0871367954237136  0.3918316176263189
  0.1443652396827908  0.1555584830588483  0.5925324350624592
  0.1300026994121104  0.1614200289410100  0.9064049328196945
  0.6539953610745566  0.1897425293717930  0.1285279084199158
  0.6126979599173020  0.0762356479475125  0.3386332608060544
  0.6352315685352412  0.1580329127820056  0.6145559183274673
  0.6408625611821779  0.1840857737092991  0.9144225153752791
  0.3190863449210692  0.3269218895348021  0.1416036618687730
  0.3709573462701893  0.4013478904056375  0.3692866299521352
  0.4013774684107649  0.3355939259955931  0.6326169730513233
  0.3415397239113440  0.3213380555651669  0.8463128600305864
  0.1570669097939300  0.6437439516611521  0.1110768569639893
  0.1249874150936636  0.6208561930068254  0.4144749088780934
  0.1499252542322776  0.6873224091061044  0.6096439533651099
  0.1734087072078650  0.6232234580275547  0.8771238479318810
  0.8254889873721551  0.3754083289049059  0.1409077346828928
  0.9084643210339666  0.4070289064285337  0.3560508116607463
  0.8636709377551840  0.3357687454781720  0.6450725193476293
  0.8528874847415651  0.3529777809579884  0.8281081059533120
  0.6611337634642696  0.6350421201215591  0.1019502436587993
  0.6034058122526562  0.6041447989857389  0.3988252315086788
  0.6492076000768858  0.6735010065804311  0.5798190711625115
  0.6436882782484187  0.6611584581408407  0.9011319529366397
  0.3344824852613236  0.8470961331300889  0.1888762111090443
  0.4008236305409672  0.9036592473903700  0.3561739735611439
  0.3476763550300545  0.8580668875273986  0.6641818451144811
  0.3824523911836211  0.8159728471392951  0.8741195492296906
  0.8594699093111272  0.8276672795494211  0.1101786198492009
  0.8912810229853892  0.9005424605100675  0.3547384467238865
  0.8411222452793892  0.8461823091280120  0.6482358741137951
  0.8601168688428152  0.8550311198385603  0.8683543508542709
  0.9089940275003926  0.1469438441611964  0.1101861111438410
  0.8337066940457133  0.1559378483752247  0.3856350147774379
  0.8786373151069438  0.0937180700570336  0.5971712501354327
  0.8937324660691007  0.1025958296246993  0.8950004740763656
  0.4170054619094919  0.1146838987696344  0.0936577072833479
  0.3352722782324748  0.1259712396858489  0.3924151681859480
  0.3855289712157394  0.0850596124733405  0.5830412521881703
  0.3782477731498913  0.0726574756147100  0.8981747183796565
  0.0814317475389753  0.3976769617863192  0.1236993422739886
  0.1462302941038911  0.3378554165841807  0.4068568626191381
  0.0870188827107599  0.4053818576878586  0.6310477856389359
  0.1086563003364543  0.3941075263411828  0.8318934388968411
  0.9143321122745403  0.5904738433296445  0.0973441226465419
  0.8724779890702268  0.6444510742864840  0.4049423411960813
  0.9060249796861274  0.6023938003491675  0.6081065641730552
  0.9063723357559978  0.5735645204938440  0.8956685887226777
  0.5534863888651498  0.4213856134519417  0.1467254120495545
  0.6662425144109599  0.3657757785037406  0.3115106439545303
  0.6461712174450406  0.4284314994695489  0.6397936569981851
  0.6070479919942188  0.4074843471799305  0.8172798590253788
  0.3727848365716094  0.5853928275747026  0.1706975348398242
  0.3673316891281420  0.6526223201951875  0.3633866381702781
  0.4133503788445870  0.6254214817789351  0.6000582639948083
  0.4203611615354956  0.5409390973196028  0.8757704609161513
  0.0771991918569721  0.8915292264307138  0.1428453629978667
  0.1419384028159916  0.8582123208817953  0.3422760432522163
  0.0878756402865112  0.9191634221446477  0.6545314535055030
  0.1434501823217447  0.9006943827212086  0.8439135262022694
  0.5649473838156682  0.9138770404306327  0.1347397106084540
  0.6615937993103583  0.8416818371194764  0.3687348437711575
  0.5949513687602570  0.9108957137063157  0.6611857185127853
  0.6167528943497439  0.9255669701015248  0.8692259532048772
  0.0371961325028257  0.2456192102243631  0.0778403211474297
  0.9956758485830216  0.2461533455057899  0.3801930183700670
  0.9938502949272747  0.2277270670145238  0.6270775349365947
  0.9939810133191800  0.2560128186636340  0.8604403345940744
  0.4897591425605273  0.2596456074371317  0.1304563571969520
  0.5659978795257997  0.2426450799232479  0.3529481356389332
  0.4757546559113677  0.1890115684757328  0.6540851336752672
  0.5090789713824205  0.2890045237168501  0.8749011078372849
  0.2421097307657757  0.4816878783237586  0.1325936983101985
  0.2258932208419718  0.4898641966204690  0.3810424383079301
  0.2057716831729922  0.5250184513583686  0.6161931310011559
  0.2561544657161108  0.4720586397599634  0.8785866072892914
  0.0019756519905175  0.7312083169078964  0.1313163744531074
  0.0060968212908023  0.7531465821671155  0.3800428090340711
  0.9915512492696799  0.7642020378510656  0.6274911683176914
  0.9731901575584364  0.7289870450040180  0.8722234953943989
  0.7112129530650964  0.4936200737039653  0.1553907734113860
  0.7524623657034197  0.5011422307202681  0.3707491177660829
  0.7456348814618906  0.5635191959882827  0.6407407963625407
  0.7402770460031326  0.5013911055954038  0.8670923349995007
  0.4589217978769633  0.7430637764081895  0.1480115927893778
  0.5056025779302067  0.7594861163304136  0.3714907370134757
  0.4953655817285270  0.7751719296775530  0.6194164310582996
  0.4902416213555850  0.6930591445799194  0.8556564532782996
  0.2289134920969322  0.9740047344067736  0.1319835156865267
  0.2390715123068570  0.9861933694566534  0.3928116802166449
  0.2440561199117346  0.9956425396174878  0.6292780515109938
  0.2249931168899004  0.0451938244852822  0.8512439926895625
  0.6932014413651181  0.0219343665473943  0.1216980370064168
  0.7568647770716445  0.0009458262677341  0.3876900730047872
  0.7364787186749233  0.0043758659928133  0.6308059799360228
  0.7317952618017749  0.0483415448793431  0.8779553663549624
  0.9522708374218978  0.9698330452918303  0.0257568111679615
  0.0266004355039946  0.0216249025074695  0.2641626541339179
  0.0336728257096793  0.0056591134603685  0.5215140121086465
  0.9658089997827044  0.9827897513078626  0.7768529655867636
  0.4749294931812620  0.9468424910077290  0.9976102885907695
  0.4444849165907914  0.0174359797587044  0.2350570346055015
  0.4959680076573588  0.0202695793841475  0.4601755856191142
  0.4571165666875114  0.9731831549088437  0.7830304457289911
  0.3030529402963487  0.2319701343900978  0.9994353115898281
  0.2526325058459820  0.2650765939466494  0.2840553035971020
  0.3208216415370436  0.2787242034626440  0.4918001525830750
  0.2158103444164414  0.2989977596773440  0.7211726634636687
  0.0559690438197715  0.5294006258200143  0.9985933977622847
  0.9647695406109799  0.4915427331963056  0.2284451070722077
  0.9673055796793211  0.4864309619020641  0.4819195970963104
  0.9646092673961065  0.4897418556930903  0.7445304369835869
  0.7799742367701816  0.2614602485687696  0.0145866152465406
  0.8112123053476367  0.2159336439782224  0.2356677158858182
  0.7689764037058272  0.2561987446713322  0.5201581922704559
  0.7211785177338493  0.2621364813273319  0.7339304637573025
  0.5344395658545456  0.5281244906355702  0.0114464969426006
  0.4934861535049316  0.5216972150598392  0.2875067901387699
  0.5493882516249107  0.4991290830679375  0.5189005346443033
  0.4706591861310391  0.5005855491984603  0.7133123625943014
  0.2502430155496946  0.7417461348281156  0.9864167099458387
  0.2217123415304408  0.6954634692034340  0.2545127651061032
  0.2944891978012389  0.7161952017214120  0.4965991276915488
  0.2251627019526332  0.7413890550732467  0.7622657917667237
  0.8003130240256336  0.6985785803980090  0.0102677651932641
  0.7697308457008981  0.8007114025611668  0.2461511432716194
  0.7790823299216211  0.7792088760876963  0.4922058630289365
  0.7146684727697902  0.8046565584241994  0.7714902664906573
 
  0.00000000E+00  0.00000000E+00  0.00000000E+00
  0.00000000E+00  0.00000000E+00  0.00000000E+00
  0.00000000E+00  0.00000000E+00  0.00000000E+00
  0.00000000E+00  0.00000000E+00  0.00000000E+00
  0.00000000E+00  0.00000000E+00  0.00000000E+00
  0.00000000E+00  0.00000000E+00  0.00000000E+00
  0.00000000E+00  0.00000000E+00  0.00000000E+00
  0.00000000E+00  0.00000000E+00  0.00000000E+00
  0.00000000E+00  0.00000000E+00  0.00000000E+00
  0.00000000E+00  0.00000000E+00  0.00000000E+00
  0.00000000E+00  0.00000000E+00  0.00000000E+00
  0.00000000E+00  0.00000000E+00  0.00000000E+00
  0.00000000E+00  0.00000000E+00  0.00000000E+00
  0.00000000E+00  0.00000000E+00  0.00000000E+00
  0.00000000E+00  0.00000000E+00  0.00000000E+00
  0.00000000E+00  0.00000000E+00  0.00000000E+00
  0.00000000E+00  0.00000000E+00  0.00000000E+00
  0.00000000E+00  0.00000000E+00  0.00000000E+00
  0.00000000E+00  0.00000000E+00  0.00000000E+00
  0.00000000E+00  0.00000000E+00  0.00000000E+00
  0.00000000E+00  0.00000000E+00  0.00000000E+00
  0.00000000E+00  0.00000000E+00  0.00000000E+00
  0.00000000E+00  0.00000000E+00  0.00000000E+00
  0.00000000E+00  0.00000000E+00  0.00000000E+00
  0.00000000E+00  0.00000000E+00  0.00000000E+00
  0.00000000E+00  0.00000000E+00  0.00000000E+00
  0.00000000E+00  0.00000000E+00  0.00000000E+00
  0.00000000E+00  0.00000000E+00  0.00000000E+00
  0.00000000E+00  0.00000000E+00  0.00000000E+00
  0.00000000E+00  0.00000000E+00  0.00000000E+00
  0.00000000E+00  0.00000000E+00  0.00000000E+00
  0.00000000E+00  0.00000000E+00  0.00000000E+00
  0.00000000E+00  0.00000000E+00  0.00000000E+00
  0.00000000E+00  0.00000000E+00  0.00000000E+00
  0.00000000E+00  0.00000000E+00  0.00000000E+00
  0.00000000E+00  0.00000000E+00  0.00000000E+00
  0.00000000E+00  0.00000000E+00  0.00000000E+00
  0.00000000E+00  0.00000000E+00  0.00000000E+00
  0.00000000E+00  0.00000000E+00  0.00000000E+00
  0.00000000E+00  0.00000000E+00  0.00000000E+00
  0.00000000E+00  0.00000000E+00  0.00000000E+00
  0.00000000E+00  0.00000000E+00  0.00000000E+00
  0.00000000E+00  0.00000000E+00  0.00000000E+00
  0.00000000E+00  0.00000000E+00  0.00000000E+00
  0.00000000E+00  0.00000000E+00  0.00000000E+00
  0.00000000E+00  0.00000000E+00  0.00000000E+00
  0.00000000E+00  0.00000000E+00  0.00000000E+00
  0.00000000E+00  0.00000000E+00  0.00000000E+00
  0.00000000E+00  0.00000000E+00  0.00000000E+00
  0.00000000E+00  0.00000000E+00  0.00000000E+00
  0.00000000E+00  0.00000000E+00  0.00000000E+00
  0.00000000E+00  0.00000000E+00  0.00000000E+00
  0.00000000E+00  0.00000000E+00  0.00000000E+00
  0.00000000E+00  0.00000000E+00  0.00000000E+00
  0.00000000E+00  0.00000000E+00  0.00000000E+00
  0.00000000E+00  0.00000000E+00  0.00000000E+00
  0.00000000E+00  0.00000000E+00  0.00000000E+00
  0.00000000E+00  0.00000000E+00  0.00000000E+00
  0.00000000E+00  0.00000000E+00  0.00000000E+00
  0.00000000E+00  0.00000000E+00  0.00000000E+00
  0.00000000E+00  0.00000000E+00  0.00000000E+00
  0.00000000E+00  0.00000000E+00  0.00000000E+00
  0.00000000E+00  0.00000000E+00  0.00000000E+00
  0.00000000E+00  0.00000000E+00  0.00000000E+00
  0.00000000E+00  0.00000000E+00  0.00000000E+00
  0.00000000E+00  0.00000000E+00  0.00000000E+00
  0.00000000E+00  0.00000000E+00  0.00000000E+00
  0.00000000E+00  0.00000000E+00  0.00000000E+00
  0.00000000E+00  0.00000000E+00  0.00000000E+00
  0.00000000E+00  0.00000000E+00  0.00000000E+00
  0.00000000E+00  0.00000000E+00  0.00000000E+00
  0.00000000E+00  0.00000000E+00  0.00000000E+00
  0.00000000E+00  0.00000000E+00  0.00000000E+00
  0.00000000E+00  0.00000000E+00  0.00000000E+00
  0.00000000E+00  0.00000000E+00  0.00000000E+00
  0.00000000E+00  0.00000000E+00  0.00000000E+00
  0.00000000E+00  0.00000000E+00  0.00000000E+00
  0.00000000E+00  0.00000000E+00  0.00000000E+00
  0.00000000E+00  0.00000000E+00  0.00000000E+00
  0.00000000E+00  0.00000000E+00  0.00000000E+00
  0.00000000E+00  0.00000000E+00  0.00000000E+00
  0.00000000E+00  0.00000000E+00  0.00000000E+00
  0.00000000E+00  0.00000000E+00  0.00000000E+00
  0.00000000E+00  0.00000000E+00  0.00000000E+00
  0.00000000E+00  0.00000000E+00  0.00000000E+00
  0.00000000E+00  0.00000000E+00  0.00000000E+00
  0.00000000E+00  0.00000000E+00  0.00000000E+00
  0.00000000E+00  0.00000000E+00  0.00000000E+00
  0.00000000E+00  0.00000000E+00  0.00000000E+00
  0.00000000E+00  0.00000000E+00  0.00000000E+00
  0.00000000E+00  0.00000000E+00  0.00000000E+00
  0.00000000E+00  0.00000000E+00  0.00000000E+00
  0.00000000E+00  0.00000000E+00  0.00000000E+00
  0.00000000E+00  0.00000000E+00  0.00000000E+00
  0.00000000E+00  0.00000000E+00  0.00000000E+00
  0.00000000E+00  0.00000000E+00  0.00000000E+00
  0.00000000E+00  0.00000000E+00  0.00000000E+00
  0.00000000E+00  0.00000000E+00  0.00000000E+00
  0.00000000E+00  0.00000000E+00  0.00000000E+00
  0.00000000E+00  0.00000000E+00  0.00000000E+00
  0.00000000E+00  0.00000000E+00  0.00000000E+00
  0.00000000E+00  0.00000000E+00  0.00000000E+00
  0.00000000E+00  0.00000000E+00  0.00000000E+00
  0.00000000E+00  0.00000000E+00  0.00000000E+00
  0.00000000E+00  0.00000000E+00  0.00000000E+00
  0.00000000E+00  0.00000000E+00  0.00000000E+00
  0.00000000E+00  0.00000000E+00  0.00000000E+00
  0.00000000E+00  0.00000000E+00  0.00000000E+00
  0.00000000E+00  0.00000000E+00  0.00000000E+00
  0.00000000E+00  0.00000000E+00  0.00000000E+00
  0.00000000E+00  0.00000000E+00  0.00000000E+00
  0.00000000E+00  0.00000000E+00  0.00000000E+00
  0.00000000E+00  0.00000000E+00  0.00000000E+00
  0.00000000E+00  0.00000000E+00  0.00000000E+00
  0.00000000E+00  0.00000000E+00  0.00000000E+00
  0.00000000E+00  0.00000000E+00  0.00000000E+00
  0.00000000E+00  0.00000000E+00  0.00000000E+00
  0.00000000E+00  0.00000000E+00  0.00000000E+00
  0.00000000E+00  0.00000000E+00  0.00000000E+00
  0.00000000E+00  0.00000000E+00  0.00000000E+00
  0.00000000E+00  0.00000000E+00  0.00000000E+00
  0.00000000E+00  0.00000000E+00  0.00000000E+00
  0.00000000E+00  0.00000000E+00  0.00000000E+00
  0.00000000E+00  0.00000000E+00  0.00000000E+00
  0.00000000E+00  0.00000000E+00  0.00000000E+00
  0.00000000E+00  0.00000000E+00  0.00000000E+00
  0.00000000E+00  0.00000000E+00  0.00000000E+00
  0.00000000E+00  0.00000000E+00  0.00000000E+00
  0.00000000E+00  0.00000000E+00  0.00000000E+00
  0.00000000E+00  0.00000000E+00  0.00000000E+00
  0.00000000E+00  0.00000000E+00  0.00000000E+00
  0.00000000E+00  0.00000000E+00  0.00000000E+00
  0.00000000E+00  0.00000000E+00  0.00000000E+00
  0.00000000E+00  0.00000000E+00  0.00000000E+00
  0.00000000E+00  0.00000000E+00  0.00000000E+00
  0.00000000E+00  0.00000000E+00  0.00000000E+00
  0.00000000E+00  0.00000000E+00  0.00000000E+00
  0.00000000E+00  0.00000000E+00  0.00000000E+00
  0.00000000E+00  0.00000000E+00  0.00000000E+00
  0.00000000E+00  0.00000000E+00  0.00000000E+00
  0.00000000E+00  0.00000000E+00  0.00000000E+00
  0.00000000E+00  0.00000000E+00  0.00000000E+00
  0.00000000E+00  0.00000000E+00  0.00000000E+00
  0.00000000E+00  0.00000000E+00  0.00000000E+00
  0.00000000E+00  0.00000000E+00  0.00000000E+00
  0.00000000E+00  0.00000000E+00  0.00000000E+00
  0.00000000E+00  0.00000000E+00  0.00000000E+00
  0.00000000E+00  0.00000000E+00  0.00000000E+00
  0.00000000E+00  0.00000000E+00  0.00000000E+00
  0.00000000E+00  0.00000000E+00  0.00000000E+00
  0.00000000E+00  0.00000000E+00  0.00000000E+00
  0.00000000E+00  0.00000000E+00  0.00000000E+00
  0.00000000E+00  0.00000000E+00  0.00000000E+00
  0.00000000E+00  0.00000000E+00  0.00000000E+00
  0.00000000E+00  0.00000000E+00  0.00000000E+00
  0.00000000E+00  0.00000000E+00  0.00000000E+00
  0.00000000E+00  0.00000000E+00  0.00000000E+00
  0.00000000E+00  0.00000000E+00  0.00000000E+00
  0.00000000E+00  0.00000000E+00  0.00000000E+00
  0.00000000E+00  0.00000000E+00  0.00000000E+00
