Rb In Cl                                
   1.00000000000000     
    10.8927870000000002  -10.8927870000000002    0.0000000000000000
    10.8927870000000002   10.8927870000000002    0.0000000000000000
     0.0000000000000000    0.0000000000000000   21.7855750000000015
   Rb   In   Cl
    32    32    96
Direct
  0.9859810652861900  0.0348310920042002  0.0000823082532774
  0.0088320564247753  0.9835294054342592  0.2444499759372752
  0.0133426949696344  0.0032751131754739  0.4935354066127944
  0.9799519018467739  0.0318212339961167  0.7464873280098216
  0.5286852032589180  0.0265766095448057  0.0092485575849824
  0.4742877432314035  0.9726302034864371  0.2489256427607665
  0.4877044500379762  0.9916596648854887  0.5259217331562097
  0.5197080952406942  0.9877424609244159  0.7601885641774800
  0.2378628428975539  0.2803650372065519  0.0039136826544134
  0.2747591204412011  0.2318288276417210  0.2634188890916791
  0.2717231487745128  0.2306555813141236  0.4949564362457383
  0.2569232480886115  0.2293980341498058  0.7533688904381549
  0.9822478762542345  0.5109652203479581  0.0129275271733126
  0.0136314752160443  0.4893340496998899  0.2611848777617831
  0.0180230779259010  0.5009709835521156  0.4920364653852901
  0.9884010643151339  0.5074690883563922  0.7473086869515697
  0.7489794128905222  0.2514096989116718  0.9851750387783045
  0.7264279883842836  0.2865370032675876  0.2550932025725585
  0.7693156109252328  0.2904854627585714  0.5024073127432579
  0.7213009795102412  0.2220625249840945  0.7416860537755986
  0.5044348320962940  0.5416353200968667  0.9889978678362807
  0.4756826242692163  0.4913414173791837  0.2515544326687764
  0.4919252265568924  0.4715889690947371  0.4900442930590783
  0.4994534196537835  0.4919701800141528  0.7291320245358647
  0.2577463528679577  0.7756557272298857  0.0092441290303316
  0.2542851394729678  0.7211405950531408  0.2447048277256020
  0.2329377050980921  0.7420553394030033  0.4732584497073015
  0.2651153913291954  0.7622350452333052  0.7523604994784706
  0.7544464287828815  0.7932316472272162  0.0069919073971127
  0.7419607647444586  0.7107261906956667  0.2298631518077217
  0.7598471679976172  0.7159563083200612  0.5183552505514079
  0.7842146715003130  0.7665216453428746  0.7648775391505001
  0.0040848068115351  0.2534155978891552  0.1337238305563819
  0.0034457838936833  0.2330734310229944  0.3727744441324834
  0.0114565263871092  0.2529302834679098  0.6217878620372785
  0.9905596681457681  0.2905827915898407  0.8716393814320139
  0.4915781982916607  0.2618834486740247  0.1245811000364249
  0.5208290840675689  0.2206726971874448  0.3765925833056282
  0.4929367253350799  0.2388469540186862  0.6266136195409006
  0.4843204004039997  0.2611924300873078  0.8788249491408149
  0.2472060472056965  0.4990673149074609  0.1237072782763161
  0.2492638720640080  0.4879986806841182  0.3779974818239598
  0.2406100140463459  0.4874654936005079  0.6253010449712547
  0.2499033654047762  0.5124488796930614  0.8660435581790864
  0.9975100658005622  0.7496124631843801  0.1253375970990807
  0.9770414639141554  0.7542850990534525  0.3679439397912649
  0.0152466137945745  0.7460677605221007  0.6263163065184398
  0.0200643992115269  0.7559548907723617  0.8793142672332743
  0.7399584099883623  0.4879915767206857  0.1158015211161013
  0.7454820850059686  0.5062048272248670  0.3722962991033566
  0.7537056708099834  0.4963554581096531  0.6276500642794397
  0.7407649841904254  0.5119062031544543  0.8605723559937121
  0.5057681558052135  0.7525646492304364  0.1235060159866579
  0.4961824754539618  0.7524756441967626  0.3803590743555018
  0.5046963498842055  0.7413204114561440  0.6265163312442733
  0.5176028001157988  0.7565749631005282  0.8709164533230984
  0.2487960454642985  0.0029362047735647  0.1203496871553268
  0.2484605668287937  0.9888154585059272  0.3746574073849019
  0.2417687423305625  0.9820819004812235  0.6328795391690977
  0.2435459296413652  0.0164500086248096  0.8842244790159068
  0.7435587817147854  0.0142013776377344  0.1643971864568425
  0.7273641815069125  0.9864941506297201  0.3774335499965115
  0.7596046972965707  0.9971967175462372  0.5859446266007614
  0.7537732962403751  0.0091431363137135  0.8796928405251869
  0.9690559926465718  0.2725917457739970  0.0193648453233829
  0.0528722159715783  0.2356706801924520  0.2571167087938225
  0.9753016596530376  0.2269749005712355  0.4913254062939266
  0.0411936776417223  0.2559608677910997  0.7368679099525965
  0.4534597646095728  0.2355933309002979  0.0133528983029674
  0.5085283324668506  0.2831800923087623  0.2390670728149069
  0.4872226875049858  0.2244767338995058  0.5114359347085661
  0.4893452574517378  0.2671875699870539  0.7409591386285171
  0.2678094297998901  0.4948273452298456  0.0098268354841581
  0.2323922466328061  0.4983386480566055  0.2399950151625846
  0.2642178071241661  0.5241172906914494  0.5133969319180886
  0.2101185974202855  0.4390953490794662  0.7316675843941521
  0.9718646233060958  0.7254980299670681  0.0118712235743194
  0.0447720866129592  0.7672674131228242  0.2354957599388326
  0.9960465534645109  0.7262507745838155  0.5125371953474643
  0.0390616281970638  0.7454562490709572  0.7409511643263501
  0.7739743892866728  0.4695356543742029  0.9702361548062594
  0.6847833965842991  0.5004974773690753  0.2389627735285236
  0.8070283158206037  0.5072155079127533  0.5008241781662883
  0.6963738578168617  0.5653939537344970  0.7562978713230022
  0.4779992772299936  0.7598239716596678  0.9849321271352581
  0.5242793075800813  0.7578345432664388  0.2669495303470715
  0.4504220575147050  0.7755826501796912  0.4888544752217246
  0.5709899762453420  0.7762027765390498  0.7630060828441637
  0.3159577100672238  0.9945741312220368  0.9864273872996097
  0.2254997378466419  0.0119352380287527  0.2591802852044087
  0.2647418819471278  0.9788368466977712  0.4917176334585492
  0.1995830837914814  0.9870585074407003  0.7741125753786466
  0.7607788996055478  0.0248325710164471  0.9982793884518075
  0.6664147375824547  0.0838343383231839  0.2942746485988361
  0.8178452118166106  0.9098244238971835  0.4568384331878060
  0.7473456208564425  0.9926971052793886  0.7623144288588461
  0.1398587239477898  0.1710546530840106  0.1156016285548265
  0.1421089686276238  0.1311272959910680  0.3947147346057521
  0.1069606317750104  0.1250755833182276  0.6072145953239053
  0.1475271540063772  0.1450891836358602  0.9019403777576662
  0.6382799224473343  0.1857159198400559  0.1137026456423847
  0.6876602890744472  0.0945290397637030  0.4581201358882591
  0.5935083536643398  0.1079532802942720  0.6399538738438514
  0.6386433999500790  0.1270146640421589  0.8762075786608211
  0.3335339073934520  0.3493018338675082  0.1375101897472169
  0.3768682427903676  0.3466220772793683  0.3795744371419750
  0.3819755318318614  0.3826095410630874  0.6138744603101562
  0.3245989622302852  0.3355910502940472  0.8738678688876637
  0.1501308013733947  0.6410536034366326  0.1125456256464374
  0.1141128479659487  0.6286239735068433  0.3732970555784180
  0.0976092694360085  0.5784984730184413  0.6243039336449440
  0.1839303276512627  0.6880012544133494  0.8838093437402322
  0.8925707047489119  0.3572627947118360  0.1681355704936134
  0.8805747061366771  0.3386472100027907  0.3578207625303848
  0.9243461206585813  0.3863312144225527  0.6162570778697759
  0.8252521196109820  0.3811849936299624  0.8162973055068881
  0.6606969245162012  0.6457454103003706  0.0922993646799548
  0.6291172351269686  0.6654504084742225  0.4021261942857813
  0.6066180526176004  0.5876607352224369  0.5904445513828753
  0.6533007255055943  0.6636158532333458  0.9040108314762850
  0.3469950430905424  0.8562690679112730  0.1445511258602616
  0.3487641150513204  0.8507217105010063  0.3506732941351168
  0.3942338237138538  0.8979064524391049  0.6542403586143162
  0.3930605902381782  0.8615126036266998  0.8512485749064808
  0.8650315937036320  0.8471434592340332  0.1369576405763646
  0.8014035695962249  0.9030169651992579  0.2952843734641105
  0.9414243095660146  0.8943301921217423  0.6271306326691047
  0.8624140299623763  0.8872300467696761  0.8848524293771023
  0.9147627443750147  0.1175087882683244  0.1413533106784953
  0.9139142034111357  0.0981770085620462  0.3591318732240860
  0.8755011645632332  0.1606680492255252  0.6368260616811305
  0.8739915135082035  0.1231458646294486  0.8696638692571820
  0.4066345805205301  0.1236602964343920  0.1501632552349272
  0.3757434558832835  0.0881603468406662  0.3703576560978048
  0.3565281068340839  0.1462095323751812  0.6311245128677612
  0.3751010608666735  0.0969760074218122  0.8466360042986835
  0.1055745279760017  0.4063857799688003  0.1181540645014627
  0.1090374615060070  0.3578436577344591  0.3891222512038300
  0.1478672232719422  0.3523541996913656  0.5840431583142415
  0.0743850363766603  0.4502500667673990  0.8843232434109047
  0.9161612304629611  0.6109926465491657  0.1477854952240379
  0.8775895937298152  0.6207198261957710  0.3266889134086179
  0.8761830681870021  0.6597174965323446  0.6462344149807500
  0.8721781822924771  0.6110267435908058  0.8587644659576743
  0.5567246217460479  0.4080836776566791  0.1013243430276599
  0.6276161715474726  0.3594519757923921  0.3987535056191339
  0.6218572288002013  0.3424328975295796  0.6193533541463033
  0.5988792274070254  0.4279358528735985  0.8703796460128407
  0.3792068849330384  0.5944018368500771  0.1353445452021130
  0.3967083906950981  0.6212041563491052  0.3675924220905766
  0.3400813714078826  0.6062580922291592  0.6600003445918344
  0.4307920990677540  0.6230008345286289  0.8481142710143720
  0.0933240636467541  0.8798002714713273  0.0981818894018094
  0.1180167589950648  0.8935580611599411  0.3805754458808822
  0.1681721144114905  0.8027235070386811  0.6108057708368605
  0.1272916681272834  0.9123048371249369  0.9193764892609566
  0.6034702624610412  0.9106707872428366  0.1263730379205240
  0.5802235270931859  0.9093602944285635  0.3900011412910170
  0.6442714402841626  0.8598902373536605  0.5962391659945570
  0.6218270081611342  0.8980995219740325  0.8994212769945781
 
  0.00000000E+00  0.00000000E+00  0.00000000E+00
  0.00000000E+00  0.00000000E+00  0.00000000E+00
  0.00000000E+00  0.00000000E+00  0.00000000E+00
  0.00000000E+00  0.00000000E+00  0.00000000E+00
  0.00000000E+00  0.00000000E+00  0.00000000E+00
  0.00000000E+00  0.00000000E+00  0.00000000E+00
  0.00000000E+00  0.00000000E+00  0.00000000E+00
  0.00000000E+00  0.00000000E+00  0.00000000E+00
  0.00000000E+00  0.00000000E+00  0.00000000E+00
  0.00000000E+00  0.00000000E+00  0.00000000E+00
  0.00000000E+00  0.00000000E+00  0.00000000E+00
  0.00000000E+00  0.00000000E+00  0.00000000E+00
  0.00000000E+00  0.00000000E+00  0.00000000E+00
  0.00000000E+00  0.00000000E+00  0.00000000E+00
  0.00000000E+00  0.00000000E+00  0.00000000E+00
  0.00000000E+00  0.00000000E+00  0.00000000E+00
  0.00000000E+00  0.00000000E+00  0.00000000E+00
  0.00000000E+00  0.00000000E+00  0.00000000E+00
  0.00000000E+00  0.00000000E+00  0.00000000E+00
  0.00000000E+00  0.00000000E+00  0.00000000E+00
  0.00000000E+00  0.00000000E+00  0.00000000E+00
  0.00000000E+00  0.00000000E+00  0.00000000E+00
  0.00000000E+00  0.00000000E+00  0.00000000E+00
  0.00000000E+00  0.00000000E+00  0.00000000E+00
  0.00000000E+00  0.00000000E+00  0.00000000E+00
  0.00000000E+00  0.00000000E+00  0.00000000E+00
  0.00000000E+00  0.00000000E+00  0.00000000E+00
  0.00000000E+00  0.00000000E+00  0.00000000E+00
  0.00000000E+00  0.00000000E+00  0.00000000E+00
  0.00000000E+00  0.00000000E+00  0.00000000E+00
  0.00000000E+00  0.00000000E+00  0.00000000E+00
  0.00000000E+00  0.00000000E+00  0.00000000E+00
  0.00000000E+00  0.00000000E+00  0.00000000E+00
  0.00000000E+00  0.00000000E+00  0.00000000E+00
  0.00000000E+00  0.00000000E+00  0.00000000E+00
  0.00000000E+00  0.00000000E+00  0.00000000E+00
  0.00000000E+00  0.00000000E+00  0.00000000E+00
  0.00000000E+00  0.00000000E+00  0.00000000E+00
  0.00000000E+00  0.00000000E+00  0.00000000E+00
  0.00000000E+00  0.00000000E+00  0.00000000E+00
  0.00000000E+00  0.00000000E+00  0.00000000E+00
  0.00000000E+00  0.00000000E+00  0.00000000E+00
  0.00000000E+00  0.00000000E+00  0.00000000E+00
  0.00000000E+00  0.00000000E+00  0.00000000E+00
  0.00000000E+00  0.00000000E+00  0.00000000E+00
  0.00000000E+00  0.00000000E+00  0.00000000E+00
  0.00000000E+00  0.00000000E+00  0.00000000E+00
  0.00000000E+00  0.00000000E+00  0.00000000E+00
  0.00000000E+00  0.00000000E+00  0.00000000E+00
  0.00000000E+00  0.00000000E+00  0.00000000E+00
  0.00000000E+00  0.00000000E+00  0.00000000E+00
  0.00000000E+00  0.00000000E+00  0.00000000E+00
  0.00000000E+00  0.00000000E+00  0.00000000E+00
  0.00000000E+00  0.00000000E+00  0.00000000E+00
  0.00000000E+00  0.00000000E+00  0.00000000E+00
  0.00000000E+00  0.00000000E+00  0.00000000E+00
  0.00000000E+00  0.00000000E+00  0.00000000E+00
  0.00000000E+00  0.00000000E+00  0.00000000E+00
  0.00000000E+00  0.00000000E+00  0.00000000E+00
  0.00000000E+00  0.00000000E+00  0.00000000E+00
  0.00000000E+00  0.00000000E+00  0.00000000E+00
  0.00000000E+00  0.00000000E+00  0.00000000E+00
  0.00000000E+00  0.00000000E+00  0.00000000E+00
  0.00000000E+00  0.00000000E+00  0.00000000E+00
  0.00000000E+00  0.00000000E+00  0.00000000E+00
  0.00000000E+00  0.00000000E+00  0.00000000E+00
  0.00000000E+00  0.00000000E+00  0.00000000E+00
  0.00000000E+00  0.00000000E+00  0.00000000E+00
  0.00000000E+00  0.00000000E+00  0.00000000E+00
  0.00000000E+00  0.00000000E+00  0.00000000E+00
  0.00000000E+00  0.00000000E+00  0.00000000E+00
  0.00000000E+00  0.00000000E+00  0.00000000E+00
  0.00000000E+00  0.00000000E+00  0.00000000E+00
  0.00000000E+00  0.00000000E+00  0.00000000E+00
  0.00000000E+00  0.00000000E+00  0.00000000E+00
  0.00000000E+00  0.00000000E+00  0.00000000E+00
  0.00000000E+00  0.00000000E+00  0.00000000E+00
  0.00000000E+00  0.00000000E+00  0.00000000E+00
  0.00000000E+00  0.00000000E+00  0.00000000E+00
  0.00000000E+00  0.00000000E+00  0.00000000E+00
  0.00000000E+00  0.00000000E+00  0.00000000E+00
  0.00000000E+00  0.00000000E+00  0.00000000E+00
  0.00000000E+00  0.00000000E+00  0.00000000E+00
  0.00000000E+00  0.00000000E+00  0.00000000E+00
  0.00000000E+00  0.00000000E+00  0.00000000E+00
  0.00000000E+00  0.00000000E+00  0.00000000E+00
  0.00000000E+00  0.00000000E+00  0.00000000E+00
  0.00000000E+00  0.00000000E+00  0.00000000E+00
  0.00000000E+00  0.00000000E+00  0.00000000E+00
  0.00000000E+00  0.00000000E+00  0.00000000E+00
  0.00000000E+00  0.00000000E+00  0.00000000E+00
  0.00000000E+00  0.00000000E+00  0.00000000E+00
  0.00000000E+00  0.00000000E+00  0.00000000E+00
  0.00000000E+00  0.00000000E+00  0.00000000E+00
  0.00000000E+00  0.00000000E+00  0.00000000E+00
  0.00000000E+00  0.00000000E+00  0.00000000E+00
  0.00000000E+00  0.00000000E+00  0.00000000E+00
  0.00000000E+00  0.00000000E+00  0.00000000E+00
  0.00000000E+00  0.00000000E+00  0.00000000E+00
  0.00000000E+00  0.00000000E+00  0.00000000E+00
  0.00000000E+00  0.00000000E+00  0.00000000E+00
  0.00000000E+00  0.00000000E+00  0.00000000E+00
  0.00000000E+00  0.00000000E+00  0.00000000E+00
  0.00000000E+00  0.00000000E+00  0.00000000E+00
  0.00000000E+00  0.00000000E+00  0.00000000E+00
  0.00000000E+00  0.00000000E+00  0.00000000E+00
  0.00000000E+00  0.00000000E+00  0.00000000E+00
  0.00000000E+00  0.00000000E+00  0.00000000E+00
  0.00000000E+00  0.00000000E+00  0.00000000E+00
  0.00000000E+00  0.00000000E+00  0.00000000E+00
  0.00000000E+00  0.00000000E+00  0.00000000E+00
  0.00000000E+00  0.00000000E+00  0.00000000E+00
  0.00000000E+00  0.00000000E+00  0.00000000E+00
  0.00000000E+00  0.00000000E+00  0.00000000E+00
  0.00000000E+00  0.00000000E+00  0.00000000E+00
  0.00000000E+00  0.00000000E+00  0.00000000E+00
  0.00000000E+00  0.00000000E+00  0.00000000E+00
  0.00000000E+00  0.00000000E+00  0.00000000E+00
  0.00000000E+00  0.00000000E+00  0.00000000E+00
  0.00000000E+00  0.00000000E+00  0.00000000E+00
  0.00000000E+00  0.00000000E+00  0.00000000E+00
  0.00000000E+00  0.00000000E+00  0.00000000E+00
  0.00000000E+00  0.00000000E+00  0.00000000E+00
  0.00000000E+00  0.00000000E+00  0.00000000E+00
  0.00000000E+00  0.00000000E+00  0.00000000E+00
  0.00000000E+00  0.00000000E+00  0.00000000E+00
  0.00000000E+00  0.00000000E+00  0.00000000E+00
  0.00000000E+00  0.00000000E+00  0.00000000E+00
  0.00000000E+00  0.00000000E+00  0.00000000E+00
  0.00000000E+00  0.00000000E+00  0.00000000E+00
  0.00000000E+00  0.00000000E+00  0.00000000E+00
  0.00000000E+00  0.00000000E+00  0.00000000E+00
  0.00000000E+00  0.00000000E+00  0.00000000E+00
  0.00000000E+00  0.00000000E+00  0.00000000E+00
  0.00000000E+00  0.00000000E+00  0.00000000E+00
  0.00000000E+00  0.00000000E+00  0.00000000E+00
  0.00000000E+00  0.00000000E+00  0.00000000E+00
  0.00000000E+00  0.00000000E+00  0.00000000E+00
  0.00000000E+00  0.00000000E+00  0.00000000E+00
  0.00000000E+00  0.00000000E+00  0.00000000E+00
  0.00000000E+00  0.00000000E+00  0.00000000E+00
  0.00000000E+00  0.00000000E+00  0.00000000E+00
  0.00000000E+00  0.00000000E+00  0.00000000E+00
  0.00000000E+00  0.00000000E+00  0.00000000E+00
  0.00000000E+00  0.00000000E+00  0.00000000E+00
  0.00000000E+00  0.00000000E+00  0.00000000E+00
  0.00000000E+00  0.00000000E+00  0.00000000E+00
  0.00000000E+00  0.00000000E+00  0.00000000E+00
  0.00000000E+00  0.00000000E+00  0.00000000E+00
  0.00000000E+00  0.00000000E+00  0.00000000E+00
  0.00000000E+00  0.00000000E+00  0.00000000E+00
  0.00000000E+00  0.00000000E+00  0.00000000E+00
  0.00000000E+00  0.00000000E+00  0.00000000E+00
  0.00000000E+00  0.00000000E+00  0.00000000E+00
  0.00000000E+00  0.00000000E+00  0.00000000E+00
  0.00000000E+00  0.00000000E+00  0.00000000E+00
  0.00000000E+00  0.00000000E+00  0.00000000E+00
  0.00000000E+00  0.00000000E+00  0.00000000E+00
  0.00000000E+00  0.00000000E+00  0.00000000E+00
  0.00000000E+00  0.00000000E+00  0.00000000E+00
