Rb Mg  I                                
   1.00000000000000     
    11.7495940000000001  -11.7495940000000001    0.0000000000000000
    11.7495940000000001   11.7495940000000001    0.0000000000000000
     0.0000000000000000    0.0000000000000000   23.4991880000000002
   Rb   Mg   I 
    32    32    96
Direct
  0.9826833803312867  0.0177093717682504  0.9922370354141862
  0.9922228364981391  0.0071307256198504  0.2340178148770514
  0.0005277850950552  0.0273331505227292  0.4990374501096320
  0.9954128366898646  0.9845315565369009  0.7500077441108455
  0.5076395372680756  0.9937450873822004  0.0165247058389635
  0.5159959764670700  0.9819764336158564  0.2584516788341110
  0.5020760692485616  0.0149887783639625  0.4999986834181073
  0.4985515324981010  0.9743297801912812  0.7511717133387491
  0.2661543185936903  0.2365969759341155  0.0072800490264689
  0.2594882723600102  0.2391783330557107  0.2631237540286515
  0.2418715435670994  0.2786889133872261  0.5025031362196488
  0.2630957802355905  0.2334893663178678  0.7522466585261292
  0.0072884361852335  0.4929441318768852  0.0162329693226572
  0.0149863140787760  0.4844281897640261  0.2580236781001912
  0.0029765574877398  0.5163357559026430  0.5005816147594900
  0.9997310696179995  0.4742950896555085  0.7510785206561894
  0.7387354610074305  0.2615237098396730  0.9864795394992290
  0.7333313224406441  0.2632300157348424  0.2428898829671380
  0.7358646601390539  0.2670237895082241  0.4979425891317237
  0.7553351495248647  0.2227769966346283  0.7473338274639052
  0.4837740177064864  0.5173649399787540  0.9917284293031411
  0.4921425068570945  0.5077509741492929  0.2340362283919722
  0.4981923220988554  0.5266967332132445  0.4988723835713362
  0.4939276662156183  0.4846761107501489  0.7493854419424532
  0.2391290328090549  0.7612898863503409  0.9871734347637665
  0.2329232290601989  0.7643076113390207  0.2421587674881178
  0.2337410785543343  0.7678137548057720  0.4973456335970658
  0.2561817729475584  0.7226023440871364  0.7476312232174945
  0.7647146739834508  0.7373860287681460  0.0075148251768568
  0.7596867641764238  0.7386939437061405  0.2639898188848303
  0.7436218980421354  0.7776670074173913  0.5028520826730641
  0.7614295307806773  0.7331726219783231  0.7522855427828213
  0.9994641454664301  0.2505722312376700  0.1249540537973094
  0.9993093851642673  0.2502718574736849  0.3744435038951282
  0.9987833048190092  0.2503173232381953  0.6250839669795534
  0.9990768022493558  0.2507082611820476  0.8753716275035539
  0.4996472995901940  0.2507565497266990  0.1253494426084809
  0.5001328531714891  0.2527758226248209  0.3748551255876716
  0.4991000512910261  0.2500137983720123  0.6247327870705878
  0.4983051705486172  0.2474947979076645  0.8752763712677347
  0.2494873402854548  0.5002409632652980  0.1250731264687861
  0.2533610940196816  0.5020286592762822  0.3734185688890490
  0.2489687521981505  0.5002063128797299  0.6249441064129505
  0.2449652224006674  0.4983797290448617  0.8765646603186918
  0.9989923727752342  0.7504590867315488  0.1249176293136908
  0.0003030794613510  0.7529348275906366  0.3745759522270484
  0.9989805926837380  0.7499277944833197  0.6254533822275631
  0.9982052223447870  0.7474799353062295  0.8754828338021606
  0.7495415550867089  0.5004263125487177  0.1249022493576134
  0.7500066485019933  0.5001169967417384  0.3759609229635154
  0.7484677911338720  0.5001503087220532  0.6250358956998565
  0.7482328365667149  0.5002510064172850  0.8741853827995077
  0.4993794852281907  0.7503571792926659  0.1251598784618141
  0.4992387459863851  0.7497819860448786  0.3748271832331875
  0.4987656639295987  0.7507879075233502  0.6245474795436391
  0.4990276825353974  0.7507815713832234  0.8754845267923604
  0.2495756230589413  0.0007071400848927  0.1248852027193949
  0.2505138814196151  0.0006405713771457  0.3754599445589673
  0.2488269136744014  0.0004009279207912  0.6251183161864025
  0.2476782792200986  0.0001249505524788  0.8745869457531582
  0.7492575780742602  0.0007332516336721  0.1254372388226712
  0.7539741763997295  0.0022256786485660  0.3739275708138965
  0.7492622928249323  0.0001904549242178  0.6250352643846756
  0.7449257866839870  0.9983236630036679  0.8762558540950950
  0.9609849531700577  0.2523302879984277  0.0002279619133435
  0.0368641610693278  0.2488727506340757  0.2496729085316062
  0.9646678966608401  0.2536655601733220  0.4998189816493273
  0.0339179286690184  0.2480292901864314  0.7502855841403059
  0.4965348919037807  0.2195932493237059  0.0006409265040908
  0.5039790147988512  0.2820551075481970  0.2500840054333369
  0.4809841319469135  0.2328713051085325  0.5001770173463816
  0.5159659465249198  0.2666693425068052  0.7495003259636829
  0.2535116053032667  0.5316070778210390  0.0015595584692653
  0.2451053343520860  0.4681010220756259  0.2484313768926148
  0.2667581757724157  0.5197869585172104  0.4993846097782125
  0.2313166393286052  0.4809859167950009  0.7505460629729495
  0.9941920707126957  0.7186713126248870  0.0004098685351839
  0.0030078067703775  0.7807411879162957  0.2495006554102370
  0.9828896790692278  0.7346378472782059  0.5005102080421455
  0.0167542072016979  0.7668190093854438  0.7503843022745619
  0.7839623965935395  0.4961176698851851  0.9989664089250160
  0.7153556879984748  0.5043450458999231  0.2511934766194541
  0.7829538787970421  0.4939229833614489  0.5002613682767567
  0.7142751685566092  0.5061079257998861  0.7498363288150617
  0.4620434291592346  0.7531855466673808  0.0003798618049662
  0.5372943027194377  0.7470138163558993  0.2500569192688678
  0.4628729659857964  0.7536038696425463  0.4995503681700504
  0.5323545142148357  0.7480094415155847  0.7503094739572792
  0.2841466332430669  0.9962259237842978  0.9995283517112319
  0.2155206686668573  0.0044803292634263  0.2505622362252848
  0.2823297122988070  0.9939817373893095  0.4996157502728996
  0.2153790408104485  0.0072032359631121  0.7505119658624597
  0.7522596183264785  0.0313629268221891  0.0017886824415694
  0.7462410541187912  0.9686461510860989  0.2490045817607836
  0.7697976941428600  0.0183289688936062  0.4999863625925940
  0.7293428585661198  0.9814097742176475  0.7501121935434654
  0.1075635246273552  0.1082447684327256  0.1054723893501675
  0.1460429285397293  0.1467829989993825  0.3940292490167319
  0.1443778204641130  0.1461733411170475  0.6073944557092498
  0.1410921459419828  0.1442355121421755  0.8944439296935011
  0.6057369397462669  0.1081638611217637  0.1419234516604045
  0.6476623602748918  0.1462023922843981  0.3685613763501647
  0.6456342323928413  0.1460819792200813  0.6207102787467731
  0.6432833906356487  0.1444437222840014  0.8694518615854538
  0.3944720274700359  0.3939336269563368  0.1099056498823619
  0.3550388671466129  0.3559988307892514  0.3806046503373797
  0.3524731062095128  0.3541374843299956  0.6287322230086881
  0.3517178439370939  0.3539312804772738  0.8822339569858633
  0.1054258948774752  0.6078042210921218  0.1400304145199420
  0.1472323120564737  0.6473107226451199  0.3672721365109466
  0.1458646759037653  0.6466050505432545  0.6213274888018180
  0.1434016433760285  0.6444172746640562  0.8696399481405974
  0.8917551786218132  0.3936109849100906  0.1443277773176229
  0.8568963317334704  0.3563408372600341  0.3557180814657614
  0.8534987400128333  0.3551878406462134  0.6428237377469462
  0.8530530363004667  0.3547073113347814  0.8553121643180047
  0.6075575254705426  0.6077518862545016  0.1054865321854301
  0.6454615801216250  0.6455244096128049  0.3952712997946690
  0.6440037529893831  0.6460788817824357  0.6072984144860651
  0.6412746859740853  0.6442956083749327  0.8942145846289814
  0.3914811554475965  0.8930314109437346  0.1446286949527247
  0.3571841691116564  0.8563567420779302  0.3554684748974428
  0.3533203546432013  0.8553834800009246  0.6427071272522479
  0.3522089669460732  0.8546824906980315  0.8561398869786463
  0.8933161621224497  0.8937771730674572  0.1101409101658801
  0.8554683760568541  0.8556962513266971  0.3806664333487681
  0.8527444735517999  0.8538862580094989  0.6294386246049476
  0.8511785191483070  0.8538913257895252  0.8819057816403960
  0.8587105428615257  0.1420356329622565  0.1444135185783412
  0.8990704963291348  0.1038863995325140  0.3592735956815811
  0.8952563211070702  0.1045549613566169  0.6404241290895398
  0.8910276535202079  0.1046472555203232  0.8593808682573788
  0.3556139470642742  0.1443167380764357  0.1390738657806540
  0.3966126140822243  0.1060193664561958  0.3578673153790324
  0.3949029001962918  0.1037608748849548  0.6421037557647545
  0.3915235331402769  0.1063663265445091  0.8567047303018310
  0.1409726746839562  0.3584958333290127  0.1055487439038059
  0.1061858869894083  0.3966540305978069  0.3905232287492639
  0.1027928493773684  0.3963751047338356  0.6103696018902672
  0.1003522579813704  0.3965220967750817  0.8908545322273157
  0.8547403776675558  0.6443903227989773  0.1392242066287802
  0.8964944176877300  0.6059628335603816  0.3592613372931888
  0.8952118031022943  0.6039140931266550  0.6424167379938358
  0.8913577934704228  0.6062261576691451  0.8558416224102240
  0.6443942277800966  0.3566008121836662  0.1111667626406315
  0.6064807512209547  0.3939244295634131  0.3941975306215269
  0.6024887440573274  0.3961179614501966  0.6071463621230894
  0.6026345751802431  0.3942357390021163  0.8911044892175518
  0.3585743035294950  0.6419578755257836  0.1443847447935633
  0.3982290450283912  0.6037313358655036  0.3591228716139440
  0.3948021377518485  0.6048218418132377  0.6393163521256087
  0.3914059290368750  0.6048194935164783  0.8597541955376157
  0.1426879878098044  0.8577187719541958  0.1109232454096103
  0.1057092497224099  0.8958734745878855  0.3922211778506697
  0.1028815503086681  0.8968193653000980  0.6083525356052295
  0.1025290731207602  0.8941950532670893  0.8925550858187811
  0.6399706187992003  0.8589140974141659  0.1063910881867717
  0.6075152434269393  0.8952711028387464  0.3912520657096529
  0.6026684910671172  0.8960383604273302  0.6096870340686255
  0.6002112522338340  0.8965787604199827  0.8908191465660381
 
  0.00000000E+00  0.00000000E+00  0.00000000E+00
  0.00000000E+00  0.00000000E+00  0.00000000E+00
  0.00000000E+00  0.00000000E+00  0.00000000E+00
  0.00000000E+00  0.00000000E+00  0.00000000E+00
  0.00000000E+00  0.00000000E+00  0.00000000E+00
  0.00000000E+00  0.00000000E+00  0.00000000E+00
  0.00000000E+00  0.00000000E+00  0.00000000E+00
  0.00000000E+00  0.00000000E+00  0.00000000E+00
  0.00000000E+00  0.00000000E+00  0.00000000E+00
  0.00000000E+00  0.00000000E+00  0.00000000E+00
  0.00000000E+00  0.00000000E+00  0.00000000E+00
  0.00000000E+00  0.00000000E+00  0.00000000E+00
  0.00000000E+00  0.00000000E+00  0.00000000E+00
  0.00000000E+00  0.00000000E+00  0.00000000E+00
  0.00000000E+00  0.00000000E+00  0.00000000E+00
  0.00000000E+00  0.00000000E+00  0.00000000E+00
  0.00000000E+00  0.00000000E+00  0.00000000E+00
  0.00000000E+00  0.00000000E+00  0.00000000E+00
  0.00000000E+00  0.00000000E+00  0.00000000E+00
  0.00000000E+00  0.00000000E+00  0.00000000E+00
  0.00000000E+00  0.00000000E+00  0.00000000E+00
  0.00000000E+00  0.00000000E+00  0.00000000E+00
  0.00000000E+00  0.00000000E+00  0.00000000E+00
  0.00000000E+00  0.00000000E+00  0.00000000E+00
  0.00000000E+00  0.00000000E+00  0.00000000E+00
  0.00000000E+00  0.00000000E+00  0.00000000E+00
  0.00000000E+00  0.00000000E+00  0.00000000E+00
  0.00000000E+00  0.00000000E+00  0.00000000E+00
  0.00000000E+00  0.00000000E+00  0.00000000E+00
  0.00000000E+00  0.00000000E+00  0.00000000E+00
  0.00000000E+00  0.00000000E+00  0.00000000E+00
  0.00000000E+00  0.00000000E+00  0.00000000E+00
  0.00000000E+00  0.00000000E+00  0.00000000E+00
  0.00000000E+00  0.00000000E+00  0.00000000E+00
  0.00000000E+00  0.00000000E+00  0.00000000E+00
  0.00000000E+00  0.00000000E+00  0.00000000E+00
  0.00000000E+00  0.00000000E+00  0.00000000E+00
  0.00000000E+00  0.00000000E+00  0.00000000E+00
  0.00000000E+00  0.00000000E+00  0.00000000E+00
  0.00000000E+00  0.00000000E+00  0.00000000E+00
  0.00000000E+00  0.00000000E+00  0.00000000E+00
  0.00000000E+00  0.00000000E+00  0.00000000E+00
  0.00000000E+00  0.00000000E+00  0.00000000E+00
  0.00000000E+00  0.00000000E+00  0.00000000E+00
  0.00000000E+00  0.00000000E+00  0.00000000E+00
  0.00000000E+00  0.00000000E+00  0.00000000E+00
  0.00000000E+00  0.00000000E+00  0.00000000E+00
  0.00000000E+00  0.00000000E+00  0.00000000E+00
  0.00000000E+00  0.00000000E+00  0.00000000E+00
  0.00000000E+00  0.00000000E+00  0.00000000E+00
  0.00000000E+00  0.00000000E+00  0.00000000E+00
  0.00000000E+00  0.00000000E+00  0.00000000E+00
  0.00000000E+00  0.00000000E+00  0.00000000E+00
  0.00000000E+00  0.00000000E+00  0.00000000E+00
  0.00000000E+00  0.00000000E+00  0.00000000E+00
  0.00000000E+00  0.00000000E+00  0.00000000E+00
  0.00000000E+00  0.00000000E+00  0.00000000E+00
  0.00000000E+00  0.00000000E+00  0.00000000E+00
  0.00000000E+00  0.00000000E+00  0.00000000E+00
  0.00000000E+00  0.00000000E+00  0.00000000E+00
  0.00000000E+00  0.00000000E+00  0.00000000E+00
  0.00000000E+00  0.00000000E+00  0.00000000E+00
  0.00000000E+00  0.00000000E+00  0.00000000E+00
  0.00000000E+00  0.00000000E+00  0.00000000E+00
  0.00000000E+00  0.00000000E+00  0.00000000E+00
  0.00000000E+00  0.00000000E+00  0.00000000E+00
  0.00000000E+00  0.00000000E+00  0.00000000E+00
  0.00000000E+00  0.00000000E+00  0.00000000E+00
  0.00000000E+00  0.00000000E+00  0.00000000E+00
  0.00000000E+00  0.00000000E+00  0.00000000E+00
  0.00000000E+00  0.00000000E+00  0.00000000E+00
  0.00000000E+00  0.00000000E+00  0.00000000E+00
  0.00000000E+00  0.00000000E+00  0.00000000E+00
  0.00000000E+00  0.00000000E+00  0.00000000E+00
  0.00000000E+00  0.00000000E+00  0.00000000E+00
  0.00000000E+00  0.00000000E+00  0.00000000E+00
  0.00000000E+00  0.00000000E+00  0.00000000E+00
  0.00000000E+00  0.00000000E+00  0.00000000E+00
  0.00000000E+00  0.00000000E+00  0.00000000E+00
  0.00000000E+00  0.00000000E+00  0.00000000E+00
  0.00000000E+00  0.00000000E+00  0.00000000E+00
  0.00000000E+00  0.00000000E+00  0.00000000E+00
  0.00000000E+00  0.00000000E+00  0.00000000E+00
  0.00000000E+00  0.00000000E+00  0.00000000E+00
  0.00000000E+00  0.00000000E+00  0.00000000E+00
  0.00000000E+00  0.00000000E+00  0.00000000E+00
  0.00000000E+00  0.00000000E+00  0.00000000E+00
  0.00000000E+00  0.00000000E+00  0.00000000E+00
  0.00000000E+00  0.00000000E+00  0.00000000E+00
  0.00000000E+00  0.00000000E+00  0.00000000E+00
  0.00000000E+00  0.00000000E+00  0.00000000E+00
  0.00000000E+00  0.00000000E+00  0.00000000E+00
  0.00000000E+00  0.00000000E+00  0.00000000E+00
  0.00000000E+00  0.00000000E+00  0.00000000E+00
  0.00000000E+00  0.00000000E+00  0.00000000E+00
  0.00000000E+00  0.00000000E+00  0.00000000E+00
  0.00000000E+00  0.00000000E+00  0.00000000E+00
  0.00000000E+00  0.00000000E+00  0.00000000E+00
  0.00000000E+00  0.00000000E+00  0.00000000E+00
  0.00000000E+00  0.00000000E+00  0.00000000E+00
  0.00000000E+00  0.00000000E+00  0.00000000E+00
  0.00000000E+00  0.00000000E+00  0.00000000E+00
  0.00000000E+00  0.00000000E+00  0.00000000E+00
  0.00000000E+00  0.00000000E+00  0.00000000E+00
  0.00000000E+00  0.00000000E+00  0.00000000E+00
  0.00000000E+00  0.00000000E+00  0.00000000E+00
  0.00000000E+00  0.00000000E+00  0.00000000E+00
  0.00000000E+00  0.00000000E+00  0.00000000E+00
  0.00000000E+00  0.00000000E+00  0.00000000E+00
  0.00000000E+00  0.00000000E+00  0.00000000E+00
  0.00000000E+00  0.00000000E+00  0.00000000E+00
  0.00000000E+00  0.00000000E+00  0.00000000E+00
  0.00000000E+00  0.00000000E+00  0.00000000E+00
  0.00000000E+00  0.00000000E+00  0.00000000E+00
  0.00000000E+00  0.00000000E+00  0.00000000E+00
  0.00000000E+00  0.00000000E+00  0.00000000E+00
  0.00000000E+00  0.00000000E+00  0.00000000E+00
  0.00000000E+00  0.00000000E+00  0.00000000E+00
  0.00000000E+00  0.00000000E+00  0.00000000E+00
  0.00000000E+00  0.00000000E+00  0.00000000E+00
  0.00000000E+00  0.00000000E+00  0.00000000E+00
  0.00000000E+00  0.00000000E+00  0.00000000E+00
  0.00000000E+00  0.00000000E+00  0.00000000E+00
  0.00000000E+00  0.00000000E+00  0.00000000E+00
  0.00000000E+00  0.00000000E+00  0.00000000E+00
  0.00000000E+00  0.00000000E+00  0.00000000E+00
  0.00000000E+00  0.00000000E+00  0.00000000E+00
  0.00000000E+00  0.00000000E+00  0.00000000E+00
  0.00000000E+00  0.00000000E+00  0.00000000E+00
  0.00000000E+00  0.00000000E+00  0.00000000E+00
  0.00000000E+00  0.00000000E+00  0.00000000E+00
  0.00000000E+00  0.00000000E+00  0.00000000E+00
  0.00000000E+00  0.00000000E+00  0.00000000E+00
  0.00000000E+00  0.00000000E+00  0.00000000E+00
  0.00000000E+00  0.00000000E+00  0.00000000E+00
  0.00000000E+00  0.00000000E+00  0.00000000E+00
  0.00000000E+00  0.00000000E+00  0.00000000E+00
  0.00000000E+00  0.00000000E+00  0.00000000E+00
  0.00000000E+00  0.00000000E+00  0.00000000E+00
  0.00000000E+00  0.00000000E+00  0.00000000E+00
  0.00000000E+00  0.00000000E+00  0.00000000E+00
  0.00000000E+00  0.00000000E+00  0.00000000E+00
  0.00000000E+00  0.00000000E+00  0.00000000E+00
  0.00000000E+00  0.00000000E+00  0.00000000E+00
  0.00000000E+00  0.00000000E+00  0.00000000E+00
  0.00000000E+00  0.00000000E+00  0.00000000E+00
  0.00000000E+00  0.00000000E+00  0.00000000E+00
  0.00000000E+00  0.00000000E+00  0.00000000E+00
  0.00000000E+00  0.00000000E+00  0.00000000E+00
  0.00000000E+00  0.00000000E+00  0.00000000E+00
  0.00000000E+00  0.00000000E+00  0.00000000E+00
  0.00000000E+00  0.00000000E+00  0.00000000E+00
  0.00000000E+00  0.00000000E+00  0.00000000E+00
  0.00000000E+00  0.00000000E+00  0.00000000E+00
  0.00000000E+00  0.00000000E+00  0.00000000E+00
  0.00000000E+00  0.00000000E+00  0.00000000E+00
  0.00000000E+00  0.00000000E+00  0.00000000E+00
  0.00000000E+00  0.00000000E+00  0.00000000E+00
  0.00000000E+00  0.00000000E+00  0.00000000E+00
  0.00000000E+00  0.00000000E+00  0.00000000E+00
