F Tl Zn                                 
   1.00000000000000     
     8.3526109999999996   -8.3526109999999996    0.0000000000000000
     8.3526109999999996    8.3526109999999996    0.0000000000000000
     0.0000000000000000    0.0000000000000000   16.7052210000000017
   F    Tl   Zn
    96    32    32
Direct
  0.0007293639174517  0.2515833014069942  0.0001667701395512
 -0.0001017498394444  0.2498312548410913  0.2501751589109060
 -0.0004818683108139  0.2513541520105418  0.5001811452587525
  0.9996538515835919  0.2495719668027310  0.7501919342815344
  0.5004478254269462  0.2501323609576006  0.0001717870812414
  0.5002032972041220  0.2506260237674742  0.2502376848673670
  0.4992521272506077  0.2497509738432629  0.5002154483418814
  0.4996966950197855  0.2507485910691432  0.7501649731590899
  0.2502841258089266  0.5001303315223053  0.0001744737245342
  0.2504861698831090  0.5008211215564697  0.2502276995665371
  0.2489834702389756  0.4996961441166909  0.5002367129345009
  0.2502581382364268  0.5004174935595410  0.7502100443129091
  0.0001492180958189  0.7506824025655451  0.0002157880247296
  0.0005127233691326  0.7504406120160246  0.2502361826475616
  0.9990234209416708  0.7505458118865079  0.5001704973478889
  0.0003939922287054  0.7508481553945278  0.7501844523667138
  0.7510755618386517  0.5007400349706822  0.0000673578152578
  0.7496920742620734  0.5006051429251948  0.2502025889105277
  0.7499142694800699  0.5003061796244449  0.5002929234888075
  0.7494221201097446  0.5011361287562537  0.7501453479427913
  0.5005433364257600  0.7509621801207250  0.0002479516825083
  0.5003353397263504  0.7492576365728972  0.2501953844477195
  0.4994005619584497  0.7507725539890844  0.5001742612273128
  0.4998837162651081  0.7501565557235236  0.7501762271786698
  0.2511856330958684  0.0002947527450082  0.0002792064705095
  0.2493951810985088  0.0006191627172574  0.2501710969373370
  0.2499294888119308  0.9999756248294591  0.5000392331836043
  0.2494773855278198  0.0001004117698722  0.7501661214485277
  0.7500669961018320  0.0003842154122522  0.0002358964736361
  0.7503376658850699  0.0010820925091667  0.2502002863414818
  0.7490013286052724  0.0000879444524749  0.5002184766057822
  0.7504904199153611  0.0013483738627603  0.7502090577011428
  0.1254184240844586  0.1255286582069820  0.1247701495069921
  0.1244016595114928  0.1251416017855388  0.3755325627900106
  0.1246837144654620  0.1253665971396014  0.6247847714546271
  0.1252229743881673  0.1253774512670198  0.8756259687513542
  0.6254219351873086  0.1254746356457695  0.1253561756314304
  0.6243427332945493  0.1249544578566383  0.3751958449235238
  0.6246456082728279  0.1255560456806314  0.6253644008226666
  0.6251750275554308  0.1255147810486589  0.8751296962644775
  0.3754904704782390  0.3753439430529433  0.1251186198816604
  0.3747542775928770  0.3751579241974030  0.3753901816491675
  0.3742106229002548  0.3748395647712953  0.6251049632699114
  0.3753688291768388  0.3753856626952883  0.8753860501829677
  0.1255203797631954  0.6255470309695341  0.1250515975357253
  0.1245137642288516  0.6250852479350903  0.3754154181144691
  0.1246105599206002  0.6254204095433575  0.6251550912746544
  0.1253056182067189  0.6255254064095729  0.8753869432908723
  0.8754321648548371  0.3755726577191358  0.1254799096222100
  0.8748458930972214  0.3756494856139024  0.3748929580497182
  0.8743836496879697  0.3754131640089751  0.6256412985984025
  0.8753854707226751  0.3758554062232099  0.8747952143098000
  0.6254793287581102  0.6253534765831231  0.1248914426485503
  0.6245032426483762  0.6249478088952019  0.3755996796391517
  0.6245757544467103  0.6256654155699559  0.6249749573163683
  0.6252209493743007  0.6255723489219486  0.8754203091723736
  0.3753883456392651  0.8752270924857046  0.1257568744925784
  0.3747725262091262  0.8751512870910975  0.3747445404577718
  0.3742799514108778  0.8749427223561352  0.6254309395887231
  0.3752882306287207  0.8753453831484368  0.8751061638664005
  0.8753846840734676  0.8755377372430303  0.1254403062605479
  0.8747995570021351  0.8756171131080327  0.3750388081618736
  0.8744304882440850  0.8754309119275241  0.6253832497502505
  0.8753572766132663  0.8757785595257990  0.8751978851479779
  0.8754471779641592  0.1256030599721263  0.1247038711957583
  0.8744670981701533  0.1255544919090376  0.3756700036702403
  0.8747046098559321  0.1254176384326318  0.6246679923799396
  0.8752030557802548  0.1258161963276625  0.8757111132783010
  0.3755024170274667  0.1253159823789156  0.1254386977333999
  0.3744684874963510  0.1252381502785339  0.3749522345528907
  0.3747706202554391  0.1248474372944678  0.6254140650952539
  0.3752841247278516  0.1253398724686242  0.8750544069100566
  0.1255103271081549  0.3754745380159122  0.1257180588522668
  0.1248964882542500  0.3751114213569569  0.3747098503627141
  0.1244429680216883  0.3753454125166428  0.6257888136576153
  0.1254218777240237  0.3754123659981859  0.8747209844235617
  0.8755196913840920  0.6255540801252579  0.1253657901071525
  0.8744928643084613  0.6255969640435974  0.3750982029422072
  0.8746500234463773  0.6255129306950277  0.6254257726359908
  0.8753540320096543  0.6258555729280881  0.8750460292022660
  0.6256222357294966  0.3753836771398312  0.1248981926258382
  0.6249342632461802  0.3749683211040785  0.3754984182412988
  0.6243015779360785  0.3755753411947600  0.6250921477923530
  0.6254672901121947  0.3754696575609435  0.8753694715398838
  0.3755724701819812  0.6251946998406140  0.1250371269046898
  0.3746421360992858  0.6251679895212338  0.3756135470733854
  0.3747480533540246  0.6249809410764461  0.6249505791977084
  0.3753905569085864  0.6253362769930877  0.8754614196006236
  0.1254221790265438  0.8754749094640301  0.1250385961985530
  0.1248404422758864  0.8750726114241696  0.3753612471775555
  0.1244930993587052  0.8754409121772622  0.6248945994496850
  0.1254946636175346  0.8754124886571623  0.8755642554529488
  0.6254409295065695  0.8753835418044370  0.1256403519236169
  0.6248890601089303  0.8749982292704781  0.3748585807169854
  0.6244514266678756  0.8756367777443970  0.6255401236043651
  0.6254129420650276  0.8755461286324822  0.8749046252432260
  0.0004713792125408  0.0006406989817434  0.0002758514322626
  0.0001087280115032  0.0004204238002331  0.2502233405614009
 -0.0005615238818966  0.0004064853297313  0.5001972498672554
 -0.0002026951985587  0.0004610832273453  0.7502417906478931
  0.5003862693348556  0.0004387929223645  0.0001531697426844
  0.5000392524227366  0.0001416209813684  0.2501435233761925
  0.4994648833731706  0.0000811382459906  0.5000772044184436
  0.4998390671094624  0.0003772262969027  0.7501338953089357
  0.2504488685623542  0.2503466891023104  0.0002380595577138
  0.2500876671615894  0.2502045285372812  0.2502322262388667
  0.2496304147111827  0.2500085007121049  0.5001513413074291
  0.2498984705006707  0.2503220344199258  0.7501936405851970
  0.0005161664626112  0.5006028151980104  0.0001015465279131
  0.0000417824345324  0.5004366851309091  0.2501425400206488
  0.9995917536712404  0.5002834637659295  0.5002467747176669
 -0.0000723231088032  0.5005306791684144  0.7501838630825138
  0.7504950856947892  0.2506030172999355  0.0001994969975257
  0.7501014882898673  0.2503227561498644  0.2502059341886789
  0.7494194095825620  0.2504180141905314  0.5003167460832488
  0.7499403311878954  0.2506104580371192  0.7502373347257654
  0.5004605931092239  0.5003574796497895  0.0001935380514565
  0.5001547302920935  0.5002129408330838  0.2501852814451475
  0.4995099254257597  0.5001860812776923  0.5002545489877852
  0.4999703492614075  0.5004531401498623  0.7502220984211662
  0.2504674770482392  0.7503957794290970  0.0002299815922081
  0.2501114872844367  0.7500337033648136  0.2501975278171947
  0.2494221412963129  0.7501622439162532  0.5002486165571204
  0.2499348993247647  0.7503397038531486  0.7502607624744496
  0.7504844206388553  0.7505698713873195  0.0002300104480051
  0.7500939880211359  0.7504674640200260  0.2501979027297022
  0.7496029068100145  0.7503727886907514  0.5001917888061097
  0.7499201200526140  0.7506025422058932  0.7502692154177369
  0.0004818898590987  0.2505962472246196  0.1251373047286296
 -0.0003620103907708  0.2503960590959706  0.3750869905811255
 -0.0004696996238032  0.2504475512833549  0.6251017334281735
  0.0003489518667769  0.2506358555741506  0.8751017742932258
  0.5005018718174437  0.2504566218760825  0.1251117396046363
  0.4996210716740337  0.2501958551439425  0.3751343490441845
  0.4994597339235831  0.2502814845489248  0.6251436890226558
  0.5003148082369854  0.2505192564307540  0.8751095733728067
  0.2505048159703162  0.5003849052058841  0.1251090687359010
  0.2496830782148763  0.5002308850727225  0.3751535850486273
  0.2495146612424544  0.5002489209254700  0.6251166872983123
  0.2503926786364802  0.5004558223394555  0.8751164348097382
  0.0004566312171417  0.7505911566898370  0.1251549414380204
  0.9996530185172499  0.7503590956818115  0.3751420024647176
 -0.0005013279881261  0.7505084057030686  0.6251020707024169
  0.0004032954023981  0.7507362987240438  0.8751587597567172
  0.7505120399498222  0.5005618724971930  0.1251259568767027
  0.7497023657202255  0.5003356652200820  0.3751428282408878
  0.7494680417186582  0.5005592246862519  0.6251548588270013
  0.7503474695754185  0.5007495155853479  0.8750910138627634
  0.5005035491172034  0.7503524746975303  0.1251601741736191
  0.4996922919903062  0.7501545028028054  0.3751184649470821
  0.4995012671487607  0.7504188474390413  0.6251270805283181
  0.5003486906713740  0.7505129137029055  0.8751326318451425
  0.2504769788357805  0.0004248353635616  0.1251321753544339
  0.2495733088353646  0.0001837873361638  0.3750932578998703
  0.2495167905857882  0.0002538058700516  0.6251003311298879
  0.2503483380944829  0.0004829296549069  0.8751518445678287
  0.7504530272323872  0.0005781194853446  0.1251473628925730
  0.7495955567765976  0.0003685362852412  0.3751144763696896
  0.7495250560143153  0.0005475337449137  0.6251512568547336
  0.7503590627276824  0.0007158685616932  0.8751504661723877
 
  0.00000000E+00  0.00000000E+00  0.00000000E+00
  0.00000000E+00  0.00000000E+00  0.00000000E+00
  0.00000000E+00  0.00000000E+00  0.00000000E+00
  0.00000000E+00  0.00000000E+00  0.00000000E+00
  0.00000000E+00  0.00000000E+00  0.00000000E+00
  0.00000000E+00  0.00000000E+00  0.00000000E+00
  0.00000000E+00  0.00000000E+00  0.00000000E+00
  0.00000000E+00  0.00000000E+00  0.00000000E+00
  0.00000000E+00  0.00000000E+00  0.00000000E+00
  0.00000000E+00  0.00000000E+00  0.00000000E+00
  0.00000000E+00  0.00000000E+00  0.00000000E+00
  0.00000000E+00  0.00000000E+00  0.00000000E+00
  0.00000000E+00  0.00000000E+00  0.00000000E+00
  0.00000000E+00  0.00000000E+00  0.00000000E+00
  0.00000000E+00  0.00000000E+00  0.00000000E+00
  0.00000000E+00  0.00000000E+00  0.00000000E+00
  0.00000000E+00  0.00000000E+00  0.00000000E+00
  0.00000000E+00  0.00000000E+00  0.00000000E+00
  0.00000000E+00  0.00000000E+00  0.00000000E+00
  0.00000000E+00  0.00000000E+00  0.00000000E+00
  0.00000000E+00  0.00000000E+00  0.00000000E+00
  0.00000000E+00  0.00000000E+00  0.00000000E+00
  0.00000000E+00  0.00000000E+00  0.00000000E+00
  0.00000000E+00  0.00000000E+00  0.00000000E+00
  0.00000000E+00  0.00000000E+00  0.00000000E+00
  0.00000000E+00  0.00000000E+00  0.00000000E+00
  0.00000000E+00  0.00000000E+00  0.00000000E+00
  0.00000000E+00  0.00000000E+00  0.00000000E+00
  0.00000000E+00  0.00000000E+00  0.00000000E+00
  0.00000000E+00  0.00000000E+00  0.00000000E+00
  0.00000000E+00  0.00000000E+00  0.00000000E+00
  0.00000000E+00  0.00000000E+00  0.00000000E+00
  0.00000000E+00  0.00000000E+00  0.00000000E+00
  0.00000000E+00  0.00000000E+00  0.00000000E+00
  0.00000000E+00  0.00000000E+00  0.00000000E+00
  0.00000000E+00  0.00000000E+00  0.00000000E+00
  0.00000000E+00  0.00000000E+00  0.00000000E+00
  0.00000000E+00  0.00000000E+00  0.00000000E+00
  0.00000000E+00  0.00000000E+00  0.00000000E+00
  0.00000000E+00  0.00000000E+00  0.00000000E+00
  0.00000000E+00  0.00000000E+00  0.00000000E+00
  0.00000000E+00  0.00000000E+00  0.00000000E+00
  0.00000000E+00  0.00000000E+00  0.00000000E+00
  0.00000000E+00  0.00000000E+00  0.00000000E+00
  0.00000000E+00  0.00000000E+00  0.00000000E+00
  0.00000000E+00  0.00000000E+00  0.00000000E+00
  0.00000000E+00  0.00000000E+00  0.00000000E+00
  0.00000000E+00  0.00000000E+00  0.00000000E+00
  0.00000000E+00  0.00000000E+00  0.00000000E+00
  0.00000000E+00  0.00000000E+00  0.00000000E+00
  0.00000000E+00  0.00000000E+00  0.00000000E+00
  0.00000000E+00  0.00000000E+00  0.00000000E+00
  0.00000000E+00  0.00000000E+00  0.00000000E+00
  0.00000000E+00  0.00000000E+00  0.00000000E+00
  0.00000000E+00  0.00000000E+00  0.00000000E+00
  0.00000000E+00  0.00000000E+00  0.00000000E+00
  0.00000000E+00  0.00000000E+00  0.00000000E+00
  0.00000000E+00  0.00000000E+00  0.00000000E+00
  0.00000000E+00  0.00000000E+00  0.00000000E+00
  0.00000000E+00  0.00000000E+00  0.00000000E+00
  0.00000000E+00  0.00000000E+00  0.00000000E+00
  0.00000000E+00  0.00000000E+00  0.00000000E+00
  0.00000000E+00  0.00000000E+00  0.00000000E+00
  0.00000000E+00  0.00000000E+00  0.00000000E+00
  0.00000000E+00  0.00000000E+00  0.00000000E+00
  0.00000000E+00  0.00000000E+00  0.00000000E+00
  0.00000000E+00  0.00000000E+00  0.00000000E+00
  0.00000000E+00  0.00000000E+00  0.00000000E+00
  0.00000000E+00  0.00000000E+00  0.00000000E+00
  0.00000000E+00  0.00000000E+00  0.00000000E+00
  0.00000000E+00  0.00000000E+00  0.00000000E+00
  0.00000000E+00  0.00000000E+00  0.00000000E+00
  0.00000000E+00  0.00000000E+00  0.00000000E+00
  0.00000000E+00  0.00000000E+00  0.00000000E+00
  0.00000000E+00  0.00000000E+00  0.00000000E+00
  0.00000000E+00  0.00000000E+00  0.00000000E+00
  0.00000000E+00  0.00000000E+00  0.00000000E+00
  0.00000000E+00  0.00000000E+00  0.00000000E+00
  0.00000000E+00  0.00000000E+00  0.00000000E+00
  0.00000000E+00  0.00000000E+00  0.00000000E+00
  0.00000000E+00  0.00000000E+00  0.00000000E+00
  0.00000000E+00  0.00000000E+00  0.00000000E+00
  0.00000000E+00  0.00000000E+00  0.00000000E+00
  0.00000000E+00  0.00000000E+00  0.00000000E+00
  0.00000000E+00  0.00000000E+00  0.00000000E+00
  0.00000000E+00  0.00000000E+00  0.00000000E+00
  0.00000000E+00  0.00000000E+00  0.00000000E+00
  0.00000000E+00  0.00000000E+00  0.00000000E+00
  0.00000000E+00  0.00000000E+00  0.00000000E+00
  0.00000000E+00  0.00000000E+00  0.00000000E+00
  0.00000000E+00  0.00000000E+00  0.00000000E+00
  0.00000000E+00  0.00000000E+00  0.00000000E+00
  0.00000000E+00  0.00000000E+00  0.00000000E+00
  0.00000000E+00  0.00000000E+00  0.00000000E+00
  0.00000000E+00  0.00000000E+00  0.00000000E+00
  0.00000000E+00  0.00000000E+00  0.00000000E+00
  0.00000000E+00  0.00000000E+00  0.00000000E+00
  0.00000000E+00  0.00000000E+00  0.00000000E+00
  0.00000000E+00  0.00000000E+00  0.00000000E+00
  0.00000000E+00  0.00000000E+00  0.00000000E+00
  0.00000000E+00  0.00000000E+00  0.00000000E+00
  0.00000000E+00  0.00000000E+00  0.00000000E+00
  0.00000000E+00  0.00000000E+00  0.00000000E+00
  0.00000000E+00  0.00000000E+00  0.00000000E+00
  0.00000000E+00  0.00000000E+00  0.00000000E+00
  0.00000000E+00  0.00000000E+00  0.00000000E+00
  0.00000000E+00  0.00000000E+00  0.00000000E+00
  0.00000000E+00  0.00000000E+00  0.00000000E+00
  0.00000000E+00  0.00000000E+00  0.00000000E+00
  0.00000000E+00  0.00000000E+00  0.00000000E+00
  0.00000000E+00  0.00000000E+00  0.00000000E+00
  0.00000000E+00  0.00000000E+00  0.00000000E+00
  0.00000000E+00  0.00000000E+00  0.00000000E+00
  0.00000000E+00  0.00000000E+00  0.00000000E+00
  0.00000000E+00  0.00000000E+00  0.00000000E+00
  0.00000000E+00  0.00000000E+00  0.00000000E+00
  0.00000000E+00  0.00000000E+00  0.00000000E+00
  0.00000000E+00  0.00000000E+00  0.00000000E+00
  0.00000000E+00  0.00000000E+00  0.00000000E+00
  0.00000000E+00  0.00000000E+00  0.00000000E+00
  0.00000000E+00  0.00000000E+00  0.00000000E+00
  0.00000000E+00  0.00000000E+00  0.00000000E+00
  0.00000000E+00  0.00000000E+00  0.00000000E+00
  0.00000000E+00  0.00000000E+00  0.00000000E+00
  0.00000000E+00  0.00000000E+00  0.00000000E+00
  0.00000000E+00  0.00000000E+00  0.00000000E+00
  0.00000000E+00  0.00000000E+00  0.00000000E+00
  0.00000000E+00  0.00000000E+00  0.00000000E+00
  0.00000000E+00  0.00000000E+00  0.00000000E+00
  0.00000000E+00  0.00000000E+00  0.00000000E+00
  0.00000000E+00  0.00000000E+00  0.00000000E+00
  0.00000000E+00  0.00000000E+00  0.00000000E+00
  0.00000000E+00  0.00000000E+00  0.00000000E+00
  0.00000000E+00  0.00000000E+00  0.00000000E+00
  0.00000000E+00  0.00000000E+00  0.00000000E+00
  0.00000000E+00  0.00000000E+00  0.00000000E+00
  0.00000000E+00  0.00000000E+00  0.00000000E+00
  0.00000000E+00  0.00000000E+00  0.00000000E+00
  0.00000000E+00  0.00000000E+00  0.00000000E+00
  0.00000000E+00  0.00000000E+00  0.00000000E+00
  0.00000000E+00  0.00000000E+00  0.00000000E+00
  0.00000000E+00  0.00000000E+00  0.00000000E+00
  0.00000000E+00  0.00000000E+00  0.00000000E+00
  0.00000000E+00  0.00000000E+00  0.00000000E+00
  0.00000000E+00  0.00000000E+00  0.00000000E+00
  0.00000000E+00  0.00000000E+00  0.00000000E+00
  0.00000000E+00  0.00000000E+00  0.00000000E+00
  0.00000000E+00  0.00000000E+00  0.00000000E+00
  0.00000000E+00  0.00000000E+00  0.00000000E+00
  0.00000000E+00  0.00000000E+00  0.00000000E+00
  0.00000000E+00  0.00000000E+00  0.00000000E+00
  0.00000000E+00  0.00000000E+00  0.00000000E+00
  0.00000000E+00  0.00000000E+00  0.00000000E+00
  0.00000000E+00  0.00000000E+00  0.00000000E+00
  0.00000000E+00  0.00000000E+00  0.00000000E+00
  0.00000000E+00  0.00000000E+00  0.00000000E+00
  0.00000000E+00  0.00000000E+00  0.00000000E+00
  0.00000000E+00  0.00000000E+00  0.00000000E+00
  0.00000000E+00  0.00000000E+00  0.00000000E+00
  0.00000000E+00  0.00000000E+00  0.00000000E+00
