Mg Rb Br                                
   1.00000000000000     
    10.7840579999999999  -10.7840579999999999    0.0000000000000000
    10.7840579999999999   10.7840579999999999    0.0000000000000000
     0.0000000000000000    0.0000000000000000   21.5681170000000009
   Br   Mg   Rb
    96    32    32
Direct
  0.1405290264819249  0.1098378178288902 -0.0078142736487373
  0.1108938918658708  0.1386397402549752  0.2557331154976793
  0.1379060459914954  0.1097146119830379  0.4921696032928264
  0.1401818918101531  0.1087299322373699  0.7579037497368759
  0.6400983527079988  0.1101452532508082 -0.0066534564837544
  0.6113982629646844  0.1375814090479678  0.2547828878845848
  0.6379861597344972  0.1091585782604465  0.4932278325266964
  0.6403239721729764  0.1084149189852614  0.7570892230856523
  0.3611069709365925  0.3889821843460924  0.0069764726378561
  0.3883339219196028  0.3605884912499996  0.2433324041551338
  0.3577145286874977  0.3897796318367736  0.5073409640241758
  0.3587603343829494  0.3895016774842378  0.7409581207302954
  0.1401898949660370  0.6100690036340163 -0.0067081790284691
  0.1100670783645163  0.6388643322112674  0.2545659877116848
  0.1376319397954150  0.6096219530135495  0.4939611426041266
  0.1397132288855520  0.6088422092337389  0.7570999219517054
  0.8612046538479914  0.3888958948341549  0.0058344145656279
  0.8877821735847895  0.3613886920144484  0.2448606589395121
  0.8578214283344857  0.3895199228063325  0.5057212730409090
  0.8585532183467435  0.3900220133398424  0.7423037424398232
  0.6403373144887838  0.6097718061533891  0.9920026197872011
  0.6103951877183117  0.6384690675302065  0.2553049759853605
  0.6377285213755429  0.6095164405838877  0.4925021374582941
  0.6396215627710558  0.6087332295352067  0.7582744524802573
  0.3617556803385385  0.8885172328160342  0.0055674171217098
  0.3888409884329420  0.8599994581074842  0.2449437391792565
  0.3575883397921725  0.8896724189870282  0.5057073601778522
  0.3588853699558935  0.8899312708639115  0.7423031158628698
  0.8618360225283234  0.8888946672440818  0.0063920904788627
  0.8886424487648701  0.8608814421951978  0.2435648303139588
  0.8576367177149824  0.8898530499966708  0.5068370054585027
  0.8590229861590353  0.8897848824398809  0.7415015895237822
  0.8902607109335684  0.1393240303999720 -0.0071689903014257
  0.8613366340586018  0.1112019188044443  0.2555864603306723
  0.8879733479233421  0.1394197264533840  0.4919269132063449
  0.8902008232166958  0.1401893527227103  0.7580080224425708
  0.3901396496695192  0.1389837856675417 -0.0102638408493467
  0.3610931127142703  0.1107324310492280  0.2586356106547848
  0.3880248461947916  0.1394408646820574  0.4894376313125443
  0.3900361034160512  0.1398856572091786  0.7606967554399993
  0.1112906843469491  0.3601705945252051  0.0101145223792296
  0.1379441061086017  0.3887439363734742  0.2406168003404287
  0.1080259703426127  0.3595319677925968  0.5092752081551374
  0.1088616012032057  0.3588576991141941  0.7387563917436502
  0.8902455456152054  0.6388925786291215  0.9889213700643724
  0.8603908370242183  0.6112105473704113  0.2590181528582702
  0.8874933436239757  0.6395134463361641  0.4898790288651114
  0.8896661219769286  0.6395986882880003  0.7604644287724379
  0.6112991991928304  0.3602070678179040  0.0073766149504012
  0.6379127897361928  0.3881918088943909  0.2440373195618343
  0.6079511100862268  0.3589418749587472  0.5070327611460010
  0.6084180609556814  0.3579102861159312  0.7407631033733250
  0.3903947049166127  0.6390882943837418 -0.0082153197984042
  0.3601137007118152  0.6103355404110856  0.2560365557398869
  0.3877654342556606  0.6393366678815128  0.4920918065531845
  0.3895848111248411  0.6394427704582336  0.7586392960137723
  0.1116686925713009  0.8603955840270980  0.0071894177821011
  0.1390756179780919  0.8889233987078083  0.2432715284679533
  0.1076193066351894  0.8589337768003142  0.5074858868403507
  0.1083244085228207  0.8585240302076903  0.7407117897187273
  0.6120403656994857  0.8602674848614871  0.0098022106408686
  0.6388762034277315  0.8884052567412282  0.2398956905572231
  0.6073460744549537  0.8587594974839611  0.5095663434096851
  0.6089150997411134  0.8590117618031344  0.7390898457051421
  0.0000447131041064  0.0131371902848432  0.1245806955057498
 -0.0003649322776613  0.9861759948720651  0.3747047366373434
 -0.0012784458145927  0.0154669846647992  0.6247192384685732
  0.0000833238552023 -0.0155129925828405  0.8745284080684802
  0.4957892061744813  0.0139771891183755  0.1246038048282413
  0.5029686328193583  0.9839202049783108  0.3746401758963077
  0.4954638574983247  0.0168213335699247  0.6246530798300859
  0.5030069380755505  0.9820127505929286  0.8746708123676802
  0.2528703508985348  0.2333132307280210  0.1246038650903404
  0.2464778421517899  0.2659715832107039  0.3746215346466643
  0.2515060244625237  0.2303680987652999  0.6246618656005742
  0.2468539041623584  0.2684151587513970  0.8745795724162260
 -0.0045742539335268  0.5148530192397941  0.1245251414518037
  0.0024623036833908  0.4851500668519907  0.3748004035401704
 -0.0047714988190523  0.5164714752614585  0.6248026469453971
  0.0035222643509992  0.4810401967898281  0.8745789369178478
  0.7505902129112412  0.2372114741295564  0.1248017018521520
  0.7475017705991428  0.2613993824933483  0.3747807038840105
  0.7505164977962135  0.2335622782595565  0.6247180906486779
  0.7492664454645986  0.2641531877841363  0.8745874514272455
  0.4998216486350054  0.5132628107846945  0.1245827378270596
  0.4992125112262194  0.4863187157105440  0.3748302408638545
  0.4994430679289792  0.5149790777878104  0.6248840430521160
  0.4997951996516950  0.4825103746283629  0.8745832441220207
  0.2510558323558508  0.7371216904094953  0.1245694527360100
  0.2469432633572914  0.7616612151078114  0.3748152550504019
  0.2508003054953632  0.7340574418226687  0.6248770685731585
  0.2481904945839693  0.7649247134850505  0.8745543576880892
  0.7536951981717864  0.7327548864261031  0.1243545192726395
  0.7451087930485812  0.7657475796972719  0.3747273470788133
  0.7513436988332617  0.7311698563921364  0.6248717188482122
  0.7470656794314631  0.7681681649326838  0.8745602051178805
  0.0012926113548578 -0.0006929665771677 -0.0004186219950435
 -0.0002348168411781 -0.0004400040852384  0.2496970229024379
 -0.0023258199520824 -0.0001977437321731  0.4997764946487807
 -0.0006479862345921 -0.0005273847093505  0.7495301586061119
  0.5011498472320329 -0.0011128721263802 -0.0004707178006568
  0.4995644439473045 -0.0008132696854130  0.2497038188884529
  0.4977440923999726 -0.0000791047958044  0.4997523204074842
  0.4993649802046556 -0.0004774116070524  0.7496494670583173
  0.2508881953427424  0.2500543982737920 -0.0004482441355131
  0.2494767388003495  0.2496458110160058  0.2496448728628552
  0.2479217494876753  0.2489835160838809  0.4997845423732437
  0.2493379544690097  0.2492755036610272  0.7496337703939179
  0.0009673588142626  0.4989614744881365 -0.0005582067747902
  0.9992163570983688  0.5000512483602955  0.2496685395364617
 -0.0024952422180727  0.5000062894691480  0.4998571730479640
 -0.0007279319235409  0.4991798465192540  0.7498131109194907
  0.7510785717980999  0.2501778398554324 -0.0003535235884456
  0.7494063992227392  0.2495197519190853  0.2498301905398429
  0.7476388055186333  0.2485794603896796  0.4999068613034666
  0.7493743108409369  0.2492295593129404  0.7496064310964995
  0.5010117025392590  0.4990196529168913 -0.0005319696458966
  0.4991752646257926  0.4995970340372105  0.2496921759319338
  0.4976990830958065  0.4996619804377760  0.4999340717345553
  0.4993701996354473  0.4988311161801867  0.7497619226997370
  0.2511485228647043  0.7498916429398724 -0.0005776501371031
  0.2493945488676202  0.7495682014615093  0.2497144816285074
  0.2477064084574999  0.7489940690418583  0.4999043230598223
  0.2493037544068182  0.7494013537487901  0.7496836341971236
  0.7510469503445254  0.7496184739425522  0.9994041973867234
  0.7492781591291217  0.7496569372973485  0.2495501858751493
  0.7474774219342737  0.7491888670731400  0.4997598855813288
  0.7492673865956951  0.7492483783724186  0.7497817639390146
 -0.0010682307787739  0.2477581371058234  0.1262766348248942
  0.0003244626913756  0.2510565824288368  0.3748221757754888
 -0.0123874250218475  0.2499088608440222  0.6243638415459725
  0.0108416392955762  0.2474191001962903  0.8751219474986012
  0.4986116061156270  0.2477638916196014  0.1242820944100329
  0.5000201742496022  0.2514636902667518  0.3728139021432987
  0.4873436314919705  0.2508173795317543  0.6241108842913752
  0.5116634644751111  0.2485034146215788  0.8750485583669131
  0.2494488238086860  0.5022720517809630  0.1242603067745348
  0.2488001277251060  0.4992417234942989  0.3746246889855109
  0.2368841818756424  0.4971192391369355  0.6245513672101455
  0.2606662889669635  0.5025631419193589  0.8747163931164378
 -0.0013464025264621  0.7485652900031530  0.1241252586234139
 -0.0007109172646594  0.7515011826468636  0.3734076948115824
 -0.0125508847183589  0.7503398579804295  0.6243342764584845
  0.0106797906575200  0.7498255180454708  0.8747195380843816
  0.7493134996124867  0.4996472688676166  0.1250345461883712
  0.7487352036329036  0.4966779900552782  0.3748925358212736
  0.7381787869710800  0.4962291028050178  0.6243231392885739
  0.7614790767028115  0.5012418618215269  0.8748410555966323
  0.4991893845904141  0.7476502150356674  0.1257159503567767
  0.4998399189084121  0.7501443474416641  0.3748019178168006
  0.4878219704653760  0.7492157607115771  0.6248051819490975
  0.5106902297650351  0.7481669631530240  0.8748972813451248
  0.2500606951660298 -0.0000655495819149  0.1244887610960636
  0.2493656885912209 -0.0030717339128094  0.3746899359250636
  0.2375571078549905 -0.0042189041862075  0.6242799534547687
  0.2615863956704464  0.0016716128777698  0.8749563152776304
  0.7506586059970424  0.0023156211278301  0.1238625506398681
  0.7491951066952492 -0.0009231504691054  0.3736448863298900
  0.7370963225755124 -0.0031620866601607  0.6244666780425204
  0.7608366698154325  0.0027010735851190  0.8749529535859560
 
  0.00000000E+00  0.00000000E+00  0.00000000E+00
  0.00000000E+00  0.00000000E+00  0.00000000E+00
  0.00000000E+00  0.00000000E+00  0.00000000E+00
  0.00000000E+00  0.00000000E+00  0.00000000E+00
  0.00000000E+00  0.00000000E+00  0.00000000E+00
  0.00000000E+00  0.00000000E+00  0.00000000E+00
  0.00000000E+00  0.00000000E+00  0.00000000E+00
  0.00000000E+00  0.00000000E+00  0.00000000E+00
  0.00000000E+00  0.00000000E+00  0.00000000E+00
  0.00000000E+00  0.00000000E+00  0.00000000E+00
  0.00000000E+00  0.00000000E+00  0.00000000E+00
  0.00000000E+00  0.00000000E+00  0.00000000E+00
  0.00000000E+00  0.00000000E+00  0.00000000E+00
  0.00000000E+00  0.00000000E+00  0.00000000E+00
  0.00000000E+00  0.00000000E+00  0.00000000E+00
  0.00000000E+00  0.00000000E+00  0.00000000E+00
  0.00000000E+00  0.00000000E+00  0.00000000E+00
  0.00000000E+00  0.00000000E+00  0.00000000E+00
  0.00000000E+00  0.00000000E+00  0.00000000E+00
  0.00000000E+00  0.00000000E+00  0.00000000E+00
  0.00000000E+00  0.00000000E+00  0.00000000E+00
  0.00000000E+00  0.00000000E+00  0.00000000E+00
  0.00000000E+00  0.00000000E+00  0.00000000E+00
  0.00000000E+00  0.00000000E+00  0.00000000E+00
  0.00000000E+00  0.00000000E+00  0.00000000E+00
  0.00000000E+00  0.00000000E+00  0.00000000E+00
  0.00000000E+00  0.00000000E+00  0.00000000E+00
  0.00000000E+00  0.00000000E+00  0.00000000E+00
  0.00000000E+00  0.00000000E+00  0.00000000E+00
  0.00000000E+00  0.00000000E+00  0.00000000E+00
  0.00000000E+00  0.00000000E+00  0.00000000E+00
  0.00000000E+00  0.00000000E+00  0.00000000E+00
  0.00000000E+00  0.00000000E+00  0.00000000E+00
  0.00000000E+00  0.00000000E+00  0.00000000E+00
  0.00000000E+00  0.00000000E+00  0.00000000E+00
  0.00000000E+00  0.00000000E+00  0.00000000E+00
  0.00000000E+00  0.00000000E+00  0.00000000E+00
  0.00000000E+00  0.00000000E+00  0.00000000E+00
  0.00000000E+00  0.00000000E+00  0.00000000E+00
  0.00000000E+00  0.00000000E+00  0.00000000E+00
  0.00000000E+00  0.00000000E+00  0.00000000E+00
  0.00000000E+00  0.00000000E+00  0.00000000E+00
  0.00000000E+00  0.00000000E+00  0.00000000E+00
  0.00000000E+00  0.00000000E+00  0.00000000E+00
  0.00000000E+00  0.00000000E+00  0.00000000E+00
  0.00000000E+00  0.00000000E+00  0.00000000E+00
  0.00000000E+00  0.00000000E+00  0.00000000E+00
  0.00000000E+00  0.00000000E+00  0.00000000E+00
  0.00000000E+00  0.00000000E+00  0.00000000E+00
  0.00000000E+00  0.00000000E+00  0.00000000E+00
  0.00000000E+00  0.00000000E+00  0.00000000E+00
  0.00000000E+00  0.00000000E+00  0.00000000E+00
  0.00000000E+00  0.00000000E+00  0.00000000E+00
  0.00000000E+00  0.00000000E+00  0.00000000E+00
  0.00000000E+00  0.00000000E+00  0.00000000E+00
  0.00000000E+00  0.00000000E+00  0.00000000E+00
  0.00000000E+00  0.00000000E+00  0.00000000E+00
  0.00000000E+00  0.00000000E+00  0.00000000E+00
  0.00000000E+00  0.00000000E+00  0.00000000E+00
  0.00000000E+00  0.00000000E+00  0.00000000E+00
  0.00000000E+00  0.00000000E+00  0.00000000E+00
  0.00000000E+00  0.00000000E+00  0.00000000E+00
  0.00000000E+00  0.00000000E+00  0.00000000E+00
  0.00000000E+00  0.00000000E+00  0.00000000E+00
  0.00000000E+00  0.00000000E+00  0.00000000E+00
  0.00000000E+00  0.00000000E+00  0.00000000E+00
  0.00000000E+00  0.00000000E+00  0.00000000E+00
  0.00000000E+00  0.00000000E+00  0.00000000E+00
  0.00000000E+00  0.00000000E+00  0.00000000E+00
  0.00000000E+00  0.00000000E+00  0.00000000E+00
  0.00000000E+00  0.00000000E+00  0.00000000E+00
  0.00000000E+00  0.00000000E+00  0.00000000E+00
  0.00000000E+00  0.00000000E+00  0.00000000E+00
  0.00000000E+00  0.00000000E+00  0.00000000E+00
  0.00000000E+00  0.00000000E+00  0.00000000E+00
  0.00000000E+00  0.00000000E+00  0.00000000E+00
  0.00000000E+00  0.00000000E+00  0.00000000E+00
  0.00000000E+00  0.00000000E+00  0.00000000E+00
  0.00000000E+00  0.00000000E+00  0.00000000E+00
  0.00000000E+00  0.00000000E+00  0.00000000E+00
  0.00000000E+00  0.00000000E+00  0.00000000E+00
  0.00000000E+00  0.00000000E+00  0.00000000E+00
  0.00000000E+00  0.00000000E+00  0.00000000E+00
  0.00000000E+00  0.00000000E+00  0.00000000E+00
  0.00000000E+00  0.00000000E+00  0.00000000E+00
  0.00000000E+00  0.00000000E+00  0.00000000E+00
  0.00000000E+00  0.00000000E+00  0.00000000E+00
  0.00000000E+00  0.00000000E+00  0.00000000E+00
  0.00000000E+00  0.00000000E+00  0.00000000E+00
  0.00000000E+00  0.00000000E+00  0.00000000E+00
  0.00000000E+00  0.00000000E+00  0.00000000E+00
  0.00000000E+00  0.00000000E+00  0.00000000E+00
  0.00000000E+00  0.00000000E+00  0.00000000E+00
  0.00000000E+00  0.00000000E+00  0.00000000E+00
  0.00000000E+00  0.00000000E+00  0.00000000E+00
  0.00000000E+00  0.00000000E+00  0.00000000E+00
  0.00000000E+00  0.00000000E+00  0.00000000E+00
  0.00000000E+00  0.00000000E+00  0.00000000E+00
  0.00000000E+00  0.00000000E+00  0.00000000E+00
  0.00000000E+00  0.00000000E+00  0.00000000E+00
  0.00000000E+00  0.00000000E+00  0.00000000E+00
  0.00000000E+00  0.00000000E+00  0.00000000E+00
  0.00000000E+00  0.00000000E+00  0.00000000E+00
  0.00000000E+00  0.00000000E+00  0.00000000E+00
  0.00000000E+00  0.00000000E+00  0.00000000E+00
  0.00000000E+00  0.00000000E+00  0.00000000E+00
  0.00000000E+00  0.00000000E+00  0.00000000E+00
  0.00000000E+00  0.00000000E+00  0.00000000E+00
  0.00000000E+00  0.00000000E+00  0.00000000E+00
  0.00000000E+00  0.00000000E+00  0.00000000E+00
  0.00000000E+00  0.00000000E+00  0.00000000E+00
  0.00000000E+00  0.00000000E+00  0.00000000E+00
  0.00000000E+00  0.00000000E+00  0.00000000E+00
  0.00000000E+00  0.00000000E+00  0.00000000E+00
  0.00000000E+00  0.00000000E+00  0.00000000E+00
  0.00000000E+00  0.00000000E+00  0.00000000E+00
  0.00000000E+00  0.00000000E+00  0.00000000E+00
  0.00000000E+00  0.00000000E+00  0.00000000E+00
  0.00000000E+00  0.00000000E+00  0.00000000E+00
  0.00000000E+00  0.00000000E+00  0.00000000E+00
  0.00000000E+00  0.00000000E+00  0.00000000E+00
  0.00000000E+00  0.00000000E+00  0.00000000E+00
  0.00000000E+00  0.00000000E+00  0.00000000E+00
  0.00000000E+00  0.00000000E+00  0.00000000E+00
  0.00000000E+00  0.00000000E+00  0.00000000E+00
  0.00000000E+00  0.00000000E+00  0.00000000E+00
  0.00000000E+00  0.00000000E+00  0.00000000E+00
  0.00000000E+00  0.00000000E+00  0.00000000E+00
  0.00000000E+00  0.00000000E+00  0.00000000E+00
  0.00000000E+00  0.00000000E+00  0.00000000E+00
  0.00000000E+00  0.00000000E+00  0.00000000E+00
  0.00000000E+00  0.00000000E+00  0.00000000E+00
  0.00000000E+00  0.00000000E+00  0.00000000E+00
  0.00000000E+00  0.00000000E+00  0.00000000E+00
  0.00000000E+00  0.00000000E+00  0.00000000E+00
  0.00000000E+00  0.00000000E+00  0.00000000E+00
  0.00000000E+00  0.00000000E+00  0.00000000E+00
  0.00000000E+00  0.00000000E+00  0.00000000E+00
  0.00000000E+00  0.00000000E+00  0.00000000E+00
  0.00000000E+00  0.00000000E+00  0.00000000E+00
  0.00000000E+00  0.00000000E+00  0.00000000E+00
  0.00000000E+00  0.00000000E+00  0.00000000E+00
  0.00000000E+00  0.00000000E+00  0.00000000E+00
  0.00000000E+00  0.00000000E+00  0.00000000E+00
  0.00000000E+00  0.00000000E+00  0.00000000E+00
  0.00000000E+00  0.00000000E+00  0.00000000E+00
  0.00000000E+00  0.00000000E+00  0.00000000E+00
  0.00000000E+00  0.00000000E+00  0.00000000E+00
  0.00000000E+00  0.00000000E+00  0.00000000E+00
  0.00000000E+00  0.00000000E+00  0.00000000E+00
  0.00000000E+00  0.00000000E+00  0.00000000E+00
  0.00000000E+00  0.00000000E+00  0.00000000E+00
  0.00000000E+00  0.00000000E+00  0.00000000E+00
  0.00000000E+00  0.00000000E+00  0.00000000E+00
  0.00000000E+00  0.00000000E+00  0.00000000E+00
  0.00000000E+00  0.00000000E+00  0.00000000E+00
  0.00000000E+00  0.00000000E+00  0.00000000E+00
  0.00000000E+00  0.00000000E+00  0.00000000E+00
  0.00000000E+00  0.00000000E+00  0.00000000E+00
  0.00000000E+00  0.00000000E+00  0.00000000E+00
