Cl Cs Ge                                
   1.00000000000000     
    10.6798579999999994  -10.6798579999999994    0.0000000000000000
    10.6798579999999994   10.6798579999999994    0.0000000000000000
     0.0000000000000000    0.0000000000000000   21.3597169999999998
   Cl   Cs   Ge
    96    32    32
Direct
  0.0008297764705338  0.2515937275623681  0.0075005403519826
 -0.0003333438974356  0.2497787733981875  0.2574646591860710
  0.0013269832047530  0.2507192252384194  0.5076022954917522
  0.0017709697422359  0.2515419993840539  0.7575639339175216
  0.5007250597016372  0.2491672793893460  0.0076119229859486
  0.4999124904202148  0.2520708672771688  0.2578504509211696
  0.4981098768758885  0.2510818841718170  0.5078514356232358
  0.4981816437796608  0.2518166295518776  0.7577222779461374
  0.2504396606155678  0.5018950638373375  0.9916630563999486
  0.2501352772793780  0.5002171663674783  0.2417583233907845
  0.2485242856101735  0.5029682432349641  0.4917301658409408
  0.2507178928618612  0.5024891273193920  0.7417113470558572
  0.0000869591787908  0.7493626696361766  0.0069068238484973
 -0.0008445606849373  0.7517481526125329  0.2569324257863739
 -0.0020841003375096  0.7514569649347685  0.5068922091775357
 -0.0020497444001871  0.7513273322638776  0.7569405107013357
  0.7509020954070852  0.5008794313342132  0.0072650014661186
  0.7494250936199882  0.5002460964324340  0.2572467687956601
  0.7506365815437823  0.5008152561137996  0.5072881566709920
  0.7491915892350505  0.4999905875171675  0.7572683197887581
  0.5016731276585096  0.7512255851670142  0.0070505399246076
  0.5001185565702082  0.7508401671029048  0.2571371769249689
  0.5012582595785706  0.7502718207143418  0.5070638952697447
  0.5020269024724375  0.7513789585176494  0.7568989583575078
  0.2499651060992188  0.9989672217435481  0.9920745292514471
  0.2503927983907390 -0.0005180732868587  0.2420011056267110
  0.2502041828167084  0.0006464653102849  0.4919299315851150
  0.2497147272471377 -0.0007525348249895  0.7420354424531497
  0.7514350943893969  0.0025314285286896  0.0071908777853251
  0.7506523076469095 -0.0002115443038747  0.2573290241303815
  0.7474610606927020  0.0020143916322978  0.5073045767606739
  0.7499795020371867  0.0031699573084702  0.7571413230465104
  0.1318552723209794  0.1169835072201574  0.1256643678267329
  0.1328447787151608  0.1187546921538735  0.3754300912386534
  0.1340378612313763  0.1193946255898286  0.6258404078649201
  0.1347736326266444  0.1201302366259839  0.8761702752135786
  0.6321354085285487  0.1172001486920635  0.1252041856297426
  0.6176742219788338  0.1351528167272650  0.3747523992803794
  0.6177477406773602  0.1357822970619044  0.6253360358805998
  0.6324513929705625  0.1184215937374408  0.8745911288975863
  0.3848957926457749  0.3699536759222085  0.1231427899909186
  0.3664637530295366  0.3839723849108639  0.3758855998702326
  0.3656748993205468  0.3838220700652464  0.6247559051845267
  0.3824675071419829  0.3685715956468603  0.8747244100395016
  0.1315867959769809  0.6167171664158468  0.1256283081658144
  0.1173806153108657  0.6348703286868570  0.3728936755491628
  0.1176553974622906  0.6357532129821284  0.6236025260471592
  0.1327018509453054  0.6187976461558159  0.8744718210906178
  0.8844382757057226  0.3695899663704292  0.1251093892354415
  0.8819588756107269  0.3680189612888250  0.3746591336010703
  0.8822316746562383  0.3677897289855858  0.6246152820279334
  0.8812825509153528  0.3666250326438344  0.8744233088129952
  0.6317759782859488  0.6170763545782768  0.1242923797541915
  0.6328070003077753  0.6187782343679129  0.3743285831494454
  0.6339984736988795  0.6192754679879570  0.6244273350521260
  0.6350278764920164  0.6201596708533299  0.8747170361456008
  0.3848623265586461  0.8699813331671556  0.1228963957447854
  0.3819724553277990  0.8679881843927157  0.3733755461266138
  0.3825465504187562  0.8678709668418365  0.6229195470375456
  0.3816828773277393  0.8668064985380027  0.8728871960619334
  0.8848688486637726  0.8698582330298785  0.1240306855151314
  0.8663373409138863  0.8837611071603457  0.3754553328314792
  0.8659962057755025  0.8841691234624101  0.6241378388357404
  0.8827255272747467  0.8687634715409163  0.8748277163874756
  0.8660038191543928  0.1197075400448288  0.1250942457438390
  0.8681806940651294  0.1173893833203452  0.3749258577529191
  0.8831304477786768  0.1343286310119805  0.6245026488107380
  0.8841870367343255  0.1331175656621851  0.8745170384496775
  0.3655104701929432  0.1200040712873383  0.1257527886086032
  0.3665477047185873  0.1193773284437347  0.3752435436962622
  0.3674735954544792  0.1183158621994068  0.6259792682422497
  0.3680492274421785  0.1173266190324201  0.8758541279237465
  0.1183251484782477  0.3672280524513381  0.1239871184835040
  0.1155283038274359  0.3699577131574215  0.3731887463208869
  0.1319796812184347  0.3854977783893435  0.6251195998463330
  0.1319044249642662  0.3853596264224127  0.8750551315895443
  0.8655786863535361  0.6198358735259815  0.1248712307200381
  0.8664813766479829  0.6192750941271316  0.3737733444046298
  0.8675576245341028  0.6183056242840314  0.6247674664166273
  0.8683469013659666  0.6170511497951944  0.8739199220979207
  0.6185453374241408  0.3672771448334840  0.1243334353498906
  0.6175527346200697  0.3685688234913179  0.3757015859801918
  0.6168568035505865  0.3689615684310193  0.6245047193168420
  0.6161956137797278  0.3690666643053269  0.8750480564813972
  0.3652741122464778  0.6201578283828454  0.1250049448754557
  0.3680617250373345  0.6175564131565779  0.3750629626033141
  0.3829792412436109  0.6344490204539939  0.6234944476967917
  0.3840134047866273  0.6333008880136269  0.8731803817253240
  0.1186814165727220  0.8667873790127693  0.1227565573178483
  0.1172085127346597  0.8685863901945592  0.3731625920971905
  0.1164434221608113  0.8691302028479214  0.6228006547838892
  0.1164204462164730  0.8688208492761110  0.8728523370929999
  0.6184877252087373  0.8674870684875752  0.1246849918662811
  0.6152279070451542  0.8703713979142605  0.3746566271298652
  0.6324393027325770  0.8849953584624735  0.6251206386701365
  0.6325770438051160  0.8848843486063035  0.8745008024065830
  0.0001425729260430  0.0018415337389375  0.9993090691932885
  0.0001699550037483  0.0016540060701885  0.2493805646793125
  0.0000701992437487  0.0015619530901468  0.4992135555627100
 -0.0001358421563027  0.0014469762709046  0.7492309820099199
  0.4999536563264975  0.0014476425092549  0.9992867049307086
  0.5002439378404908  0.0021557432826785  0.2493015947992494
  0.4998094199280525  0.0016088374007289  0.4992553755027118
  0.4997527922885037  0.0013524630099322  0.7493404022307845
  0.2500060250953370  0.2521816340592248 -0.0001275380713047
  0.2500809538451122  0.2520637522132270  0.2497220950477636
  0.2498234889828487  0.2516150877786450  0.4998370348196131
  0.2498957322782643  0.2516953080386976  0.7497924757919180
  0.0001032882825570  0.5015340511285468 -0.0008616134863435
  0.0000427559368637  0.5020257479536179  0.2492251406587583
  0.0000033283593691  0.5019191604248872  0.4988939645695186
  0.9998284759105238  0.5015314088770614  0.7491663465303122
  0.7499851946074537  0.2516445109412107 -0.0009275619341387
  0.7502060640713351  0.2517481038537974  0.2492059800843411
  0.7503479824401165  0.2515198194870976  0.4993446205257623
  0.7498041185606455  0.2514732345947350  0.7491193831903019
  0.4999978807613494  0.5021368844487659 -0.0008764410928061
  0.5001923670536806  0.5019756602565492  0.2492167639602099
  0.4999458865204731  0.5015656714289815  0.4993514532618936
  0.4997872170538228  0.5014716763475424  0.7492339568396303
  0.2500400766677666  0.7514594524833943 -0.0009973833871115
  0.2502326319479961  0.7516889818541701  0.2490853872956801
  0.2501128518428379  0.7516270862160297  0.4992306078504887
  0.2497221115053443  0.7514120935003165  0.7489451546876438
  0.7501338889510971  0.7519388369595533  0.9988864420884841
  0.7500280409600205  0.7520935004177788  0.2490466494454588
  0.7497825835401196  0.7517116681093234  0.4990601322717359
  0.7499736356927639  0.7516250819528583  0.7489021895227788
  0.0000598835055810  0.2578846917100666  0.1213981656818465
 -0.0002139634061030  0.2580052119807049  0.3712156627204845
  0.9937869530518583  0.2515308034472820  0.6215187940282664
  0.9936056417438852  0.2515583626828803  0.8714042676651969
  0.5006692763466383  0.2578455673157494  0.1213590862840248
  0.5067120459124629  0.2521580248015661  0.3718702786776906
  0.5060735350356866  0.2518782355898689  0.6216801633866221
  0.4995093374790095  0.2579833555163678  0.8716305646903035
  0.2499327460884398  0.5077121246593654  0.1275616204154361
  0.2563134466223552  0.5018236107774936  0.3775466277871281
  0.2496816587951337  0.4956913849809907  0.6274916058880112
  0.2433325524255780  0.5019365889360422  0.8774321295436207
  0.0003591646741324  0.7577189132551336  0.1208549001573729
  0.0064359854598266  0.7519774298215317  0.3708118026057107
  0.0057825104668262  0.7518860226414582  0.6207921804774654
 -0.0005230503564884  0.7578970098793352  0.8709197958195571
  0.7500634606661916  0.5079787932045082  0.1210102659497425
  0.7501257181437290  0.5081947241239564  0.3709636795848232
  0.7502449083623508  0.5077403517473879  0.6209973077048496
  0.7499395291564928  0.5077908799031958  0.8710190731071330
  0.5004112524267225  0.7580622146843403  0.1210228902531199
  0.4999445088138741  0.7581191331779109  0.3710492362847869
  0.4940676464028013  0.7514033419272510  0.6209155587598381
  0.4937911315393578  0.7515528928107984  0.8707902650576722
  0.2501007197139578  0.0078975605121877  0.1278813412554209
  0.2502331908155800  0.0082872761185540  0.3777638635209977
  0.2502210774686593  0.0077716655533391  0.6279335076981648
  0.2498032026763487  0.0078366406967079  0.8779939292118628
  0.7502904062079688  0.0078318158312496  0.1209759572040964
  0.7563617438835976  0.0015216321731679  0.3711625527852024
  0.7495260614397194  0.9956927147417652  0.6210299504584033
  0.7435806834313013  0.0019205420831528  0.8709230309019179
 
  0.00000000E+00  0.00000000E+00  0.00000000E+00
  0.00000000E+00  0.00000000E+00  0.00000000E+00
  0.00000000E+00  0.00000000E+00  0.00000000E+00
  0.00000000E+00  0.00000000E+00  0.00000000E+00
  0.00000000E+00  0.00000000E+00  0.00000000E+00
  0.00000000E+00  0.00000000E+00  0.00000000E+00
  0.00000000E+00  0.00000000E+00  0.00000000E+00
  0.00000000E+00  0.00000000E+00  0.00000000E+00
  0.00000000E+00  0.00000000E+00  0.00000000E+00
  0.00000000E+00  0.00000000E+00  0.00000000E+00
  0.00000000E+00  0.00000000E+00  0.00000000E+00
  0.00000000E+00  0.00000000E+00  0.00000000E+00
  0.00000000E+00  0.00000000E+00  0.00000000E+00
  0.00000000E+00  0.00000000E+00  0.00000000E+00
  0.00000000E+00  0.00000000E+00  0.00000000E+00
  0.00000000E+00  0.00000000E+00  0.00000000E+00
  0.00000000E+00  0.00000000E+00  0.00000000E+00
  0.00000000E+00  0.00000000E+00  0.00000000E+00
  0.00000000E+00  0.00000000E+00  0.00000000E+00
  0.00000000E+00  0.00000000E+00  0.00000000E+00
  0.00000000E+00  0.00000000E+00  0.00000000E+00
  0.00000000E+00  0.00000000E+00  0.00000000E+00
  0.00000000E+00  0.00000000E+00  0.00000000E+00
  0.00000000E+00  0.00000000E+00  0.00000000E+00
  0.00000000E+00  0.00000000E+00  0.00000000E+00
  0.00000000E+00  0.00000000E+00  0.00000000E+00
  0.00000000E+00  0.00000000E+00  0.00000000E+00
  0.00000000E+00  0.00000000E+00  0.00000000E+00
  0.00000000E+00  0.00000000E+00  0.00000000E+00
  0.00000000E+00  0.00000000E+00  0.00000000E+00
  0.00000000E+00  0.00000000E+00  0.00000000E+00
  0.00000000E+00  0.00000000E+00  0.00000000E+00
  0.00000000E+00  0.00000000E+00  0.00000000E+00
  0.00000000E+00  0.00000000E+00  0.00000000E+00
  0.00000000E+00  0.00000000E+00  0.00000000E+00
  0.00000000E+00  0.00000000E+00  0.00000000E+00
  0.00000000E+00  0.00000000E+00  0.00000000E+00
  0.00000000E+00  0.00000000E+00  0.00000000E+00
  0.00000000E+00  0.00000000E+00  0.00000000E+00
  0.00000000E+00  0.00000000E+00  0.00000000E+00
  0.00000000E+00  0.00000000E+00  0.00000000E+00
  0.00000000E+00  0.00000000E+00  0.00000000E+00
  0.00000000E+00  0.00000000E+00  0.00000000E+00
  0.00000000E+00  0.00000000E+00  0.00000000E+00
  0.00000000E+00  0.00000000E+00  0.00000000E+00
  0.00000000E+00  0.00000000E+00  0.00000000E+00
  0.00000000E+00  0.00000000E+00  0.00000000E+00
  0.00000000E+00  0.00000000E+00  0.00000000E+00
  0.00000000E+00  0.00000000E+00  0.00000000E+00
  0.00000000E+00  0.00000000E+00  0.00000000E+00
  0.00000000E+00  0.00000000E+00  0.00000000E+00
  0.00000000E+00  0.00000000E+00  0.00000000E+00
  0.00000000E+00  0.00000000E+00  0.00000000E+00
  0.00000000E+00  0.00000000E+00  0.00000000E+00
  0.00000000E+00  0.00000000E+00  0.00000000E+00
  0.00000000E+00  0.00000000E+00  0.00000000E+00
  0.00000000E+00  0.00000000E+00  0.00000000E+00
  0.00000000E+00  0.00000000E+00  0.00000000E+00
  0.00000000E+00  0.00000000E+00  0.00000000E+00
  0.00000000E+00  0.00000000E+00  0.00000000E+00
  0.00000000E+00  0.00000000E+00  0.00000000E+00
  0.00000000E+00  0.00000000E+00  0.00000000E+00
  0.00000000E+00  0.00000000E+00  0.00000000E+00
  0.00000000E+00  0.00000000E+00  0.00000000E+00
  0.00000000E+00  0.00000000E+00  0.00000000E+00
  0.00000000E+00  0.00000000E+00  0.00000000E+00
  0.00000000E+00  0.00000000E+00  0.00000000E+00
  0.00000000E+00  0.00000000E+00  0.00000000E+00
  0.00000000E+00  0.00000000E+00  0.00000000E+00
  0.00000000E+00  0.00000000E+00  0.00000000E+00
  0.00000000E+00  0.00000000E+00  0.00000000E+00
  0.00000000E+00  0.00000000E+00  0.00000000E+00
  0.00000000E+00  0.00000000E+00  0.00000000E+00
  0.00000000E+00  0.00000000E+00  0.00000000E+00
  0.00000000E+00  0.00000000E+00  0.00000000E+00
  0.00000000E+00  0.00000000E+00  0.00000000E+00
  0.00000000E+00  0.00000000E+00  0.00000000E+00
  0.00000000E+00  0.00000000E+00  0.00000000E+00
  0.00000000E+00  0.00000000E+00  0.00000000E+00
  0.00000000E+00  0.00000000E+00  0.00000000E+00
  0.00000000E+00  0.00000000E+00  0.00000000E+00
  0.00000000E+00  0.00000000E+00  0.00000000E+00
  0.00000000E+00  0.00000000E+00  0.00000000E+00
  0.00000000E+00  0.00000000E+00  0.00000000E+00
  0.00000000E+00  0.00000000E+00  0.00000000E+00
  0.00000000E+00  0.00000000E+00  0.00000000E+00
  0.00000000E+00  0.00000000E+00  0.00000000E+00
  0.00000000E+00  0.00000000E+00  0.00000000E+00
  0.00000000E+00  0.00000000E+00  0.00000000E+00
  0.00000000E+00  0.00000000E+00  0.00000000E+00
  0.00000000E+00  0.00000000E+00  0.00000000E+00
  0.00000000E+00  0.00000000E+00  0.00000000E+00
  0.00000000E+00  0.00000000E+00  0.00000000E+00
  0.00000000E+00  0.00000000E+00  0.00000000E+00
  0.00000000E+00  0.00000000E+00  0.00000000E+00
  0.00000000E+00  0.00000000E+00  0.00000000E+00
  0.00000000E+00  0.00000000E+00  0.00000000E+00
  0.00000000E+00  0.00000000E+00  0.00000000E+00
  0.00000000E+00  0.00000000E+00  0.00000000E+00
  0.00000000E+00  0.00000000E+00  0.00000000E+00
  0.00000000E+00  0.00000000E+00  0.00000000E+00
  0.00000000E+00  0.00000000E+00  0.00000000E+00
  0.00000000E+00  0.00000000E+00  0.00000000E+00
  0.00000000E+00  0.00000000E+00  0.00000000E+00
  0.00000000E+00  0.00000000E+00  0.00000000E+00
  0.00000000E+00  0.00000000E+00  0.00000000E+00
  0.00000000E+00  0.00000000E+00  0.00000000E+00
  0.00000000E+00  0.00000000E+00  0.00000000E+00
  0.00000000E+00  0.00000000E+00  0.00000000E+00
  0.00000000E+00  0.00000000E+00  0.00000000E+00
  0.00000000E+00  0.00000000E+00  0.00000000E+00
  0.00000000E+00  0.00000000E+00  0.00000000E+00
  0.00000000E+00  0.00000000E+00  0.00000000E+00
  0.00000000E+00  0.00000000E+00  0.00000000E+00
  0.00000000E+00  0.00000000E+00  0.00000000E+00
  0.00000000E+00  0.00000000E+00  0.00000000E+00
  0.00000000E+00  0.00000000E+00  0.00000000E+00
  0.00000000E+00  0.00000000E+00  0.00000000E+00
  0.00000000E+00  0.00000000E+00  0.00000000E+00
  0.00000000E+00  0.00000000E+00  0.00000000E+00
  0.00000000E+00  0.00000000E+00  0.00000000E+00
  0.00000000E+00  0.00000000E+00  0.00000000E+00
  0.00000000E+00  0.00000000E+00  0.00000000E+00
  0.00000000E+00  0.00000000E+00  0.00000000E+00
  0.00000000E+00  0.00000000E+00  0.00000000E+00
  0.00000000E+00  0.00000000E+00  0.00000000E+00
  0.00000000E+00  0.00000000E+00  0.00000000E+00
  0.00000000E+00  0.00000000E+00  0.00000000E+00
  0.00000000E+00  0.00000000E+00  0.00000000E+00
  0.00000000E+00  0.00000000E+00  0.00000000E+00
  0.00000000E+00  0.00000000E+00  0.00000000E+00
  0.00000000E+00  0.00000000E+00  0.00000000E+00
  0.00000000E+00  0.00000000E+00  0.00000000E+00
  0.00000000E+00  0.00000000E+00  0.00000000E+00
  0.00000000E+00  0.00000000E+00  0.00000000E+00
  0.00000000E+00  0.00000000E+00  0.00000000E+00
  0.00000000E+00  0.00000000E+00  0.00000000E+00
  0.00000000E+00  0.00000000E+00  0.00000000E+00
  0.00000000E+00  0.00000000E+00  0.00000000E+00
  0.00000000E+00  0.00000000E+00  0.00000000E+00
  0.00000000E+00  0.00000000E+00  0.00000000E+00
  0.00000000E+00  0.00000000E+00  0.00000000E+00
  0.00000000E+00  0.00000000E+00  0.00000000E+00
  0.00000000E+00  0.00000000E+00  0.00000000E+00
  0.00000000E+00  0.00000000E+00  0.00000000E+00
  0.00000000E+00  0.00000000E+00  0.00000000E+00
  0.00000000E+00  0.00000000E+00  0.00000000E+00
  0.00000000E+00  0.00000000E+00  0.00000000E+00
  0.00000000E+00  0.00000000E+00  0.00000000E+00
  0.00000000E+00  0.00000000E+00  0.00000000E+00
  0.00000000E+00  0.00000000E+00  0.00000000E+00
  0.00000000E+00  0.00000000E+00  0.00000000E+00
  0.00000000E+00  0.00000000E+00  0.00000000E+00
  0.00000000E+00  0.00000000E+00  0.00000000E+00
  0.00000000E+00  0.00000000E+00  0.00000000E+00
  0.00000000E+00  0.00000000E+00  0.00000000E+00
  0.00000000E+00  0.00000000E+00  0.00000000E+00
  0.00000000E+00  0.00000000E+00  0.00000000E+00
  0.00000000E+00  0.00000000E+00  0.00000000E+00
  0.00000000E+00  0.00000000E+00  0.00000000E+00
