Cs Sr Br                                
   1.00000000000000     
    12.0634060000000005  -12.0634060000000005    0.0000000000000000
    12.0634060000000005   12.0634060000000005    0.0000000000000000
     0.0000000000000000    0.0000000000000000   24.1268120000000010
   Br   Cs   Sr
    96    32    32
Direct
  0.9974479160759684  0.2917120494786768  0.0000978959782312
  0.0046227261058207  0.2163439733474190  0.2502734882669813
  0.9957153030052976  0.2871963516957974  0.5013572802420313
  0.0000566460495131  0.2078860058628773  0.7512911900304294
  0.4657801525039155  0.2555487669759738  0.9997541619131001
  0.5316830665349309  0.2473998457292232  0.2498890480421669
  0.4665368687177603  0.2566721215322915  0.5001236297569071
  0.5377285981792267  0.2448080530840166  0.7500830995810012
  0.2512594268498476  0.4639378920908147  0.0007937049496548
  0.2610703748043298  0.5377011468574100  0.2509042794119890
  0.2434060766402751  0.4610640204812526  0.4999940998983517
  0.2475366559035340  0.5378501843141955  0.7500364620359935
  0.9657795138839024  0.7553663234773855  0.9997274307766927
  0.0315597882909596  0.7486578164786921  0.2498499305804034
  0.9660616708484636  0.7560469523579518  0.4998644743845393
  0.0374958566069031  0.7468442915886272  0.7498507092401281
  0.7903801470733732  0.4953816630210298  0.9996465473815296
  0.7282830401032974  0.5142113336072798  0.2499218602522697
  0.7799366730823473  0.4881354038018377  0.5013328678116038
  0.7095687848809393  0.5031673818065721  0.7511441250262366
  0.4995227636996858  0.7903058522786262  0.9998645903743854
  0.5048339454246725  0.7161278415463589  0.2501638143386256
  0.4952670977107330  0.7875477919857020  0.5011014623514534
  0.5008247812287998  0.7073397552028939  0.7507935667557181
  0.2900159442706545  0.9957045294063283  0.9993700969797136
  0.2275887166240460  0.0140529960779611  0.2494930795821950
  0.2814657297720179  0.9881899204520779  0.5008471469538415
  0.2090936214145903  0.0023254571710789  0.7507864269642818
  0.7510260674701400  0.9628710798859940  0.0006866297758925
  0.7613738042005820  0.0375184091622850  0.2506155219180181
  0.7447119050676794  0.9622340217289197  0.4998084510546385
  0.7484788383359825  0.0371693240649168  0.7499471596907866
  0.1526776266324932  0.1545343873180917  0.1103884115433628
  0.1466988953914906  0.1478623507649652  0.3902857630216569
  0.1375784984507352  0.1367355279135768  0.6090313861255486
  0.1120827101655920  0.1112088214134652  0.9006493745734310
  0.6442537741367226  0.1447839630233485  0.1051257887315181
  0.6429688123435915  0.1450477128627086  0.3960699824051430
  0.6307816152239620  0.1308131887012986  0.5985752661828387
  0.6012520055283317  0.1005689490986459  0.8879653690104414
  0.3632829362993131  0.3640559195956263  0.1496141099418744
  0.3571795365971370  0.3591248148363110  0.3545651869926933
  0.3596257432410166  0.3594541268179778  0.6452411231438032
  0.3990683033770734  0.3986262537965275  0.8621180985880378
  0.1445712669329720  0.6452145264428647  0.1062739925903726
  0.1431845646305347  0.6449811379853782  0.3960720592858529
  0.1304218011899086  0.6302389034008427  0.5987061724648455
  0.1012610918953567  0.6008843329208982  0.8878628957170869
  0.8585010012468500  0.3595881279088392  0.1425961263993356
  0.8549620643950967  0.3558841339981678  0.3595480972241539
  0.8503413902907875  0.3491664885042881  0.6419703552571461
  0.8899969040842607  0.3891059575020186  0.8505117831970084
  0.6531642975085314  0.6542869621173355  0.1105498507586781
  0.6463492633967701  0.6477279488548946  0.3909449825189873
  0.6376289843716377  0.6370197901253355  0.6085755308713998
  0.6115437310422088  0.6104056375182810  0.9003328951294225
  0.3587478991433349  0.8598317783377797  0.1413346788235046
  0.3555699911740566  0.8566832602897809  0.3578040224885715
  0.3498381788638302  0.8486914605693590  0.6422702168424423
  0.3903008579668582  0.8890147446296001  0.8506039373514008
  0.8632119650538362  0.8642351793106015  0.1494652219929829
  0.8572551902575459  0.8591556088487404  0.3550306201835260
  0.8590015005570283  0.8590649919313254  0.6432052055107058
  0.8990496595513465  0.8987076383962035  0.8620047126788353
  0.8934850120526097  0.1114893512628039  0.1044308368629293
  0.8916872803256265  0.1088518218449073  0.3950967745513151
  0.8877517220078435  0.1065656233499036  0.6064627357286037
  0.8554316987086734  0.1444912818369083  0.8938815530607005
  0.3986874407709776  0.1066047349958338  0.1355210733245500
  0.3953603354324959  0.1051233019485254  0.3678600015659713
  0.3852965430528883  0.1093635151250745  0.6439273996260420
  0.3552433553633113  0.1451124747551719  0.8571263346989747
  0.1073065290022934  0.3973661567895106  0.1439668742103448
  0.1049996769856953  0.3951723631373552  0.3577370857311600
  0.1104051301360311  0.3838272030697790  0.6487108604949543
  0.1466874405176114  0.3532488717506829  0.8573655269564321
  0.8986552893807864  0.6067490138216620  0.1356906656676805
  0.8959570273961809  0.6043386129935236  0.3680857452547138
  0.8856010391543967  0.6092238296522098  0.6447396072356099
  0.8550643549395600  0.6452942001588060  0.8572293066086305
  0.6080853921460739  0.3973489311806632  0.1113103118274149
  0.6015763098009922  0.3989490914194382  0.3800669004343999
  0.6059585007777306  0.3890063132821096  0.6121208025789520
  0.6471556515993074  0.3532223531468567  0.8925060919620225
  0.3937189597197883  0.6114649230942771  0.1049426881486240
  0.3918737736401550  0.6088707741903134  0.3955911678020770
  0.3875037696898806  0.6066726138994402  0.6058375082358548
  0.3553659217084194  0.6447373750900427  0.8934827174071024
  0.1078985091914526  0.8976066739604346  0.1109055820177288
  0.1015146057221516  0.8988383429660747  0.3801750750910826
  0.1057667023635062  0.8885617236072533  0.6108258468266076
  0.1470594885241319  0.8533240656827815  0.8927383555566391
  0.6074264048055690  0.8972481092115054  0.1442614060851387
  0.6054389975200939  0.8948494591828446  0.3574654836097797
  0.6096816472941923  0.8844821978184392  0.6484513847644477
  0.6471220466115648  0.8527698835584782  0.8572056422242409
  0.9861126467466428  0.9864639884675455  0.9930937107385129
  0.9884368554671454  0.9873761782705800  0.2514266468799696
  0.9930544916972223  0.9879396413261183  0.5001889133321265
  0.9894127565937839  0.9889045779536683  0.7348424669993247
  0.5118377379527841  0.0102386053459509  0.0154469212764156
  0.4782156196256253  0.9892010382039720  0.2508471489454722
  0.5114834852837632  0.0119205619887318  0.4911016977229270
  0.5128168587467152  0.0139725662670479  0.7565835401196432
  0.2446443011955656  0.2438802169207919  0.9843419976446883
  0.2317587320711156  0.2468763645122069  0.2496045211936554
  0.2505101690462732  0.2461243801452737  0.5034025877371832
  0.2326321550349005  0.2324142487611763  0.7404627597243588
  0.0119514639700228  0.5111744742679181  0.0152199136441276
  0.9783744397997259  0.4889124777660441  0.2507631582934740
  0.0118270400361683  0.5111540326492791  0.4912004446889336
  0.0135346454299204  0.5137634958277911  0.7565008571889832
  0.7684179725214941  0.2667565369235074  0.0090702580911295
  0.7464477470474911  0.2510995844495715  0.2501904771849852
  0.7679611450241374  0.2548626992135295  0.5040112852542079
  0.7577636937739773  0.2565481211471304  0.7667137935925723
  0.4857724464496049  0.4862625941968238  0.9936291545970244
  0.4883824333119817  0.4874210074935620  0.2514152184723074
  0.4994798988764838  0.4923216097227775  0.5004694004027570
  0.4900604508267503  0.4891767166329832  0.7357619897068854
  0.2685975995934445  0.7668347553788187  0.0091544936315070
  0.2461352153966417  0.7513315877762253  0.2492298980510574
  0.2675047073807896  0.7543962654342700  0.5044453968617754
  0.2576043904119244  0.7567106323707834  0.7670374998516941
  0.7444750815948883  0.7433727919994786  0.9842283337264945
  0.7316984251273969  0.7477418902631334  0.2495046564262950
  0.7502448582717889  0.7476976706846583  0.5031702577611946
  0.7327728285476365  0.7323609111523970  0.7403296822379997
  0.0030129269898106  0.2514554642413726  0.1246383162252830
  0.0000110871260192  0.2501538106858080  0.3762406964821501
  0.9969018825784339  0.2481610611418955  0.6264142876114864
  0.0005392868814588  0.2497019155880055  0.8756190330875642
  0.5008996991326569  0.2530278036791723  0.1249306138570062
  0.4993029778470329  0.2511276104506690  0.3746424298861902
  0.4989481812830326  0.2465295537246296  0.6254957088178207
  0.5008456206826676  0.2497318328805910  0.8748607077607702
  0.2525576142883387  0.5021356033241958  0.1260807404540404
  0.2495089789183940  0.5011969017594142  0.3752851491366679
  0.2459626119712504  0.4977760143853771  0.6251510614921969
  0.2500378754054104  0.4996504036099077  0.8751815527611206
  0.0007650627906308  0.7532602851800755  0.1248633489720315
  0.9995466411155931  0.7506873530221138  0.3744472378467519
  0.9988895379788036  0.7462558213433164  0.6252702777309492
  0.0006176393503836  0.7499765857924982  0.8747313645597249
  0.7510724393013229  0.5051474868848891  0.1238152822159610
  0.7491030974525300  0.5011081596350859  0.3761709273203631
  0.7489821880578234  0.4955030678470462  0.6266844393491562
  0.7506988721865995  0.4996700937673784  0.8752581244116077
  0.5034644748972311  0.7513477410966424  0.1245615362822907
  0.4997114310100795  0.7502221187989319  0.3759574674944302
  0.4965467067185344  0.7482899623797816  0.6261589861774649
  0.5009114581069392  0.7493270171135715  0.8752201543801076
  0.2508210209905080  0.0054026585167760  0.1234763521224841
  0.2489172564487149  0.0010553893843741  0.3758748549749067
  0.2487833951347150  0.9951613656567573  0.6262023825960592
  0.2505860903272014  0.9996738378715342  0.8749464845223093
  0.7525317871863979  0.0021545626353734  0.1257062865771830
  0.7493466532540791  0.0014850536889882  0.3748619590388768
  0.7455925030978309  0.9981951756862600  0.6251901163785997
  0.7500585899933739  0.9994476946426621  0.8752252414996989
 
  0.00000000E+00  0.00000000E+00  0.00000000E+00
  0.00000000E+00  0.00000000E+00  0.00000000E+00
  0.00000000E+00  0.00000000E+00  0.00000000E+00
  0.00000000E+00  0.00000000E+00  0.00000000E+00
  0.00000000E+00  0.00000000E+00  0.00000000E+00
  0.00000000E+00  0.00000000E+00  0.00000000E+00
  0.00000000E+00  0.00000000E+00  0.00000000E+00
  0.00000000E+00  0.00000000E+00  0.00000000E+00
  0.00000000E+00  0.00000000E+00  0.00000000E+00
  0.00000000E+00  0.00000000E+00  0.00000000E+00
  0.00000000E+00  0.00000000E+00  0.00000000E+00
  0.00000000E+00  0.00000000E+00  0.00000000E+00
  0.00000000E+00  0.00000000E+00  0.00000000E+00
  0.00000000E+00  0.00000000E+00  0.00000000E+00
  0.00000000E+00  0.00000000E+00  0.00000000E+00
  0.00000000E+00  0.00000000E+00  0.00000000E+00
  0.00000000E+00  0.00000000E+00  0.00000000E+00
  0.00000000E+00  0.00000000E+00  0.00000000E+00
  0.00000000E+00  0.00000000E+00  0.00000000E+00
  0.00000000E+00  0.00000000E+00  0.00000000E+00
  0.00000000E+00  0.00000000E+00  0.00000000E+00
  0.00000000E+00  0.00000000E+00  0.00000000E+00
  0.00000000E+00  0.00000000E+00  0.00000000E+00
  0.00000000E+00  0.00000000E+00  0.00000000E+00
  0.00000000E+00  0.00000000E+00  0.00000000E+00
  0.00000000E+00  0.00000000E+00  0.00000000E+00
  0.00000000E+00  0.00000000E+00  0.00000000E+00
  0.00000000E+00  0.00000000E+00  0.00000000E+00
  0.00000000E+00  0.00000000E+00  0.00000000E+00
  0.00000000E+00  0.00000000E+00  0.00000000E+00
  0.00000000E+00  0.00000000E+00  0.00000000E+00
  0.00000000E+00  0.00000000E+00  0.00000000E+00
  0.00000000E+00  0.00000000E+00  0.00000000E+00
  0.00000000E+00  0.00000000E+00  0.00000000E+00
  0.00000000E+00  0.00000000E+00  0.00000000E+00
  0.00000000E+00  0.00000000E+00  0.00000000E+00
  0.00000000E+00  0.00000000E+00  0.00000000E+00
  0.00000000E+00  0.00000000E+00  0.00000000E+00
  0.00000000E+00  0.00000000E+00  0.00000000E+00
  0.00000000E+00  0.00000000E+00  0.00000000E+00
  0.00000000E+00  0.00000000E+00  0.00000000E+00
  0.00000000E+00  0.00000000E+00  0.00000000E+00
  0.00000000E+00  0.00000000E+00  0.00000000E+00
  0.00000000E+00  0.00000000E+00  0.00000000E+00
  0.00000000E+00  0.00000000E+00  0.00000000E+00
  0.00000000E+00  0.00000000E+00  0.00000000E+00
  0.00000000E+00  0.00000000E+00  0.00000000E+00
  0.00000000E+00  0.00000000E+00  0.00000000E+00
  0.00000000E+00  0.00000000E+00  0.00000000E+00
  0.00000000E+00  0.00000000E+00  0.00000000E+00
  0.00000000E+00  0.00000000E+00  0.00000000E+00
  0.00000000E+00  0.00000000E+00  0.00000000E+00
  0.00000000E+00  0.00000000E+00  0.00000000E+00
  0.00000000E+00  0.00000000E+00  0.00000000E+00
  0.00000000E+00  0.00000000E+00  0.00000000E+00
  0.00000000E+00  0.00000000E+00  0.00000000E+00
  0.00000000E+00  0.00000000E+00  0.00000000E+00
  0.00000000E+00  0.00000000E+00  0.00000000E+00
  0.00000000E+00  0.00000000E+00  0.00000000E+00
  0.00000000E+00  0.00000000E+00  0.00000000E+00
  0.00000000E+00  0.00000000E+00  0.00000000E+00
  0.00000000E+00  0.00000000E+00  0.00000000E+00
  0.00000000E+00  0.00000000E+00  0.00000000E+00
  0.00000000E+00  0.00000000E+00  0.00000000E+00
  0.00000000E+00  0.00000000E+00  0.00000000E+00
  0.00000000E+00  0.00000000E+00  0.00000000E+00
  0.00000000E+00  0.00000000E+00  0.00000000E+00
  0.00000000E+00  0.00000000E+00  0.00000000E+00
  0.00000000E+00  0.00000000E+00  0.00000000E+00
  0.00000000E+00  0.00000000E+00  0.00000000E+00
  0.00000000E+00  0.00000000E+00  0.00000000E+00
  0.00000000E+00  0.00000000E+00  0.00000000E+00
  0.00000000E+00  0.00000000E+00  0.00000000E+00
  0.00000000E+00  0.00000000E+00  0.00000000E+00
  0.00000000E+00  0.00000000E+00  0.00000000E+00
  0.00000000E+00  0.00000000E+00  0.00000000E+00
  0.00000000E+00  0.00000000E+00  0.00000000E+00
  0.00000000E+00  0.00000000E+00  0.00000000E+00
  0.00000000E+00  0.00000000E+00  0.00000000E+00
  0.00000000E+00  0.00000000E+00  0.00000000E+00
  0.00000000E+00  0.00000000E+00  0.00000000E+00
  0.00000000E+00  0.00000000E+00  0.00000000E+00
  0.00000000E+00  0.00000000E+00  0.00000000E+00
  0.00000000E+00  0.00000000E+00  0.00000000E+00
  0.00000000E+00  0.00000000E+00  0.00000000E+00
  0.00000000E+00  0.00000000E+00  0.00000000E+00
  0.00000000E+00  0.00000000E+00  0.00000000E+00
  0.00000000E+00  0.00000000E+00  0.00000000E+00
  0.00000000E+00  0.00000000E+00  0.00000000E+00
  0.00000000E+00  0.00000000E+00  0.00000000E+00
  0.00000000E+00  0.00000000E+00  0.00000000E+00
  0.00000000E+00  0.00000000E+00  0.00000000E+00
  0.00000000E+00  0.00000000E+00  0.00000000E+00
  0.00000000E+00  0.00000000E+00  0.00000000E+00
  0.00000000E+00  0.00000000E+00  0.00000000E+00
  0.00000000E+00  0.00000000E+00  0.00000000E+00
  0.00000000E+00  0.00000000E+00  0.00000000E+00
  0.00000000E+00  0.00000000E+00  0.00000000E+00
  0.00000000E+00  0.00000000E+00  0.00000000E+00
  0.00000000E+00  0.00000000E+00  0.00000000E+00
  0.00000000E+00  0.00000000E+00  0.00000000E+00
  0.00000000E+00  0.00000000E+00  0.00000000E+00
  0.00000000E+00  0.00000000E+00  0.00000000E+00
  0.00000000E+00  0.00000000E+00  0.00000000E+00
  0.00000000E+00  0.00000000E+00  0.00000000E+00
  0.00000000E+00  0.00000000E+00  0.00000000E+00
  0.00000000E+00  0.00000000E+00  0.00000000E+00
  0.00000000E+00  0.00000000E+00  0.00000000E+00
  0.00000000E+00  0.00000000E+00  0.00000000E+00
  0.00000000E+00  0.00000000E+00  0.00000000E+00
  0.00000000E+00  0.00000000E+00  0.00000000E+00
  0.00000000E+00  0.00000000E+00  0.00000000E+00
  0.00000000E+00  0.00000000E+00  0.00000000E+00
  0.00000000E+00  0.00000000E+00  0.00000000E+00
  0.00000000E+00  0.00000000E+00  0.00000000E+00
  0.00000000E+00  0.00000000E+00  0.00000000E+00
  0.00000000E+00  0.00000000E+00  0.00000000E+00
  0.00000000E+00  0.00000000E+00  0.00000000E+00
  0.00000000E+00  0.00000000E+00  0.00000000E+00
  0.00000000E+00  0.00000000E+00  0.00000000E+00
  0.00000000E+00  0.00000000E+00  0.00000000E+00
  0.00000000E+00  0.00000000E+00  0.00000000E+00
  0.00000000E+00  0.00000000E+00  0.00000000E+00
  0.00000000E+00  0.00000000E+00  0.00000000E+00
  0.00000000E+00  0.00000000E+00  0.00000000E+00
  0.00000000E+00  0.00000000E+00  0.00000000E+00
  0.00000000E+00  0.00000000E+00  0.00000000E+00
  0.00000000E+00  0.00000000E+00  0.00000000E+00
  0.00000000E+00  0.00000000E+00  0.00000000E+00
  0.00000000E+00  0.00000000E+00  0.00000000E+00
  0.00000000E+00  0.00000000E+00  0.00000000E+00
  0.00000000E+00  0.00000000E+00  0.00000000E+00
  0.00000000E+00  0.00000000E+00  0.00000000E+00
  0.00000000E+00  0.00000000E+00  0.00000000E+00
  0.00000000E+00  0.00000000E+00  0.00000000E+00
  0.00000000E+00  0.00000000E+00  0.00000000E+00
  0.00000000E+00  0.00000000E+00  0.00000000E+00
  0.00000000E+00  0.00000000E+00  0.00000000E+00
  0.00000000E+00  0.00000000E+00  0.00000000E+00
  0.00000000E+00  0.00000000E+00  0.00000000E+00
  0.00000000E+00  0.00000000E+00  0.00000000E+00
  0.00000000E+00  0.00000000E+00  0.00000000E+00
  0.00000000E+00  0.00000000E+00  0.00000000E+00
  0.00000000E+00  0.00000000E+00  0.00000000E+00
  0.00000000E+00  0.00000000E+00  0.00000000E+00
  0.00000000E+00  0.00000000E+00  0.00000000E+00
  0.00000000E+00  0.00000000E+00  0.00000000E+00
  0.00000000E+00  0.00000000E+00  0.00000000E+00
  0.00000000E+00  0.00000000E+00  0.00000000E+00
  0.00000000E+00  0.00000000E+00  0.00000000E+00
  0.00000000E+00  0.00000000E+00  0.00000000E+00
  0.00000000E+00  0.00000000E+00  0.00000000E+00
  0.00000000E+00  0.00000000E+00  0.00000000E+00
  0.00000000E+00  0.00000000E+00  0.00000000E+00
  0.00000000E+00  0.00000000E+00  0.00000000E+00
  0.00000000E+00  0.00000000E+00  0.00000000E+00
  0.00000000E+00  0.00000000E+00  0.00000000E+00
  0.00000000E+00  0.00000000E+00  0.00000000E+00
  0.00000000E+00  0.00000000E+00  0.00000000E+00
  0.00000000E+00  0.00000000E+00  0.00000000E+00
