Ge Rb F                                 
   1.00000000000000     
     8.9691299999999998   -8.9691299999999998    0.0000000000000000
     8.9691299999999998    8.9691299999999998    0.0000000000000000
     0.0000000000000000    0.0000000000000000   17.9382610000000007
   F    Ge   Rb
    96    32    32
Direct
  0.1387497507116793  0.1675028810789004  0.0059675158892347
  0.1640487601265997  0.1599392821209752  0.2363408571534557
  0.1369095713308835  0.0778137902586038  0.5068644175166220
  0.0864948913107898  0.0871702203442780  0.7478557334857453
  0.5503611158981432  0.1197170505063199  0.0053351793610095
  0.6173706694436759  0.0967179265515561  0.2129365712893436
  0.6242305949622491  0.0937868891572148  0.5343314781732199
  0.5530109150967814  0.1413664553783212  0.7399552591944087
  0.4105803982869858  0.4127415127621490  0.9832840183936117
  0.3904670892048241  0.4361275710071925  0.2590510977116904
  0.3718690618945149  0.3538923584771268  0.5078092392851278
  0.3441355925959530  0.3499369420113528  0.7712238081079976
  0.0816993129182764  0.5916328402801669  0.0108631695871665
  0.1109646884259959  0.5940881458503637  0.2121860747809115
  0.1043849987874873  0.6177384926370416  0.5203446107345980
  0.0522029513926444  0.6360958693368591  0.7377126422136299
  0.8523654435043900  0.3182906734114512  0.9760387036819183
  0.8323147373032783  0.3756333707551920  0.2787394135805435
  0.8429735830345088  0.3813831540907853  0.4712291654750233
  0.8812882424319295  0.3037308122085408  0.7642435142596915
  0.6539629574289307  0.6526905217016903  0.0599360693299682
  0.6644377371428951  0.6699142190864197  0.2507589670508446
  0.5206061505777272  0.6853068085462877  0.5002796394417608
  0.6034361123929042  0.5914739537964395  0.7298216008181676
  0.3528844105225297  0.8262921830664300  0.9576738736505614
  0.3328680896826910  0.8749020291009038  0.2639894484811412
  0.3324239304879871  0.8970799600986542  0.4736830706546223
  0.3620363415250191  0.8144787905459462  0.7686470594246680
  0.9096425544467692  0.8888696100915476  0.9904397295036359
  0.9063815923752524  0.9304263161741435  0.2993729447195645
  0.8454853829135895  0.8387829396203641  0.5135246958200713
  0.8403423279805146  0.8414842937998288  0.7982681516119664
  0.9166124849447469  0.0964561662115121  0.0164851879300775
  0.8416724610571107  0.1620018441136357  0.2724530295383584
  0.9484398736956429  0.1670632141653452  0.4947549458678243
  0.8757589070555016  0.0689046782795469  0.7783570549552892
  0.3503476875750241  0.0481051698554413  0.9917539295309862
  0.4057683292974903  0.1044780219181056  0.2427221155382371
  0.4253101685907768  0.1276195136656836  0.4846944005449460
  0.3241450550065533  0.1407382714698397  0.7919744074352149
  0.1885669220662812  0.3726681261019018  0.0153419018473092
  0.1672390720229900  0.3682222922663204  0.2072108255741975
  0.1563303277766984  0.3532282974059913  0.5316672688674229
  0.1189666801688383  0.4319805317365550  0.7338721009713274
  0.8730133814610017  0.5552463367966055  0.9899084056799603
  0.8951179641496171  0.5992705410864055  0.2191469437976176
  0.8960873344039332  0.6093902297853335  0.4867399114618153
  0.8247963791078440  0.6296876075328681  0.7859083478780589
  0.6467052691398326  0.3288195899512424  0.0067472099459180
  0.6026201457641240  0.4292531194153081  0.2682431649781714
  0.6434955070491037  0.3537076807945181  0.5150964689538292
  0.6796061257922722  0.3630301447384998  0.7387801210704175
  0.4353856902482734  0.6191368795701999  0.0173618565788384
  0.3370256197521943  0.6656345091327033  0.2438274786200945
  0.3497153642381492  0.5673091542714949  0.4849711320541314
  0.3941085504583934  0.5826123730539489  0.7623013429218395
  0.1419517575135621  0.8218831149977789  0.9928516957074015
  0.1151299663598161  0.9311425146215920  0.2734989076361802
  0.1284496189386907  0.8519133774967471  0.5130578857189861
  0.1585400126814202  0.8531992124387550  0.7369614411408879
  0.6779408122191477  0.8660754150615435  0.0368228667459827
  0.6838492591422541  0.8797794144997516  0.2722303162556893
  0.6452079003821800  0.8602342921664159  0.5494921384093632
  0.6110819260926657  0.9326265103612102  0.7423670580659326
  0.0233188244655552  0.9615662828699360  0.1084897613220048
  0.0345697313718406  0.0811424875581298  0.3580797275351759
  0.9803451591985810  0.0222868728058242  0.6013583141352390
  0.0194604409738138  0.9585755144227487  0.8551208913740976
  0.4687188476363703  0.9837495554723293  0.1077487188050947
  0.5381919124481683  0.0499556970647114  0.3496651411848989
  0.4623124557296674  0.9949615388281297  0.6019244384876441
  0.5084580355960244  0.0181988092075845  0.8584851844857544
  0.2907484533948568  0.2297405874019496  0.1002262267368359
  0.2260887672830919  0.3017192407220946  0.3448397829037437
  0.2832877019116442  0.2156625061362265  0.6034625226309726
  0.1859671198916761  0.2760189463100019  0.8564186916453265
  0.9731178991536447  0.4595122162280046  0.1042567964764059
  0.0109128778710199  0.5585018900637444  0.3440105871579501
  0.9763505150503299  0.4895806626621309  0.5976915674747879
  0.0101397877963259  0.5055143125598915  0.8529733557843781
  0.7831092829732419  0.2417785262304820  0.1064570399207994
  0.6975669927487362  0.2535398439224158  0.3600861920615522
  0.8009417677621765  0.2842546722153291  0.6035460322766397
  0.7238060920010846  0.2251066917401210  0.8505700030185944
  0.5177002719826479  0.4633693314437322  0.1059745926571008
  0.4940897631552458  0.5680965266153164  0.3515749449317911
  0.4768958036104201  0.5367201994774174  0.6026203601277713
  0.5306020307466923  0.4787389210827482  0.8475543115450033
  0.2886967697727355  0.7715309675855097  0.0953874217051553
  0.2048708805246177  0.7472083864045505  0.3461994853337494
  0.2891184625851286  0.7780205245260903  0.5989261075052127
  0.2119141724281256  0.7152306462939163  0.8487468141289056
  0.8030660815407339  0.7916211360594279  0.1674362937512213
  0.7025659027099006  0.7727085117301755  0.4144639411318161
  0.7783240736799465  0.7534007091481713  0.6669844075917003
  0.7080423972326217  0.7321931095318293  0.9215333088583741
  0.0228941372987818  0.9868510090223351  0.0021070081820973
  0.0049754081430311  0.0312309647672593  0.2597555978354719
  0.9993741950278355  0.0243962331101565  0.4946925680751978
  0.9874968795814870  0.9718170424863144  0.7520223524448746
  0.4856165697127098  0.9833230705164926  0.9999775400579609
  0.5142080967986119  0.0003947018437000  0.2491661916448984
  0.5099450601120549  0.0032106427053802  0.5012239065830171
  0.4812331417450694  0.0107781087495690  0.7532203829588104
  0.2660703144335488  0.2463003587716544  0.9945070150973341
  0.2687889048458449  0.2707451774499885  0.2423080382078294
  0.2602019794029114  0.2510628597462563  0.5009889060912394
  0.2330336011624941  0.2501340373569902  0.7566307936479950
  0.9967386010412462  0.4676230217049158  0.9971999294435164
  0.0018235920567293  0.4992271424004406  0.2433439656488086
  0.0069727158642320  0.5064174585925743  0.4943205108313597
  0.9853508169643833  0.5014296503406434  0.7474260409796646
  0.7487034320582633  0.2173260911565288  0.0032396616588899
  0.7328558153683995  0.2647360920457841  0.2566809933133383
  0.7611945903056083  0.2601591206585834  0.5009852324817347
  0.7520049795444338  0.2297972443772438  0.7446361821383551
  0.5294990487805388  0.5012639196691582  0.0025126640437562
  0.5014297156800444  0.5381459986266163  0.2464693408973397
  0.4935370851521440  0.5361609685766514  0.4961054995635417
  0.5021590289964941  0.4793237032195616  0.7420963312911512
  0.2579176290042745  0.7245531056383060  0.9957595807865708
  0.2264626255904172  0.7711290278517423  0.2419917346409856
  0.2541914689724557  0.7692017489051086  0.4946161571974889
  0.2420880328752965  0.7269250508542144  0.7441571512443960
  0.7627246410628187  0.7423134585010943  0.0215377906635432
  0.7801329993253373  0.7635198986223865  0.2703640590198508
  0.7280170830868576  0.7442104155986551  0.5171992711984355
  0.7321904460122837  0.7447560436970347  0.7692000500197564
  0.0141026208944966  0.2446032139697032  0.1243786167517625
  0.0016243976387101  0.2909442390198269  0.3716719957423901
  0.0158527706002411  0.2537059565506221  0.6344464750085058
  0.9878414089964467  0.2085754627328246  0.8804951584619385
  0.5067878746309173  0.2455073789915696  0.1282336264030473
  0.4869980212782011  0.2838517723194994  0.3774232202813776
  0.5040979188510785  0.2563287904852292  0.6155332973340657
  0.4964356529106283  0.2494868493388940  0.8782182599794246
  0.2751693910752089  0.5120750326863741  0.1177804028696412
  0.2401844119742133  0.5275702484051974  0.3591034874918769
  0.2531192451047699  0.5074897583721026  0.6212316939793533
  0.2416530306041557  0.4908657398081047  0.8772122187958893
  0.0066937341379096  0.7376143548451463  0.1163865008165018
  0.9955009199144750  0.7717388445413825  0.3936764651768978
  0.9937431089519618  0.7596869756345969  0.6194955917157937
  0.9900903100183803  0.7278355737675720  0.8855034652458087
  0.7520427874052958  0.4813705427877117  0.1300326106835753
  0.7408680139244175  0.5244603930226337  0.3763745086159839
  0.7550253799695542  0.5019562335807831  0.6256400911743603
  0.7520297456678969  0.4641825733924181  0.8750206091057140
  0.5068900300664518  0.7661792043720221  0.1366877535265824
  0.4888664988482317  0.7872207111545899  0.3669322217385092
  0.4990598869736792  0.7626473628480333  0.6463396387544721
  0.4989260216093870  0.7189556780783638  0.8730401737112680
  0.2508121116275983  0.0049175478426798  0.1319019708959709
  0.2598777517064799  0.0390224435593364  0.3691309020369895
  0.2431033647536087  0.9972505012301798  0.6299093541784606
  0.2409428811786843  0.9673794961654981  0.8686963712170970
  0.7841763917918562  0.0042122327889550  0.1369202414679088
  0.7496362793902537  0.0188323424271238  0.3905288720172058
  0.7592869456331264  0.9955501249966162  0.6376257685004083
  0.7337806703477260  0.9842082195844449  0.8913354411420800
 
  0.00000000E+00  0.00000000E+00  0.00000000E+00
  0.00000000E+00  0.00000000E+00  0.00000000E+00
  0.00000000E+00  0.00000000E+00  0.00000000E+00
  0.00000000E+00  0.00000000E+00  0.00000000E+00
  0.00000000E+00  0.00000000E+00  0.00000000E+00
  0.00000000E+00  0.00000000E+00  0.00000000E+00
  0.00000000E+00  0.00000000E+00  0.00000000E+00
  0.00000000E+00  0.00000000E+00  0.00000000E+00
  0.00000000E+00  0.00000000E+00  0.00000000E+00
  0.00000000E+00  0.00000000E+00  0.00000000E+00
  0.00000000E+00  0.00000000E+00  0.00000000E+00
  0.00000000E+00  0.00000000E+00  0.00000000E+00
  0.00000000E+00  0.00000000E+00  0.00000000E+00
  0.00000000E+00  0.00000000E+00  0.00000000E+00
  0.00000000E+00  0.00000000E+00  0.00000000E+00
  0.00000000E+00  0.00000000E+00  0.00000000E+00
  0.00000000E+00  0.00000000E+00  0.00000000E+00
  0.00000000E+00  0.00000000E+00  0.00000000E+00
  0.00000000E+00  0.00000000E+00  0.00000000E+00
  0.00000000E+00  0.00000000E+00  0.00000000E+00
  0.00000000E+00  0.00000000E+00  0.00000000E+00
  0.00000000E+00  0.00000000E+00  0.00000000E+00
  0.00000000E+00  0.00000000E+00  0.00000000E+00
  0.00000000E+00  0.00000000E+00  0.00000000E+00
  0.00000000E+00  0.00000000E+00  0.00000000E+00
  0.00000000E+00  0.00000000E+00  0.00000000E+00
  0.00000000E+00  0.00000000E+00  0.00000000E+00
  0.00000000E+00  0.00000000E+00  0.00000000E+00
  0.00000000E+00  0.00000000E+00  0.00000000E+00
  0.00000000E+00  0.00000000E+00  0.00000000E+00
  0.00000000E+00  0.00000000E+00  0.00000000E+00
  0.00000000E+00  0.00000000E+00  0.00000000E+00
  0.00000000E+00  0.00000000E+00  0.00000000E+00
  0.00000000E+00  0.00000000E+00  0.00000000E+00
  0.00000000E+00  0.00000000E+00  0.00000000E+00
  0.00000000E+00  0.00000000E+00  0.00000000E+00
  0.00000000E+00  0.00000000E+00  0.00000000E+00
  0.00000000E+00  0.00000000E+00  0.00000000E+00
  0.00000000E+00  0.00000000E+00  0.00000000E+00
  0.00000000E+00  0.00000000E+00  0.00000000E+00
  0.00000000E+00  0.00000000E+00  0.00000000E+00
  0.00000000E+00  0.00000000E+00  0.00000000E+00
  0.00000000E+00  0.00000000E+00  0.00000000E+00
  0.00000000E+00  0.00000000E+00  0.00000000E+00
  0.00000000E+00  0.00000000E+00  0.00000000E+00
  0.00000000E+00  0.00000000E+00  0.00000000E+00
  0.00000000E+00  0.00000000E+00  0.00000000E+00
  0.00000000E+00  0.00000000E+00  0.00000000E+00
  0.00000000E+00  0.00000000E+00  0.00000000E+00
  0.00000000E+00  0.00000000E+00  0.00000000E+00
  0.00000000E+00  0.00000000E+00  0.00000000E+00
  0.00000000E+00  0.00000000E+00  0.00000000E+00
  0.00000000E+00  0.00000000E+00  0.00000000E+00
  0.00000000E+00  0.00000000E+00  0.00000000E+00
  0.00000000E+00  0.00000000E+00  0.00000000E+00
  0.00000000E+00  0.00000000E+00  0.00000000E+00
  0.00000000E+00  0.00000000E+00  0.00000000E+00
  0.00000000E+00  0.00000000E+00  0.00000000E+00
  0.00000000E+00  0.00000000E+00  0.00000000E+00
  0.00000000E+00  0.00000000E+00  0.00000000E+00
  0.00000000E+00  0.00000000E+00  0.00000000E+00
  0.00000000E+00  0.00000000E+00  0.00000000E+00
  0.00000000E+00  0.00000000E+00  0.00000000E+00
  0.00000000E+00  0.00000000E+00  0.00000000E+00
  0.00000000E+00  0.00000000E+00  0.00000000E+00
  0.00000000E+00  0.00000000E+00  0.00000000E+00
  0.00000000E+00  0.00000000E+00  0.00000000E+00
  0.00000000E+00  0.00000000E+00  0.00000000E+00
  0.00000000E+00  0.00000000E+00  0.00000000E+00
  0.00000000E+00  0.00000000E+00  0.00000000E+00
  0.00000000E+00  0.00000000E+00  0.00000000E+00
  0.00000000E+00  0.00000000E+00  0.00000000E+00
  0.00000000E+00  0.00000000E+00  0.00000000E+00
  0.00000000E+00  0.00000000E+00  0.00000000E+00
  0.00000000E+00  0.00000000E+00  0.00000000E+00
  0.00000000E+00  0.00000000E+00  0.00000000E+00
  0.00000000E+00  0.00000000E+00  0.00000000E+00
  0.00000000E+00  0.00000000E+00  0.00000000E+00
  0.00000000E+00  0.00000000E+00  0.00000000E+00
  0.00000000E+00  0.00000000E+00  0.00000000E+00
  0.00000000E+00  0.00000000E+00  0.00000000E+00
  0.00000000E+00  0.00000000E+00  0.00000000E+00
  0.00000000E+00  0.00000000E+00  0.00000000E+00
  0.00000000E+00  0.00000000E+00  0.00000000E+00
  0.00000000E+00  0.00000000E+00  0.00000000E+00
  0.00000000E+00  0.00000000E+00  0.00000000E+00
  0.00000000E+00  0.00000000E+00  0.00000000E+00
  0.00000000E+00  0.00000000E+00  0.00000000E+00
  0.00000000E+00  0.00000000E+00  0.00000000E+00
  0.00000000E+00  0.00000000E+00  0.00000000E+00
  0.00000000E+00  0.00000000E+00  0.00000000E+00
  0.00000000E+00  0.00000000E+00  0.00000000E+00
  0.00000000E+00  0.00000000E+00  0.00000000E+00
  0.00000000E+00  0.00000000E+00  0.00000000E+00
  0.00000000E+00  0.00000000E+00  0.00000000E+00
  0.00000000E+00  0.00000000E+00  0.00000000E+00
  0.00000000E+00  0.00000000E+00  0.00000000E+00
  0.00000000E+00  0.00000000E+00  0.00000000E+00
  0.00000000E+00  0.00000000E+00  0.00000000E+00
  0.00000000E+00  0.00000000E+00  0.00000000E+00
  0.00000000E+00  0.00000000E+00  0.00000000E+00
  0.00000000E+00  0.00000000E+00  0.00000000E+00
  0.00000000E+00  0.00000000E+00  0.00000000E+00
  0.00000000E+00  0.00000000E+00  0.00000000E+00
  0.00000000E+00  0.00000000E+00  0.00000000E+00
  0.00000000E+00  0.00000000E+00  0.00000000E+00
  0.00000000E+00  0.00000000E+00  0.00000000E+00
  0.00000000E+00  0.00000000E+00  0.00000000E+00
  0.00000000E+00  0.00000000E+00  0.00000000E+00
  0.00000000E+00  0.00000000E+00  0.00000000E+00
  0.00000000E+00  0.00000000E+00  0.00000000E+00
  0.00000000E+00  0.00000000E+00  0.00000000E+00
  0.00000000E+00  0.00000000E+00  0.00000000E+00
  0.00000000E+00  0.00000000E+00  0.00000000E+00
  0.00000000E+00  0.00000000E+00  0.00000000E+00
  0.00000000E+00  0.00000000E+00  0.00000000E+00
  0.00000000E+00  0.00000000E+00  0.00000000E+00
  0.00000000E+00  0.00000000E+00  0.00000000E+00
  0.00000000E+00  0.00000000E+00  0.00000000E+00
  0.00000000E+00  0.00000000E+00  0.00000000E+00
  0.00000000E+00  0.00000000E+00  0.00000000E+00
  0.00000000E+00  0.00000000E+00  0.00000000E+00
  0.00000000E+00  0.00000000E+00  0.00000000E+00
  0.00000000E+00  0.00000000E+00  0.00000000E+00
  0.00000000E+00  0.00000000E+00  0.00000000E+00
  0.00000000E+00  0.00000000E+00  0.00000000E+00
  0.00000000E+00  0.00000000E+00  0.00000000E+00
  0.00000000E+00  0.00000000E+00  0.00000000E+00
  0.00000000E+00  0.00000000E+00  0.00000000E+00
  0.00000000E+00  0.00000000E+00  0.00000000E+00
  0.00000000E+00  0.00000000E+00  0.00000000E+00
  0.00000000E+00  0.00000000E+00  0.00000000E+00
  0.00000000E+00  0.00000000E+00  0.00000000E+00
  0.00000000E+00  0.00000000E+00  0.00000000E+00
  0.00000000E+00  0.00000000E+00  0.00000000E+00
  0.00000000E+00  0.00000000E+00  0.00000000E+00
  0.00000000E+00  0.00000000E+00  0.00000000E+00
  0.00000000E+00  0.00000000E+00  0.00000000E+00
  0.00000000E+00  0.00000000E+00  0.00000000E+00
  0.00000000E+00  0.00000000E+00  0.00000000E+00
  0.00000000E+00  0.00000000E+00  0.00000000E+00
  0.00000000E+00  0.00000000E+00  0.00000000E+00
  0.00000000E+00  0.00000000E+00  0.00000000E+00
  0.00000000E+00  0.00000000E+00  0.00000000E+00
  0.00000000E+00  0.00000000E+00  0.00000000E+00
  0.00000000E+00  0.00000000E+00  0.00000000E+00
  0.00000000E+00  0.00000000E+00  0.00000000E+00
  0.00000000E+00  0.00000000E+00  0.00000000E+00
  0.00000000E+00  0.00000000E+00  0.00000000E+00
  0.00000000E+00  0.00000000E+00  0.00000000E+00
  0.00000000E+00  0.00000000E+00  0.00000000E+00
  0.00000000E+00  0.00000000E+00  0.00000000E+00
  0.00000000E+00  0.00000000E+00  0.00000000E+00
  0.00000000E+00  0.00000000E+00  0.00000000E+00
  0.00000000E+00  0.00000000E+00  0.00000000E+00
  0.00000000E+00  0.00000000E+00  0.00000000E+00
  0.00000000E+00  0.00000000E+00  0.00000000E+00
  0.00000000E+00  0.00000000E+00  0.00000000E+00
  0.00000000E+00  0.00000000E+00  0.00000000E+00
  0.00000000E+00  0.00000000E+00  0.00000000E+00
