Zn Rb Cl                                
   1.00000000000000     
    10.0213850000000004  -10.0213850000000004    0.0000000000000000
    10.0213850000000004   10.0213850000000004    0.0000000000000000
     0.0000000000000000    0.0000000000000000   20.0427700000000009
   Cl   Rb   Zn
    96    32    32
Direct
  0.9588439005617378  0.2151677217202236  0.0073677596772648
  0.0148840397992122  0.2322389413662644  0.2404878289962023
  0.9722669157795443  0.2379028042201581  0.5109984340093966
 -0.0043512453395666  0.2784782889573821  0.7320378407611233
  0.4795028916623915  0.2650410451263833  0.9766674626318419
  0.5072982773499742  0.2561539452209440  0.2490274858204289
  0.4555368199334068  0.2420587549760361  0.5104409753892653
  0.5239979275703922  0.2723550813019476  0.7660229571264017
  0.2476639533691842  0.4889141811165938  0.0104555915958053
  0.2463092071099401  0.4872557339302405  0.2277496172994124
  0.3166439339934932  0.4626700439749958  0.5131867593483712
  0.2029106438998721  0.5401279076288067  0.7268931389072244
  0.0020949323725877  0.7372433397109878  0.9870495926742435
  0.0489263582116281  0.7630000777940928  0.2615315456264025
  0.9542288203178297  0.7028163018056386  0.4864730366713104
  0.0126731143887670  0.7440796641361719  0.7696150839817126
  0.7687447472782289  0.5207383157157539  0.0221517560117187
  0.7147035875651628  0.4804312954582548  0.2506077549621866
  0.7646307673184413  0.5057199767330223  0.4756715602380259
  0.7480630963583041  0.5045347495380216  0.7530066877360451
  0.4611797688382872  0.7668345466217880  0.9892767560874491
  0.4956119219861242  0.7597564393580181  0.2661605371773306
  0.5060677659308467  0.7502980026047754  0.4906480124030266
  0.5527759908219950  0.7551052163777542  0.7610990268706610
  0.2816337625221320  0.9962620559760871  0.9952099985067328
  0.2331219827803513  0.9692117470667539  0.2512320198275942
  0.2691920340867064  0.0027580271328306  0.5250334343285751
  0.2253333026584330  0.9923999771459383  0.7407055150220955
  0.7917290092028627  0.0348290656827993  0.9921363340439309
  0.7381194211874830  0.0099119573907561  0.2667404434253652
  0.7642865902605555  0.0083562551695445  0.4903945471100996
  0.7430166044639515  0.9842472950529255  0.7579588150449890
  0.1174869327545289  0.1087886062136280  0.1156061577316227
  0.1319263988668460  0.0810299782758132  0.3861354231361854
  0.1177933507017652  0.1181873767651570  0.6236173311375829
  0.1285599015628298  0.0952669203363150  0.8770027120149361
  0.6151450818217897  0.1596053944561948  0.1085469696249401
  0.6213752257920387  0.1456987880738839  0.3888134292363681
  0.6327702835803759  0.1076694578074440  0.6224281368757252
  0.6429819537148893  0.1364483687404221  0.8815934558612416
  0.3643935210364974  0.3316961005205167  0.1151853078775421
  0.3415536237857802  0.3765970837137541  0.3569397503374722
  0.3588625553481315  0.3890469923094563  0.6695162064423426
  0.3376388599805397  0.3916925415483516  0.8556566670208371
  0.1033501922389417  0.6263226235941298  0.1209664928040132
  0.1363128097295162  0.5723590494957850  0.3809270718343526
  0.1528252974607200  0.6075273984349367  0.5663651898200254
  0.1298948991332395  0.5908547054628022  0.8837425250877862
  0.8598299515855227  0.3563283892894267  0.1379589342356810
  0.8617605838404665  0.3698568813543003  0.3580773011627511
  0.8491773903996307  0.3886912380897893  0.6139542853253375
  0.8591782945018369  0.3716741817659749  0.8814688551917016
  0.6263385421716402  0.6715324382902480  0.1230248051485634
  0.6411610344620517  0.6371532248776697  0.3669126770801522
  0.6693923327142587  0.6270821295541475  0.6153152186305343
  0.6224213200043403  0.6482370970990409  0.8998430127472792
  0.4088635955168234  0.8672540778775775  0.1353947129371677
  0.3658021658633643  0.8940350177592945  0.3876070975418655
  0.3837121315396370  0.8855037158223737  0.6448171925367605
  0.3904096929665764  0.8871127600136802  0.8492153402243192
  0.9070867955976222  0.8582843374131499  0.1284475401263958
  0.8770924795405933  0.8707998498545837  0.3694500011206100
  0.8568564906392407  0.8811953224599969  0.6210020830862079
  0.8825796345134944  0.8853448653163827  0.8780621781233687
  0.8647755101374165  0.1131625802218809  0.1478399589060743
  0.8915002600102050  0.1234038382293070  0.3725913747449872
  0.8700372255973983  0.1241449773223187  0.6413779021688384
  0.8901146283149376  0.1282978435769916  0.8469225440827335
  0.3652452305120208  0.0975726190313835  0.1370318227881014
  0.3802630609002115  0.1410166696281414  0.3693895439457127
  0.3846097478950852  0.1462452446951537  0.6581053179557651
  0.3697642262665848  0.1244385819140990  0.8542320467122613
  0.1095334017584958  0.3588147808436768  0.1088529622946534
  0.1093557706347785  0.3308780527098997  0.3780065714125925
  0.1239253952631118  0.3669522866463513  0.6010058802443380
  0.1009684479330615  0.3395457473790991  0.8843816901130289
  0.8643588315882526  0.6218712333097092  0.1635240734550201
  0.8962108320879046  0.6186101669914419  0.3355788283338059
  0.9213007883755269  0.6235758923631032  0.6469541903040820
  0.8625576301686069  0.6184604094434881  0.8811098659238528
  0.5995423617133351  0.4175373679744837  0.1100652944187254
  0.5855168992655301  0.3793845351527060  0.3886368075460258
  0.6013357825034534  0.3663006550698261  0.6223184134408934
  0.6264983991267828  0.4110005650600250  0.8872795082450604
  0.3849652785446071  0.6114400004839526  0.1231802432852523
  0.3759883149502039  0.6271510562089383  0.3770167031769920
  0.4151375523997869  0.6397703292066375  0.6340615299158622
  0.3754494449465550  0.6378548735058347  0.8532297065258957
  0.1587592399868253  0.8639032449500078  0.1111988558318469
  0.1273261911961539  0.8319270385504346  0.4113134092110572
  0.1032852845905599  0.8426947047132494  0.6161496792743861
  0.1582866095231537  0.8538941926714042  0.8821183842208438
  0.6531279415589134  0.9140571298172814  0.1177008629675633
  0.6142691234383747  0.8902535551594722  0.3824834391908443
  0.6203167578705738  0.8642667773433129  0.6153469138452795
  0.6343530143360904  0.8927170596064389  0.9038095559464465
  0.0207285616527363  0.9782090948861853  0.0003914931895224
  0.9963073802184453  0.9941140403460735  0.2518627958425978
  0.9952781711898913 -0.0052496934932987  0.5045554906750637
 -0.0042304660018195  0.9846160277335185  0.7420151547035960
  0.5025759463926743  0.0130501720774506  0.0069921264355199
  0.4948899918993805  0.0035101521371190  0.2584573401909611
  0.5018736747480823  0.0066510347340684  0.5036174041937128
  0.5194467235750103  0.0123825956392327  0.7500814703032938
  0.2429763685461122  0.2360239746022597  0.9901616954760476
  0.2467699266429252  0.2267434521921726  0.2477867364851540
  0.2281982010511225  0.2262595146597318  0.4914674436916672
  0.2188792040265302  0.2414929366145137  0.7585492480156791
 -0.0014302448296012  0.4931570837436191  0.9997142871940408
  0.0200860650258927  0.4739228610298637  0.2443734488371856
  0.9907225660994197  0.4690979318603028  0.4860648087653458
  0.9879703610133220  0.4954489760815439  0.7737056253698609
  0.7319802548710702  0.2829805454575583 -0.0001028787379848
  0.7379658804977873  0.2413227633053825  0.2585452274540279
  0.7365281692114721  0.2575818229418562  0.5036856422434428
  0.7519239002757232  0.2605903672268682  0.7459579444745338
  0.4758999688398901  0.5093353120536308  0.9840681386671570
  0.4893933489734764  0.5100440458509059  0.2579010130337241
  0.5358553469482688  0.5243366353078647  0.5059214614413847
  0.5166420643825423  0.5103738198338201  0.7545323962684128
  0.2393321690469394  0.7219625044172193  0.0001114103769277
  0.2693062154550144  0.7324606937378979  0.2414894188223255
  0.2881588428460227  0.7689581301021049  0.5151772087799286
  0.2477824117160967  0.7627257670407683  0.7442536874954394
  0.7682664527452987  0.7602894610916349  0.0078274878169250
  0.7348572818024041  0.7788264432694654  0.2487099552831799
  0.7393684732394935  0.7686448925332272  0.4929600448427700
  0.7795246411041893  0.7530158647195724  0.7510832380986515
  0.0020468470481884  0.2368233875711188  0.1210893060927087
  0.9774743695535798  0.2525155433169421  0.3583179199974383
 -0.0015441287152645  0.2377139906111517  0.6231232300918751
  0.9705264807755770  0.2519931624870763  0.8917790978225014
  0.5169229992335449  0.2867653129960763  0.1396036054387864
  0.4742456198119713  0.2667710038173183  0.3874330169869582
  0.4649975593103470  0.2848991820415961  0.6210584687497579
  0.4996290722041224  0.2257100865427555  0.8703016365565475
  0.2660954527516651  0.4726573363088259  0.1193026943116992
  0.2736445596866685  0.5065790076787490  0.4054019714991490
  0.2362047199929537  0.4791604405125702  0.6187672312141399
  0.2594723672458764  0.5249554641407079  0.8399142944432513
  0.9933695503996344  0.7305030363630884  0.1522665920079978
  0.9869584561031520  0.7548975994348637  0.3727556951757389
  0.0290638932514369  0.7114932618190133  0.5878555701331037
  0.0107244105044025  0.7711239546491543  0.8785807971541425
  0.7653200829727766  0.4913788940055369  0.1351635149848052
  0.7665416067300360  0.5246543325833107  0.3627165715198321
  0.7813090886236831  0.5243187593953544  0.6376286131344677
  0.7376982740963465  0.5221116824068260  0.8787162786564080
  0.4880451457003674  0.7384917923982195  0.1050044434453458
  0.5082180335577612  0.7515122324987223  0.3777315466648297
  0.5003403661004828  0.7714597746687125  0.6499123377646701
  0.5149378577202166  0.7771531984886222  0.8765951074194163
  0.2494563214520685  0.9926888854658801  0.1191889475528524
  0.2226159408955786  0.9556648337136534  0.3654400394596725
  0.2670578775340531  0.0299793320992299  0.6346571873500199
  0.2568579505076091  0.9943445360479847  0.8790301058903954
  0.7425664919768216  0.0383944945517457  0.1021379626840752
  0.7235891366964975  0.0184141867650369  0.3792306804540005
  0.7542904471901101  0.0040866156134407  0.6270895213897550
  0.7569639448816295  0.0074727768943601  0.8738007964208084
 
  0.00000000E+00  0.00000000E+00  0.00000000E+00
  0.00000000E+00  0.00000000E+00  0.00000000E+00
  0.00000000E+00  0.00000000E+00  0.00000000E+00
  0.00000000E+00  0.00000000E+00  0.00000000E+00
  0.00000000E+00  0.00000000E+00  0.00000000E+00
  0.00000000E+00  0.00000000E+00  0.00000000E+00
  0.00000000E+00  0.00000000E+00  0.00000000E+00
  0.00000000E+00  0.00000000E+00  0.00000000E+00
  0.00000000E+00  0.00000000E+00  0.00000000E+00
  0.00000000E+00  0.00000000E+00  0.00000000E+00
  0.00000000E+00  0.00000000E+00  0.00000000E+00
  0.00000000E+00  0.00000000E+00  0.00000000E+00
  0.00000000E+00  0.00000000E+00  0.00000000E+00
  0.00000000E+00  0.00000000E+00  0.00000000E+00
  0.00000000E+00  0.00000000E+00  0.00000000E+00
  0.00000000E+00  0.00000000E+00  0.00000000E+00
  0.00000000E+00  0.00000000E+00  0.00000000E+00
  0.00000000E+00  0.00000000E+00  0.00000000E+00
  0.00000000E+00  0.00000000E+00  0.00000000E+00
  0.00000000E+00  0.00000000E+00  0.00000000E+00
  0.00000000E+00  0.00000000E+00  0.00000000E+00
  0.00000000E+00  0.00000000E+00  0.00000000E+00
  0.00000000E+00  0.00000000E+00  0.00000000E+00
  0.00000000E+00  0.00000000E+00  0.00000000E+00
  0.00000000E+00  0.00000000E+00  0.00000000E+00
  0.00000000E+00  0.00000000E+00  0.00000000E+00
  0.00000000E+00  0.00000000E+00  0.00000000E+00
  0.00000000E+00  0.00000000E+00  0.00000000E+00
  0.00000000E+00  0.00000000E+00  0.00000000E+00
  0.00000000E+00  0.00000000E+00  0.00000000E+00
  0.00000000E+00  0.00000000E+00  0.00000000E+00
  0.00000000E+00  0.00000000E+00  0.00000000E+00
  0.00000000E+00  0.00000000E+00  0.00000000E+00
  0.00000000E+00  0.00000000E+00  0.00000000E+00
  0.00000000E+00  0.00000000E+00  0.00000000E+00
  0.00000000E+00  0.00000000E+00  0.00000000E+00
  0.00000000E+00  0.00000000E+00  0.00000000E+00
  0.00000000E+00  0.00000000E+00  0.00000000E+00
  0.00000000E+00  0.00000000E+00  0.00000000E+00
  0.00000000E+00  0.00000000E+00  0.00000000E+00
  0.00000000E+00  0.00000000E+00  0.00000000E+00
  0.00000000E+00  0.00000000E+00  0.00000000E+00
  0.00000000E+00  0.00000000E+00  0.00000000E+00
  0.00000000E+00  0.00000000E+00  0.00000000E+00
  0.00000000E+00  0.00000000E+00  0.00000000E+00
  0.00000000E+00  0.00000000E+00  0.00000000E+00
  0.00000000E+00  0.00000000E+00  0.00000000E+00
  0.00000000E+00  0.00000000E+00  0.00000000E+00
  0.00000000E+00  0.00000000E+00  0.00000000E+00
  0.00000000E+00  0.00000000E+00  0.00000000E+00
  0.00000000E+00  0.00000000E+00  0.00000000E+00
  0.00000000E+00  0.00000000E+00  0.00000000E+00
  0.00000000E+00  0.00000000E+00  0.00000000E+00
  0.00000000E+00  0.00000000E+00  0.00000000E+00
  0.00000000E+00  0.00000000E+00  0.00000000E+00
  0.00000000E+00  0.00000000E+00  0.00000000E+00
  0.00000000E+00  0.00000000E+00  0.00000000E+00
  0.00000000E+00  0.00000000E+00  0.00000000E+00
  0.00000000E+00  0.00000000E+00  0.00000000E+00
  0.00000000E+00  0.00000000E+00  0.00000000E+00
  0.00000000E+00  0.00000000E+00  0.00000000E+00
  0.00000000E+00  0.00000000E+00  0.00000000E+00
  0.00000000E+00  0.00000000E+00  0.00000000E+00
  0.00000000E+00  0.00000000E+00  0.00000000E+00
  0.00000000E+00  0.00000000E+00  0.00000000E+00
  0.00000000E+00  0.00000000E+00  0.00000000E+00
  0.00000000E+00  0.00000000E+00  0.00000000E+00
  0.00000000E+00  0.00000000E+00  0.00000000E+00
  0.00000000E+00  0.00000000E+00  0.00000000E+00
  0.00000000E+00  0.00000000E+00  0.00000000E+00
  0.00000000E+00  0.00000000E+00  0.00000000E+00
  0.00000000E+00  0.00000000E+00  0.00000000E+00
  0.00000000E+00  0.00000000E+00  0.00000000E+00
  0.00000000E+00  0.00000000E+00  0.00000000E+00
  0.00000000E+00  0.00000000E+00  0.00000000E+00
  0.00000000E+00  0.00000000E+00  0.00000000E+00
  0.00000000E+00  0.00000000E+00  0.00000000E+00
  0.00000000E+00  0.00000000E+00  0.00000000E+00
  0.00000000E+00  0.00000000E+00  0.00000000E+00
  0.00000000E+00  0.00000000E+00  0.00000000E+00
  0.00000000E+00  0.00000000E+00  0.00000000E+00
  0.00000000E+00  0.00000000E+00  0.00000000E+00
  0.00000000E+00  0.00000000E+00  0.00000000E+00
  0.00000000E+00  0.00000000E+00  0.00000000E+00
  0.00000000E+00  0.00000000E+00  0.00000000E+00
  0.00000000E+00  0.00000000E+00  0.00000000E+00
  0.00000000E+00  0.00000000E+00  0.00000000E+00
  0.00000000E+00  0.00000000E+00  0.00000000E+00
  0.00000000E+00  0.00000000E+00  0.00000000E+00
  0.00000000E+00  0.00000000E+00  0.00000000E+00
  0.00000000E+00  0.00000000E+00  0.00000000E+00
  0.00000000E+00  0.00000000E+00  0.00000000E+00
  0.00000000E+00  0.00000000E+00  0.00000000E+00
  0.00000000E+00  0.00000000E+00  0.00000000E+00
  0.00000000E+00  0.00000000E+00  0.00000000E+00
  0.00000000E+00  0.00000000E+00  0.00000000E+00
  0.00000000E+00  0.00000000E+00  0.00000000E+00
  0.00000000E+00  0.00000000E+00  0.00000000E+00
  0.00000000E+00  0.00000000E+00  0.00000000E+00
  0.00000000E+00  0.00000000E+00  0.00000000E+00
  0.00000000E+00  0.00000000E+00  0.00000000E+00
  0.00000000E+00  0.00000000E+00  0.00000000E+00
  0.00000000E+00  0.00000000E+00  0.00000000E+00
  0.00000000E+00  0.00000000E+00  0.00000000E+00
  0.00000000E+00  0.00000000E+00  0.00000000E+00
  0.00000000E+00  0.00000000E+00  0.00000000E+00
  0.00000000E+00  0.00000000E+00  0.00000000E+00
  0.00000000E+00  0.00000000E+00  0.00000000E+00
  0.00000000E+00  0.00000000E+00  0.00000000E+00
  0.00000000E+00  0.00000000E+00  0.00000000E+00
  0.00000000E+00  0.00000000E+00  0.00000000E+00
  0.00000000E+00  0.00000000E+00  0.00000000E+00
  0.00000000E+00  0.00000000E+00  0.00000000E+00
  0.00000000E+00  0.00000000E+00  0.00000000E+00
  0.00000000E+00  0.00000000E+00  0.00000000E+00
  0.00000000E+00  0.00000000E+00  0.00000000E+00
  0.00000000E+00  0.00000000E+00  0.00000000E+00
  0.00000000E+00  0.00000000E+00  0.00000000E+00
  0.00000000E+00  0.00000000E+00  0.00000000E+00
  0.00000000E+00  0.00000000E+00  0.00000000E+00
  0.00000000E+00  0.00000000E+00  0.00000000E+00
  0.00000000E+00  0.00000000E+00  0.00000000E+00
  0.00000000E+00  0.00000000E+00  0.00000000E+00
  0.00000000E+00  0.00000000E+00  0.00000000E+00
  0.00000000E+00  0.00000000E+00  0.00000000E+00
  0.00000000E+00  0.00000000E+00  0.00000000E+00
  0.00000000E+00  0.00000000E+00  0.00000000E+00
  0.00000000E+00  0.00000000E+00  0.00000000E+00
  0.00000000E+00  0.00000000E+00  0.00000000E+00
  0.00000000E+00  0.00000000E+00  0.00000000E+00
  0.00000000E+00  0.00000000E+00  0.00000000E+00
  0.00000000E+00  0.00000000E+00  0.00000000E+00
  0.00000000E+00  0.00000000E+00  0.00000000E+00
  0.00000000E+00  0.00000000E+00  0.00000000E+00
  0.00000000E+00  0.00000000E+00  0.00000000E+00
  0.00000000E+00  0.00000000E+00  0.00000000E+00
  0.00000000E+00  0.00000000E+00  0.00000000E+00
  0.00000000E+00  0.00000000E+00  0.00000000E+00
  0.00000000E+00  0.00000000E+00  0.00000000E+00
  0.00000000E+00  0.00000000E+00  0.00000000E+00
  0.00000000E+00  0.00000000E+00  0.00000000E+00
  0.00000000E+00  0.00000000E+00  0.00000000E+00
  0.00000000E+00  0.00000000E+00  0.00000000E+00
  0.00000000E+00  0.00000000E+00  0.00000000E+00
  0.00000000E+00  0.00000000E+00  0.00000000E+00
  0.00000000E+00  0.00000000E+00  0.00000000E+00
  0.00000000E+00  0.00000000E+00  0.00000000E+00
  0.00000000E+00  0.00000000E+00  0.00000000E+00
  0.00000000E+00  0.00000000E+00  0.00000000E+00
  0.00000000E+00  0.00000000E+00  0.00000000E+00
  0.00000000E+00  0.00000000E+00  0.00000000E+00
  0.00000000E+00  0.00000000E+00  0.00000000E+00
  0.00000000E+00  0.00000000E+00  0.00000000E+00
  0.00000000E+00  0.00000000E+00  0.00000000E+00
  0.00000000E+00  0.00000000E+00  0.00000000E+00
  0.00000000E+00  0.00000000E+00  0.00000000E+00
  0.00000000E+00  0.00000000E+00  0.00000000E+00
  0.00000000E+00  0.00000000E+00  0.00000000E+00
  0.00000000E+00  0.00000000E+00  0.00000000E+00
  0.00000000E+00  0.00000000E+00  0.00000000E+00
