Cs Hg Br                                
   1.00000000000000     
    11.3719859999999997  -11.3719859999999997    0.0000000000000000
    11.3719859999999997   11.3719859999999997    0.0000000000000000
     0.0000000000000000    0.0000000000000000   22.7439719999999994
   Br   Cs   Hg
    96    32    32
Direct
  0.9836787393497838  0.2432999568884195  0.0070298825192223
  0.9938574229827187  0.2722468857962889  0.2415837320907502
  0.9935273111325988  0.2553146355105405  0.5115179382097349
  0.9972330318563939  0.2676076500243433  0.7396163666978985
  0.4889126986845652  0.2207242115038677  0.9855962941739445
  0.4889912532742869  0.2544624114073413  0.2619416156543692
  0.4930325196513891  0.2239272917351382  0.4900384436967390
  0.4883862651954571  0.3001959438373276  0.7627357671818413
  0.2427344806444829  0.5315171955591773  0.0139251809365525
  0.2621726927079664  0.4792640696237758  0.2371559841927184
  0.2536330591099205  0.5279637500138861  0.5089221893273748
  0.2753919576990670  0.4937909676314011  0.7430095274774474
  0.9880698599545514  0.7267033855544958  0.0140612333567301
  0.9806996443399247  0.7892835640712219  0.2421843965026398
  0.9910128592729889  0.7258712492869771  0.5146610669161104
  0.9992109350619857  0.7792762243211671  0.7384050873623611
  0.7686619720241419  0.5282006238371629  0.9901612231707246
  0.7597684695027865  0.4732673287605936  0.2589831569317618
  0.7628684106291852  0.4961448098353641  0.4899005533784126
  0.7424812622390298  0.4956375289619909  0.7632302144294720
  0.4937175778387708  0.7587495503673426  0.9943936565870077
  0.4947191066229071  0.7491473331437640  0.2639962837647183
  0.4848903994840679  0.7185624682406584  0.4914576890258884
  0.4878646664197684  0.7671119831582269  0.7604757637667091
  0.2627511663261663  0.0178014029063632  0.0104630584676213
  0.2496169869772409  0.0000700031979165  0.2383699318214090
  0.2717321244619978  0.0347650894486213  0.5093440072284945
  0.2504506884882391  0.9747473249336780  0.7371567730604300
  0.7425385637819368  0.0318735676185580  0.9866006328131043
  0.7719477865441386  0.9656697561768037  0.2590995268434829
  0.7556536402482329  0.0067937851238668  0.4866516363214097
  0.7704354116014107  0.9894982854525097  0.7591992334290948
  0.1338458884989830  0.1369771405780086  0.1278654591906290
  0.1437254315799960  0.1805785458084783  0.3758782348145926
  0.1378820291178494  0.1304443678266199  0.6323465685039151
  0.1085446151004681  0.0754251930289126  0.8704550606502501
  0.6133942068469046  0.0723735181201832  0.1355633759288795
  0.6181975438125888  0.1125648990549949  0.3591010341144858
  0.6075058183205223  0.0688573679499291  0.6257596927045252
  0.6329537685818488  0.1364519965099241  0.8443273138569226
  0.3911188510765386  0.3868711669442726  0.1080132256433954
  0.3551970077606232  0.3608627654959000  0.3837448669759195
  0.3902544990988625  0.3891175411661863  0.6102295319197349
  0.3596581845631458  0.3923991788160598  0.8944138503765848
  0.1351241611607306  0.6374068497898303  0.1523468169692767
  0.1422582641042906  0.6816494035336720  0.3703870016835303
  0.1357204484682423  0.6269338323879948  0.6438221683445343
  0.1134621569393748  0.5783151077576439  0.8652126812851653
  0.8616352313421521  0.3896588947053478  0.1136836654357027
  0.8890134389158779  0.3600733889800384  0.3825962236142692
  0.8570318802544525  0.3900984821552084  0.6250745898473775
  0.8887739435482651  0.3887560111216766  0.8735998290928576
  0.6088610761350777  0.5704516554620995  0.1294607827340198
  0.6168145553310178  0.6113159026934554  0.3699315192897973
  0.6014414893081772  0.5674245084956154  0.6214877162441323
  0.6322755168557008  0.6376803850391571  0.8742234023163303
  0.3897307711319898  0.8854799556222765  0.1264761490638754
  0.3592236707741226  0.8631040895839275  0.3825565018871800
  0.3999044125753908  0.8959329488649317  0.6115751237053884
  0.3587752779431026  0.8928573253864088  0.8832748544597285
  0.8609211372806335  0.8900038208743122  0.1056604585216159
  0.8891999356983905  0.8582400510215135  0.3943163076428752
  0.8621308819756672  0.8902413153402225  0.6163995262671597
  0.8843559695545360  0.8870691762743068  0.8904079130113525
  0.8599640382152806  0.1381485985108946  0.1341098951551017
  0.8933549033424463  0.1130058147349081  0.3672297477628798
  0.8580324111929438  0.1378826365950158  0.6274909552249154
  0.8894452987385779  0.1390525232282600  0.8646535835895647
  0.3931307816758923  0.1369481352763905  0.1310000639189729
  0.3625105291718222  0.1087089761625005  0.3627244802825727
  0.3875679493217556  0.1421927887213666  0.6426639520713805
  0.3559105021084008  0.1437966853443648  0.8528445751707902
  0.1075641072437345  0.3818643578770931  0.1116742504704710
  0.1066758425975686  0.4316459565483370  0.3766297105770131
  0.1200625534337878  0.3836457694691725  0.6220263069138819
  0.1397454941149213  0.3257105478796190  0.8799767648951599
  0.8555353899983685  0.6399682737965412  0.1427768059596275
  0.8929968900053364  0.6113039633184212  0.3688396743193954
  0.8513301535798907  0.6397532225131286  0.6409802659071288
  0.8924178471758784  0.6391352135797598  0.8629859760557543
  0.6421898478842990  0.3201543070770621  0.1232453870656838
  0.6352565561637429  0.3636281370137751  0.3824764256972445
  0.6388943927907209  0.3203656607401300  0.6195088968903816
  0.6089079978759885  0.3867788021947574  0.9018477060782113
  0.3890967744657688  0.6379757390069987  0.1318587513332710
  0.3609062126266001  0.6091478898563074  0.3615589806395039
  0.3825389843872429  0.6467558484310804  0.6345111068919744
  0.3574611499274482  0.6437887587721349  0.8800349436626069
  0.1085987907055004  0.8834109255285095  0.1110832707828649
  0.1075059303008427  0.9317125078944405  0.3796468312446209
  0.1135595935238291  0.8849870095357892  0.5995636840508682
  0.1357074904894839  0.8289345754408469  0.8849853204983851
  0.6430916022830602  0.8192123777960366  0.1294988205915640
  0.6361992785374847  0.8614638307295750  0.3863507991163772
  0.6432648836737554  0.8177283175165028  0.6211673241411730
  0.6120954901047877  0.8865964898597969  0.8785758353801194
  0.9931874917494041  0.0114909831115827  0.0038941216612420
  0.0042385625356685  0.0170761785226564  0.2393179929891149
  0.9890436047632155  0.0194422632715314  0.5043126586633201
  0.0007200015178147  0.0083514518746957  0.7346233752999036
  0.4990657273416400  0.9937667083922724  0.0011413531772454
  0.4925176691517705  0.9838142350702054  0.2582671133013587
  0.5045088525409686  0.9934593853941465  0.4848661335420084
  0.4869406362727381  0.9982915299910956  0.7573801831184842
  0.2561561682418040  0.2504800649147792  0.0102402388785040
  0.2561157032207573  0.2504158242598523  0.2435509502811895
  0.2508851017412457  0.2633752363691554  0.5121316531556980
  0.2485275435249125  0.2649472385917521  0.7406084534639523
  0.9984729047595344  0.4963129543450873  0.9967522299368762
  0.9943146589860007  0.5037415344866207  0.2409761489286229
  0.9956451588916125  0.4990309223528188  0.5091872298610347
  0.9871076916835636  0.5028563534528488  0.7398257893291369
  0.7547115903400768  0.2587948836863106  0.9883792341878809
  0.7521634590823365  0.2407711902806613  0.2597021071851086
  0.7547056106290261  0.2394639263009448  0.4912285896062481
  0.7634401239119564  0.2608900162992933  0.7504896488194720
  0.4864171837651394  0.5238005601872620  0.9960689704092184
  0.4967201346008031  0.4860309761864398  0.2573322108495473
  0.4974579179262846  0.4859177815077335  0.4853297744429679
  0.5000425929196879  0.5242506862910757  0.7651229041814812
  0.2549337198970521  0.7613541215509261  0.0151887580281180
  0.2619618192965454  0.7664827597703946  0.2470080893818035
  0.2520799836836267  0.7562082788469805  0.5088058607737628
  0.2494418871106969  0.7440070781039548  0.7551638414351237
  0.7519636485988623  0.7569504274951093  0.9908421446675403
  0.7490260518604125  0.7365071061024341  0.2671009733481497
  0.7557714168994631  0.7297058726158414  0.4949039008050781
  0.7526052256461978  0.7589091692016140  0.7614349248918859
  0.9989731977062123  0.2431270563662780  0.1253866811782431
  0.0031233319085953  0.2509651075894601  0.3723785318545194
  0.0046384040674412  0.2395637303877873  0.6258726721555123
  0.0005903760914189  0.2513207666920156  0.8764199520807225
  0.5001110558858199  0.2531722061774248  0.1211117009896658
  0.5012596719315794  0.2534872186693249  0.3772741078785980
  0.4999932274820925  0.2512304133404568  0.6336473720884658
  0.5049496125256516  0.2431320363951018  0.8712601544026453
  0.2416553566563453  0.4916646280364041  0.1246531925799322
  0.2483533356051728  0.5001161164049601  0.3780971783633583
  0.2515460741176421  0.4939017875974230  0.6251130045204824
  0.2482633730457927  0.4994468166778702  0.8744453103195143
  0.0020557641201643  0.7385182476438603  0.1308178749958935
  0.0020251801685764  0.7523461845802654  0.3709917898381684
  0.0050328722768247  0.7409165219036755  0.6275113326465134
  0.9974283078515609  0.7548589549478660  0.8805515700855142
  0.7504907232624268  0.5016382726744441  0.1244767586696499
  0.7505675617939408  0.5039873654338644  0.3732219774494389
  0.7457296715960158  0.5041018267402444  0.6247471929655877
  0.7413678079187512  0.4906347014583066  0.8788963178427572
  0.5025518935627123  0.7484593436409510  0.1281853735728539
  0.5025387257278860  0.7539553931991256  0.3798028086183540
  0.5001696087641323  0.7521063688624822  0.6251847380109121
  0.4998860135864318  0.7473184739542437  0.8766761114320430
  0.2425589887207230  0.9912526636708408  0.1234604877403779
  0.2485020094113310  0.0013247461847218  0.3814515472926577
  0.2480386757231580  0.9851199309307753  0.6203998380428479
  0.2513976556836349  0.0087501968631967  0.8714241082786969
  0.7494122618047434  0.9967854623322847  0.1253322489213387
  0.7500242910839765  0.0035987180291058  0.3704072526316347
  0.7466072573069399  0.9972006276138005  0.6238703489523332
  0.7441451741008296  0.9992257549060111  0.8734523192279783
 
  0.00000000E+00  0.00000000E+00  0.00000000E+00
  0.00000000E+00  0.00000000E+00  0.00000000E+00
  0.00000000E+00  0.00000000E+00  0.00000000E+00
  0.00000000E+00  0.00000000E+00  0.00000000E+00
  0.00000000E+00  0.00000000E+00  0.00000000E+00
  0.00000000E+00  0.00000000E+00  0.00000000E+00
  0.00000000E+00  0.00000000E+00  0.00000000E+00
  0.00000000E+00  0.00000000E+00  0.00000000E+00
  0.00000000E+00  0.00000000E+00  0.00000000E+00
  0.00000000E+00  0.00000000E+00  0.00000000E+00
  0.00000000E+00  0.00000000E+00  0.00000000E+00
  0.00000000E+00  0.00000000E+00  0.00000000E+00
  0.00000000E+00  0.00000000E+00  0.00000000E+00
  0.00000000E+00  0.00000000E+00  0.00000000E+00
  0.00000000E+00  0.00000000E+00  0.00000000E+00
  0.00000000E+00  0.00000000E+00  0.00000000E+00
  0.00000000E+00  0.00000000E+00  0.00000000E+00
  0.00000000E+00  0.00000000E+00  0.00000000E+00
  0.00000000E+00  0.00000000E+00  0.00000000E+00
  0.00000000E+00  0.00000000E+00  0.00000000E+00
  0.00000000E+00  0.00000000E+00  0.00000000E+00
  0.00000000E+00  0.00000000E+00  0.00000000E+00
  0.00000000E+00  0.00000000E+00  0.00000000E+00
  0.00000000E+00  0.00000000E+00  0.00000000E+00
  0.00000000E+00  0.00000000E+00  0.00000000E+00
  0.00000000E+00  0.00000000E+00  0.00000000E+00
  0.00000000E+00  0.00000000E+00  0.00000000E+00
  0.00000000E+00  0.00000000E+00  0.00000000E+00
  0.00000000E+00  0.00000000E+00  0.00000000E+00
  0.00000000E+00  0.00000000E+00  0.00000000E+00
  0.00000000E+00  0.00000000E+00  0.00000000E+00
  0.00000000E+00  0.00000000E+00  0.00000000E+00
  0.00000000E+00  0.00000000E+00  0.00000000E+00
  0.00000000E+00  0.00000000E+00  0.00000000E+00
  0.00000000E+00  0.00000000E+00  0.00000000E+00
  0.00000000E+00  0.00000000E+00  0.00000000E+00
  0.00000000E+00  0.00000000E+00  0.00000000E+00
  0.00000000E+00  0.00000000E+00  0.00000000E+00
  0.00000000E+00  0.00000000E+00  0.00000000E+00
  0.00000000E+00  0.00000000E+00  0.00000000E+00
  0.00000000E+00  0.00000000E+00  0.00000000E+00
  0.00000000E+00  0.00000000E+00  0.00000000E+00
  0.00000000E+00  0.00000000E+00  0.00000000E+00
  0.00000000E+00  0.00000000E+00  0.00000000E+00
  0.00000000E+00  0.00000000E+00  0.00000000E+00
  0.00000000E+00  0.00000000E+00  0.00000000E+00
  0.00000000E+00  0.00000000E+00  0.00000000E+00
  0.00000000E+00  0.00000000E+00  0.00000000E+00
  0.00000000E+00  0.00000000E+00  0.00000000E+00
  0.00000000E+00  0.00000000E+00  0.00000000E+00
  0.00000000E+00  0.00000000E+00  0.00000000E+00
  0.00000000E+00  0.00000000E+00  0.00000000E+00
  0.00000000E+00  0.00000000E+00  0.00000000E+00
  0.00000000E+00  0.00000000E+00  0.00000000E+00
  0.00000000E+00  0.00000000E+00  0.00000000E+00
  0.00000000E+00  0.00000000E+00  0.00000000E+00
  0.00000000E+00  0.00000000E+00  0.00000000E+00
  0.00000000E+00  0.00000000E+00  0.00000000E+00
  0.00000000E+00  0.00000000E+00  0.00000000E+00
  0.00000000E+00  0.00000000E+00  0.00000000E+00
  0.00000000E+00  0.00000000E+00  0.00000000E+00
  0.00000000E+00  0.00000000E+00  0.00000000E+00
  0.00000000E+00  0.00000000E+00  0.00000000E+00
  0.00000000E+00  0.00000000E+00  0.00000000E+00
  0.00000000E+00  0.00000000E+00  0.00000000E+00
  0.00000000E+00  0.00000000E+00  0.00000000E+00
  0.00000000E+00  0.00000000E+00  0.00000000E+00
  0.00000000E+00  0.00000000E+00  0.00000000E+00
  0.00000000E+00  0.00000000E+00  0.00000000E+00
  0.00000000E+00  0.00000000E+00  0.00000000E+00
  0.00000000E+00  0.00000000E+00  0.00000000E+00
  0.00000000E+00  0.00000000E+00  0.00000000E+00
  0.00000000E+00  0.00000000E+00  0.00000000E+00
  0.00000000E+00  0.00000000E+00  0.00000000E+00
  0.00000000E+00  0.00000000E+00  0.00000000E+00
  0.00000000E+00  0.00000000E+00  0.00000000E+00
  0.00000000E+00  0.00000000E+00  0.00000000E+00
  0.00000000E+00  0.00000000E+00  0.00000000E+00
  0.00000000E+00  0.00000000E+00  0.00000000E+00
  0.00000000E+00  0.00000000E+00  0.00000000E+00
  0.00000000E+00  0.00000000E+00  0.00000000E+00
  0.00000000E+00  0.00000000E+00  0.00000000E+00
  0.00000000E+00  0.00000000E+00  0.00000000E+00
  0.00000000E+00  0.00000000E+00  0.00000000E+00
  0.00000000E+00  0.00000000E+00  0.00000000E+00
  0.00000000E+00  0.00000000E+00  0.00000000E+00
  0.00000000E+00  0.00000000E+00  0.00000000E+00
  0.00000000E+00  0.00000000E+00  0.00000000E+00
  0.00000000E+00  0.00000000E+00  0.00000000E+00
  0.00000000E+00  0.00000000E+00  0.00000000E+00
  0.00000000E+00  0.00000000E+00  0.00000000E+00
  0.00000000E+00  0.00000000E+00  0.00000000E+00
  0.00000000E+00  0.00000000E+00  0.00000000E+00
  0.00000000E+00  0.00000000E+00  0.00000000E+00
  0.00000000E+00  0.00000000E+00  0.00000000E+00
  0.00000000E+00  0.00000000E+00  0.00000000E+00
  0.00000000E+00  0.00000000E+00  0.00000000E+00
  0.00000000E+00  0.00000000E+00  0.00000000E+00
  0.00000000E+00  0.00000000E+00  0.00000000E+00
  0.00000000E+00  0.00000000E+00  0.00000000E+00
  0.00000000E+00  0.00000000E+00  0.00000000E+00
  0.00000000E+00  0.00000000E+00  0.00000000E+00
  0.00000000E+00  0.00000000E+00  0.00000000E+00
  0.00000000E+00  0.00000000E+00  0.00000000E+00
  0.00000000E+00  0.00000000E+00  0.00000000E+00
  0.00000000E+00  0.00000000E+00  0.00000000E+00
  0.00000000E+00  0.00000000E+00  0.00000000E+00
  0.00000000E+00  0.00000000E+00  0.00000000E+00
  0.00000000E+00  0.00000000E+00  0.00000000E+00
  0.00000000E+00  0.00000000E+00  0.00000000E+00
  0.00000000E+00  0.00000000E+00  0.00000000E+00
  0.00000000E+00  0.00000000E+00  0.00000000E+00
  0.00000000E+00  0.00000000E+00  0.00000000E+00
  0.00000000E+00  0.00000000E+00  0.00000000E+00
  0.00000000E+00  0.00000000E+00  0.00000000E+00
  0.00000000E+00  0.00000000E+00  0.00000000E+00
  0.00000000E+00  0.00000000E+00  0.00000000E+00
  0.00000000E+00  0.00000000E+00  0.00000000E+00
  0.00000000E+00  0.00000000E+00  0.00000000E+00
  0.00000000E+00  0.00000000E+00  0.00000000E+00
  0.00000000E+00  0.00000000E+00  0.00000000E+00
  0.00000000E+00  0.00000000E+00  0.00000000E+00
  0.00000000E+00  0.00000000E+00  0.00000000E+00
  0.00000000E+00  0.00000000E+00  0.00000000E+00
  0.00000000E+00  0.00000000E+00  0.00000000E+00
  0.00000000E+00  0.00000000E+00  0.00000000E+00
  0.00000000E+00  0.00000000E+00  0.00000000E+00
  0.00000000E+00  0.00000000E+00  0.00000000E+00
  0.00000000E+00  0.00000000E+00  0.00000000E+00
  0.00000000E+00  0.00000000E+00  0.00000000E+00
  0.00000000E+00  0.00000000E+00  0.00000000E+00
  0.00000000E+00  0.00000000E+00  0.00000000E+00
  0.00000000E+00  0.00000000E+00  0.00000000E+00
  0.00000000E+00  0.00000000E+00  0.00000000E+00
  0.00000000E+00  0.00000000E+00  0.00000000E+00
  0.00000000E+00  0.00000000E+00  0.00000000E+00
  0.00000000E+00  0.00000000E+00  0.00000000E+00
  0.00000000E+00  0.00000000E+00  0.00000000E+00
  0.00000000E+00  0.00000000E+00  0.00000000E+00
  0.00000000E+00  0.00000000E+00  0.00000000E+00
  0.00000000E+00  0.00000000E+00  0.00000000E+00
  0.00000000E+00  0.00000000E+00  0.00000000E+00
  0.00000000E+00  0.00000000E+00  0.00000000E+00
  0.00000000E+00  0.00000000E+00  0.00000000E+00
  0.00000000E+00  0.00000000E+00  0.00000000E+00
  0.00000000E+00  0.00000000E+00  0.00000000E+00
  0.00000000E+00  0.00000000E+00  0.00000000E+00
  0.00000000E+00  0.00000000E+00  0.00000000E+00
  0.00000000E+00  0.00000000E+00  0.00000000E+00
  0.00000000E+00  0.00000000E+00  0.00000000E+00
  0.00000000E+00  0.00000000E+00  0.00000000E+00
  0.00000000E+00  0.00000000E+00  0.00000000E+00
  0.00000000E+00  0.00000000E+00  0.00000000E+00
  0.00000000E+00  0.00000000E+00  0.00000000E+00
  0.00000000E+00  0.00000000E+00  0.00000000E+00
  0.00000000E+00  0.00000000E+00  0.00000000E+00
  0.00000000E+00  0.00000000E+00  0.00000000E+00
  0.00000000E+00  0.00000000E+00  0.00000000E+00
  0.00000000E+00  0.00000000E+00  0.00000000E+00
  0.00000000E+00  0.00000000E+00  0.00000000E+00
