Sn Rb F                                 
   1.00000000000000     
     9.4716059999999995   -9.4716059999999995    0.0000000000000000
     9.4716059999999995    9.4716059999999995    0.0000000000000000
     0.0000000000000000    0.0000000000000000   18.9432110000000016
   F    Rb   Sn
    96    32    32
Direct
  0.9634767824171770  0.2621087484644907  0.9776978020678955
  0.0047874688760834  0.2060670206568428  0.2319690594829314
  0.0548332949490953  0.3225823766541748  0.4895335255526542
  0.0283097871884548  0.1991257967271043  0.7308591574020282
  0.4380525525946407  0.3168702891505514  0.9883959141689199
  0.4581861041364547  0.1857880878493389  0.2298591775609499
  0.5368501380084224  0.2540985534536995  0.4758260432504530
  0.4882282114053798  0.2100485297613801  0.7323352382586966
  0.1994214884047698  0.4599313256974880  0.9789039465069560
  0.2414411336798908  0.5482212614584782  0.2341967894870723
  0.3013155823980591  0.4562944685649903  0.4791984166030049
  0.2593847205068099  0.5470047003307975  0.7327592886761310
  0.9436897807126238  0.8203130921620514  0.9799829465391403
  0.9689919497154560  0.6950418392121025  0.2171898417548182
  0.0461417582399344  0.7719738359392709  0.4672931568715850
  0.9922005593681228  0.6971939037918076  0.7274890001902817
  0.7708177440168295  0.4441741258467133  0.0251386300393217
  0.7529356742750911  0.5048125585134305  0.2784014145493575
  0.7248589407825753  0.4483763727848043  0.5254595644970835
  0.7498759466135630  0.5077053439172302  0.7792024324354498
  0.4596816887362092  0.7670051956782165  0.9684030300603499
  0.5093205205053800  0.7017667668360139  0.2262556048983726
  0.5651167613851994  0.8173805485975074  0.4806208065639309
  0.5373264103702214  0.6970099440385141  0.7177957502722069
  0.2611055937910368  0.9682504265493896  0.9841226711235481
  0.2252103458131089  0.0262458094892687  0.2328809484243134
  0.2486200099345494  0.9678002052930307  0.4821394172823695
  0.2687931343493491  0.0244606494535655  0.7326836354221651
  0.6931009584231583  0.9572787162149153  0.9756861525317093
  0.7353374352405330  0.0487099328524461  0.2311823936808413
  0.8124392636179859  0.9539508853340839  0.4765610519347370
  0.7695860766050249  0.0537629755911774  0.7310394602169582
  0.1104736683091957  0.0668079949233299  0.1037673563294886
  0.1346127436579521  0.1670200059931506  0.3970157957537683
  0.1604468864785604  0.1894731867796357  0.6107359597965116
  0.0429887380878651  0.1133019541465976  0.8848916823227833
  0.5953718892845312  0.0634611636670926  0.1160666539179631
  0.6859207996827016  0.1007712334404590  0.4082710712582854
  0.6201808873701535  0.1623745374952564  0.6189789168506363
  0.5634042003231194  0.1555970274820063  0.9321606953120845
  0.4047299037264011  0.3769229175173651  0.1753761658508511
  0.3914123196301265  0.3073552764104163  0.3698245294155860
  0.3410370066985043  0.3741420426105989  0.6660128775259458
  0.3228384629570177  0.4008301452762306  0.8574497448182321
  0.1117818738218101  0.5752633451036808  0.1165402275421298
  0.1911326676424824  0.6070894009406819  0.4031048962414056
  0.1294718205553878  0.6710909676466731  0.6094803353864943
  0.0669663889659559  0.6583849062326763  0.9297154385522610
  0.9133867878395731  0.3718968705242205  0.1547428708964945
  0.8138016797920942  0.3511753025377123  0.3822336390280060
  0.8298583953670000  0.3675503193108446  0.6523656257717922
  0.8876888355553904  0.4399010114359858  0.8828646656702719
  0.6080976739698478  0.5595973201592891  0.1053659061465225
  0.6453227653728212  0.6697584045819123  0.3766236910181490
  0.6551909665622566  0.6758381436172914  0.5883300681898288
  0.5443232351028776  0.6123604177460205  0.8772536541322364
  0.4223017335939225  0.8665710902487226  0.1501417871052591
  0.3169351691209296  0.8563842566113447  0.3608005126519134
  0.3326375778248259  0.8690098823815682  0.6363224653784560
  0.3926918753541588  0.9439583865316503  0.8632066834737731
  0.8982574574966407  0.8676993522119590  0.1474324179620997
  0.9065901322451391  0.8283795620782174  0.3555067261947114
  0.8431365430253868  0.8706058753343804  0.6701130623241390
  0.8225436857361093  0.9011951178493723  0.8563739310537049
  0.8742237342786222  0.1642144488658216  0.1159811891243108
  0.9275438777649222  0.1599058035207401  0.4375529253073491
  0.9136883247324541  0.0589975932359487  0.6173176887708178
  0.8097461615232294  0.1069228745674757  0.9051156402296642
  0.3235735789397681  0.2012799230758803  0.1117167455013516
  0.4600420578572541  0.1002620911987399  0.3838604473591909
  0.3839495268449369  0.0740408842155006  0.6057140087909074
  0.3546992147114942  0.1704364868206368  0.8893591284613229
  0.1517296310404461  0.3777458407552862  0.1689717711489357
  0.1732991437545004  0.4013666979717049  0.3582117285434132
  0.0916615749979867  0.3789299799836869  0.6643240925703779
  0.1011286858178226  0.3213563602123951  0.8664764833824444
  0.8632592567359058  0.6631431756463485  0.0828429539220962
  0.9553943516200656  0.6206567358918436  0.3790613157684389
  0.8869062942994422  0.5661258108325964  0.6034572750108033
  0.8624021443037312  0.6732962606501686  0.8769832278961153
  0.6696192268477200  0.3633415511567626  0.1522118114309670
  0.6130346844820939  0.4377751639179942  0.3818047951160026
  0.5838249091961194  0.3721116376030317  0.6545401830411184
  0.6837932184622315  0.3561993624523814  0.8821185788515238
  0.3773233676687924  0.6640247172445178  0.1082836542252753
  0.4390427841031019  0.6576837833817575  0.4279100488393294
  0.3923535083249384  0.5707834423129126  0.6165030276839730
  0.3134545304930533  0.6079245788185743  0.9012852087696295
  0.1765776791122546  0.8670454540182448  0.1359858358550161
  0.1138187042782159  0.9398364363442333  0.3626724951693910
  0.0836941661770953  0.8677556037353377  0.6629193154197871
  0.1962555359210459  0.8478557252822001  0.8658558663691750
  0.6600255689848608  0.8688154459316476  0.1664121431918090
  0.6857952997875517  0.8949442424298040  0.3556653327735143
  0.5989329293497205  0.8759123071341239  0.6469361647938782
  0.6053635346484990  0.8189313250327305  0.8608894539646670
  0.9548307433818319  0.0253854800552993  0.0029260911612735
  0.0149038129366770  0.9947131301193576  0.2355381754300809
  0.0245951163348767  0.9926136136876297  0.4956525695754017
  0.9786668662206779  0.9989559155675817  0.7579135497678651
  0.4809790503264005  0.9865958813070274  0.9992656629368187
  0.5244829088041266  0.9907424962437159  0.2539694049079541
  0.5421873745148994  0.0216453162628901  0.5075400386595649
  0.4824424476746901  0.9994924726881782  0.7346525458888807
  0.2168289197716897  0.2504854032675636  0.9866800824176694
  0.2536292869712115  0.2430976899272579  0.2599918028561729
  0.2744783674931048  0.2490685011588593  0.4917208365114105
  0.2361791104854782  0.2434036082559520  0.7580710039182715
  0.9866256761804080  0.4919406103031169  0.0076851295892136
  0.0213040571406389  0.4994862030625011  0.2546934607743903
  0.0422734018837061  0.5306680060872560  0.5000243163640714
  0.9687405763556434  0.4940932399170549  0.7498766128963043
  0.7283103898181303  0.2412534093457159  0.0104424544678916
  0.7834621899669257  0.2549009782494556  0.2497377579527413
  0.7594513005703880  0.2435308794032641  0.5105257903835966
  0.7139592133522923  0.2581482212313785  0.7501837974341686
  0.4566933675312184  0.5249732382657980  0.9981404312774820
  0.5328896429523639  0.4982285132675473  0.2508661209320935
  0.5119045723159008  0.4882376274075190  0.5058691878087972
  0.4759224960686492  0.4987302558718162  0.7532521565721402
  0.2384565377091097  0.7507884230357196  0.0020089715035875
  0.2830886051798281  0.7521850120670359  0.2356293196121364
  0.2692040004010693  0.7526324226397334  0.4996526787968381
  0.2278768214201259  0.7517658119960969  0.7375613912903241
  0.7323853199349258  0.7540191996830254  0.9825878593311081
  0.7708761524564679  0.7390629477530529  0.2558235281752586
  0.7824706494353686  0.7498178811350511  0.4803612134124540
  0.7372361047253698  0.7368214500304198  0.7565369519507061
  0.0077302750218653  0.2505161775368018  0.1249960272952319
  0.0156896075879462  0.2697356870141321  0.3885493662804221
  0.0159089569289615  0.2509076702688611  0.6250680574189413
  0.9617533250635917  0.2461796597473175  0.8665171879979678
  0.4718101167771385  0.2501438156246367  0.1281100784564659
  0.5325153934567312  0.2371429551551663  0.3650791302443597
  0.4880932510207244  0.2515819039402353  0.6249566821552257
  0.4768540921551018  0.2695450277802610  0.8858302216478520
  0.2456820296647082  0.4923323503386353  0.1298533829269976
  0.2952842627528615  0.4980159522685277  0.3712060581860231
  0.2541510042267511  0.4946518092216510  0.6275286260038101
  0.2041308236362257  0.5022046781780893  0.8710718550832383
  0.9905830684157911  0.7469074740372554  0.1121553138987440
  0.0432808871184501  0.7488908010532362  0.3573825793156033
  0.9926494440762702  0.7512402375188163  0.6238464661077097
  0.9852774035319743  0.7707642330530224  0.8783506559094221
  0.7519579687741940  0.4953510212143761  0.1303950102671657
  0.7571678605253130  0.4983660684942813  0.3906581626111973
  0.7458937310916083  0.4995013687011039  0.6308816818067001
  0.7435154081191448  0.5013761657210736  0.8914074434730177
  0.5141954087443983  0.7450251879762748  0.1196455669308937
  0.5242159682235410  0.7700235206781780  0.3784889499903540
  0.5188104252238366  0.7477754738509726  0.6121181570714697
  0.4649698062397063  0.7461349056423727  0.8581836814509174
  0.2539485709707424  0.0036855149855806  0.1221031055501482
  0.2584728752925738  0.0024078573611916  0.3714804655149767
  0.2448127808018165  0.9998765197419700  0.6219010971896499
  0.2456546259085562  0.9980094622067285  0.8731773553251595
  0.7368761659145852  0.9947468724004696  0.1263435405490601
  0.7975925759412845  0.0029849633474514  0.3710598764508778
  0.7694865883074528  0.9960045192185216  0.6271715084430752
  0.7038864229001101  0.0019828564966704  0.8688959544299492
 
  0.00000000E+00  0.00000000E+00  0.00000000E+00
  0.00000000E+00  0.00000000E+00  0.00000000E+00
  0.00000000E+00  0.00000000E+00  0.00000000E+00
  0.00000000E+00  0.00000000E+00  0.00000000E+00
  0.00000000E+00  0.00000000E+00  0.00000000E+00
  0.00000000E+00  0.00000000E+00  0.00000000E+00
  0.00000000E+00  0.00000000E+00  0.00000000E+00
  0.00000000E+00  0.00000000E+00  0.00000000E+00
  0.00000000E+00  0.00000000E+00  0.00000000E+00
  0.00000000E+00  0.00000000E+00  0.00000000E+00
  0.00000000E+00  0.00000000E+00  0.00000000E+00
  0.00000000E+00  0.00000000E+00  0.00000000E+00
  0.00000000E+00  0.00000000E+00  0.00000000E+00
  0.00000000E+00  0.00000000E+00  0.00000000E+00
  0.00000000E+00  0.00000000E+00  0.00000000E+00
  0.00000000E+00  0.00000000E+00  0.00000000E+00
  0.00000000E+00  0.00000000E+00  0.00000000E+00
  0.00000000E+00  0.00000000E+00  0.00000000E+00
  0.00000000E+00  0.00000000E+00  0.00000000E+00
  0.00000000E+00  0.00000000E+00  0.00000000E+00
  0.00000000E+00  0.00000000E+00  0.00000000E+00
  0.00000000E+00  0.00000000E+00  0.00000000E+00
  0.00000000E+00  0.00000000E+00  0.00000000E+00
  0.00000000E+00  0.00000000E+00  0.00000000E+00
  0.00000000E+00  0.00000000E+00  0.00000000E+00
  0.00000000E+00  0.00000000E+00  0.00000000E+00
  0.00000000E+00  0.00000000E+00  0.00000000E+00
  0.00000000E+00  0.00000000E+00  0.00000000E+00
  0.00000000E+00  0.00000000E+00  0.00000000E+00
  0.00000000E+00  0.00000000E+00  0.00000000E+00
  0.00000000E+00  0.00000000E+00  0.00000000E+00
  0.00000000E+00  0.00000000E+00  0.00000000E+00
  0.00000000E+00  0.00000000E+00  0.00000000E+00
  0.00000000E+00  0.00000000E+00  0.00000000E+00
  0.00000000E+00  0.00000000E+00  0.00000000E+00
  0.00000000E+00  0.00000000E+00  0.00000000E+00
  0.00000000E+00  0.00000000E+00  0.00000000E+00
  0.00000000E+00  0.00000000E+00  0.00000000E+00
  0.00000000E+00  0.00000000E+00  0.00000000E+00
  0.00000000E+00  0.00000000E+00  0.00000000E+00
  0.00000000E+00  0.00000000E+00  0.00000000E+00
  0.00000000E+00  0.00000000E+00  0.00000000E+00
  0.00000000E+00  0.00000000E+00  0.00000000E+00
  0.00000000E+00  0.00000000E+00  0.00000000E+00
  0.00000000E+00  0.00000000E+00  0.00000000E+00
  0.00000000E+00  0.00000000E+00  0.00000000E+00
  0.00000000E+00  0.00000000E+00  0.00000000E+00
  0.00000000E+00  0.00000000E+00  0.00000000E+00
  0.00000000E+00  0.00000000E+00  0.00000000E+00
  0.00000000E+00  0.00000000E+00  0.00000000E+00
  0.00000000E+00  0.00000000E+00  0.00000000E+00
  0.00000000E+00  0.00000000E+00  0.00000000E+00
  0.00000000E+00  0.00000000E+00  0.00000000E+00
  0.00000000E+00  0.00000000E+00  0.00000000E+00
  0.00000000E+00  0.00000000E+00  0.00000000E+00
  0.00000000E+00  0.00000000E+00  0.00000000E+00
  0.00000000E+00  0.00000000E+00  0.00000000E+00
  0.00000000E+00  0.00000000E+00  0.00000000E+00
  0.00000000E+00  0.00000000E+00  0.00000000E+00
  0.00000000E+00  0.00000000E+00  0.00000000E+00
  0.00000000E+00  0.00000000E+00  0.00000000E+00
  0.00000000E+00  0.00000000E+00  0.00000000E+00
  0.00000000E+00  0.00000000E+00  0.00000000E+00
  0.00000000E+00  0.00000000E+00  0.00000000E+00
  0.00000000E+00  0.00000000E+00  0.00000000E+00
  0.00000000E+00  0.00000000E+00  0.00000000E+00
  0.00000000E+00  0.00000000E+00  0.00000000E+00
  0.00000000E+00  0.00000000E+00  0.00000000E+00
  0.00000000E+00  0.00000000E+00  0.00000000E+00
  0.00000000E+00  0.00000000E+00  0.00000000E+00
  0.00000000E+00  0.00000000E+00  0.00000000E+00
  0.00000000E+00  0.00000000E+00  0.00000000E+00
  0.00000000E+00  0.00000000E+00  0.00000000E+00
  0.00000000E+00  0.00000000E+00  0.00000000E+00
  0.00000000E+00  0.00000000E+00  0.00000000E+00
  0.00000000E+00  0.00000000E+00  0.00000000E+00
  0.00000000E+00  0.00000000E+00  0.00000000E+00
  0.00000000E+00  0.00000000E+00  0.00000000E+00
  0.00000000E+00  0.00000000E+00  0.00000000E+00
  0.00000000E+00  0.00000000E+00  0.00000000E+00
  0.00000000E+00  0.00000000E+00  0.00000000E+00
  0.00000000E+00  0.00000000E+00  0.00000000E+00
  0.00000000E+00  0.00000000E+00  0.00000000E+00
  0.00000000E+00  0.00000000E+00  0.00000000E+00
  0.00000000E+00  0.00000000E+00  0.00000000E+00
  0.00000000E+00  0.00000000E+00  0.00000000E+00
  0.00000000E+00  0.00000000E+00  0.00000000E+00
  0.00000000E+00  0.00000000E+00  0.00000000E+00
  0.00000000E+00  0.00000000E+00  0.00000000E+00
  0.00000000E+00  0.00000000E+00  0.00000000E+00
  0.00000000E+00  0.00000000E+00  0.00000000E+00
  0.00000000E+00  0.00000000E+00  0.00000000E+00
  0.00000000E+00  0.00000000E+00  0.00000000E+00
  0.00000000E+00  0.00000000E+00  0.00000000E+00
  0.00000000E+00  0.00000000E+00  0.00000000E+00
  0.00000000E+00  0.00000000E+00  0.00000000E+00
  0.00000000E+00  0.00000000E+00  0.00000000E+00
  0.00000000E+00  0.00000000E+00  0.00000000E+00
  0.00000000E+00  0.00000000E+00  0.00000000E+00
  0.00000000E+00  0.00000000E+00  0.00000000E+00
  0.00000000E+00  0.00000000E+00  0.00000000E+00
  0.00000000E+00  0.00000000E+00  0.00000000E+00
  0.00000000E+00  0.00000000E+00  0.00000000E+00
  0.00000000E+00  0.00000000E+00  0.00000000E+00
  0.00000000E+00  0.00000000E+00  0.00000000E+00
  0.00000000E+00  0.00000000E+00  0.00000000E+00
  0.00000000E+00  0.00000000E+00  0.00000000E+00
  0.00000000E+00  0.00000000E+00  0.00000000E+00
  0.00000000E+00  0.00000000E+00  0.00000000E+00
  0.00000000E+00  0.00000000E+00  0.00000000E+00
  0.00000000E+00  0.00000000E+00  0.00000000E+00
  0.00000000E+00  0.00000000E+00  0.00000000E+00
  0.00000000E+00  0.00000000E+00  0.00000000E+00
  0.00000000E+00  0.00000000E+00  0.00000000E+00
  0.00000000E+00  0.00000000E+00  0.00000000E+00
  0.00000000E+00  0.00000000E+00  0.00000000E+00
  0.00000000E+00  0.00000000E+00  0.00000000E+00
  0.00000000E+00  0.00000000E+00  0.00000000E+00
  0.00000000E+00  0.00000000E+00  0.00000000E+00
  0.00000000E+00  0.00000000E+00  0.00000000E+00
  0.00000000E+00  0.00000000E+00  0.00000000E+00
  0.00000000E+00  0.00000000E+00  0.00000000E+00
  0.00000000E+00  0.00000000E+00  0.00000000E+00
  0.00000000E+00  0.00000000E+00  0.00000000E+00
  0.00000000E+00  0.00000000E+00  0.00000000E+00
  0.00000000E+00  0.00000000E+00  0.00000000E+00
  0.00000000E+00  0.00000000E+00  0.00000000E+00
  0.00000000E+00  0.00000000E+00  0.00000000E+00
  0.00000000E+00  0.00000000E+00  0.00000000E+00
  0.00000000E+00  0.00000000E+00  0.00000000E+00
  0.00000000E+00  0.00000000E+00  0.00000000E+00
  0.00000000E+00  0.00000000E+00  0.00000000E+00
  0.00000000E+00  0.00000000E+00  0.00000000E+00
  0.00000000E+00  0.00000000E+00  0.00000000E+00
  0.00000000E+00  0.00000000E+00  0.00000000E+00
  0.00000000E+00  0.00000000E+00  0.00000000E+00
  0.00000000E+00  0.00000000E+00  0.00000000E+00
  0.00000000E+00  0.00000000E+00  0.00000000E+00
  0.00000000E+00  0.00000000E+00  0.00000000E+00
  0.00000000E+00  0.00000000E+00  0.00000000E+00
  0.00000000E+00  0.00000000E+00  0.00000000E+00
  0.00000000E+00  0.00000000E+00  0.00000000E+00
  0.00000000E+00  0.00000000E+00  0.00000000E+00
  0.00000000E+00  0.00000000E+00  0.00000000E+00
  0.00000000E+00  0.00000000E+00  0.00000000E+00
  0.00000000E+00  0.00000000E+00  0.00000000E+00
  0.00000000E+00  0.00000000E+00  0.00000000E+00
  0.00000000E+00  0.00000000E+00  0.00000000E+00
  0.00000000E+00  0.00000000E+00  0.00000000E+00
  0.00000000E+00  0.00000000E+00  0.00000000E+00
  0.00000000E+00  0.00000000E+00  0.00000000E+00
  0.00000000E+00  0.00000000E+00  0.00000000E+00
  0.00000000E+00  0.00000000E+00  0.00000000E+00
  0.00000000E+00  0.00000000E+00  0.00000000E+00
  0.00000000E+00  0.00000000E+00  0.00000000E+00
  0.00000000E+00  0.00000000E+00  0.00000000E+00
  0.00000000E+00  0.00000000E+00  0.00000000E+00
  0.00000000E+00  0.00000000E+00  0.00000000E+00
  0.00000000E+00  0.00000000E+00  0.00000000E+00
  0.00000000E+00  0.00000000E+00  0.00000000E+00
