Cs Al Cl                                
   1.00000000000000     
    10.3682429999999997  -10.3682429999999997    0.0000000000000000
    10.3682429999999997   10.3682429999999997    0.0000000000000000
     0.0000000000000000    0.0000000000000000   20.7364859999999993
   Cs   Al   Cl
    32    32    96
Direct
  0.0014922808866883  0.0039682463165687 -0.0053692069043404
 -0.0041183681888562 -0.0046090013479962  0.2522170046814748
  0.0013461512043646  0.0020388375629273  0.5038235148967853
 -0.0002430343757434  0.0062898980318989  0.7508169916695562
  0.5049045344733202 -0.0084513850925143  0.0003204305036991
  0.5019299615481995 -0.0003520501870456  0.2515302085466399
  0.4999237216150730  0.0097156052897673  0.4971254182529770
  0.5027792495860262 -0.0005167865947705  0.7498670768245005
  0.2363850618327913  0.2553715376621823  0.0008306711082262
  0.2445642035033157  0.2475585324351813  0.2525435886300134
  0.2543245406915928  0.2540388632582738  0.4998314137198223
  0.2487798932123359  0.2538972838982644  0.7477581933766707
 -0.0007248344040058  0.5007945512680229 -0.0013514910104208
 -0.0023586343074410  0.5021857598303699  0.2494314797579072
 -0.0017974847645998  0.4964983095973608  0.5043234668932808
 -0.0015351491921713  0.4998271566836924  0.7485735058781142
  0.7612572433915145  0.2503442732270255  0.9969484932120452
  0.7629836905069438  0.2515307918658667  0.2504036460439170
  0.7466571294515382  0.2590395442613022  0.5005813341289175
  0.7508356741595008  0.2529509870711218  0.7493615658806200
  0.4980020449653025  0.5060182052986123 -0.0068422710154065
  0.5058305785286423  0.5012424114813449  0.2517185479414252
  0.5035710334532086  0.4975157893147360  0.5046371516231755
  0.4992433740003256  0.5042971264117752  0.7492314676680586
  0.2481195701955975  0.7461943321928894 -0.0040931701573010
  0.2444876353383461  0.7488174132072635  0.2508960101224287
  0.2520916587475538  0.7488608079393612  0.5035807789334206
  0.2499334077203307  0.7445491893718571  0.7513348772009985
  0.7438175238506279  0.7482182872531974  0.0004597109346028
  0.7503007940421186  0.7501203346412276  0.2482228840834373
  0.7471722882446719  0.7472941152568769  0.5021654057824829
  0.7505022434301327  0.7477209165418649  0.7510326449910434
  0.0057611886018177  0.2477083618152281  0.1245827610889639
 -0.0000738902977270  0.2689048526360674  0.3780023907659578
  0.0007530770050412  0.2461072404698376  0.6244126632377022
  0.0123339255669529  0.2476690944113975  0.8727908175959963
  0.5363452377476976  0.2498292952431849  0.1248464980310357
  0.5036523933103583  0.2545787993376926  0.3792543518814480
  0.4998081669592808  0.2459820957109007  0.6354780734954051
  0.4908930964823027  0.2422181340387389  0.8819800086367856
  0.2640743929939826  0.4866181101963387  0.1397627574577161
  0.2537353761917588  0.5034702150993692  0.3887337355394691
  0.2490662658058846  0.4975368857139111  0.6328788978375549
  0.2488610586277571  0.5059458079929499  0.8765987450563115
  0.0049577937892511  0.7504529143316796  0.1283834030668420
 -0.0011748465182308  0.7491224974273805  0.3824137958294055
  0.0000230639218685  0.7381028084498289  0.6294882189585331
 -0.0124203692866911  0.7532280741860353  0.8781897408201976
  0.7627964135186327  0.5082823321158644  0.1239702001734935
  0.7483921614682280  0.5053912462536697  0.3749266621539043
  0.7507837402208427  0.4980130445914106  0.6254724211221672
  0.7449040809325925  0.4883000718515592  0.8747617409566016
  0.4986523717124978  0.7483054351571801  0.1264461097489287
  0.4996893481174895  0.7783418222475305  0.3759032263675965
  0.5005317452671735  0.7510018234376860  0.6244970649602927
  0.5072019809122178  0.7503805997142274  0.8742308632141611
  0.2664109044087455  0.0125106954459825  0.1152057022416802
  0.2369710251873231  0.0130579697504584  0.3767295793712381
  0.2452258960327242 -0.0091524175398429  0.6337864630870130
  0.2561645823054326 -0.0107515656836528  0.8738969005214275
  0.7635361293972666 -0.0102262193963658  0.1275120908527653
  0.7642958522573954  0.0157948589644409  0.3792460535100126
  0.7573399137741421 -0.0092313566755748  0.6351443653809399
  0.7454993197148189  0.0057653186931372  0.8827147378266814
 -0.0014669857093147  0.2632199710773575 -0.0196281705909016
  0.0050601223824393  0.2483806126210835  0.2426279479780542
  0.0013855125459049  0.2493003918881120  0.5018496852815008
 -0.0028681084127275  0.2645850119591835  0.7656000986462477
  0.4826174715314434  0.2461552478811880  0.0268176698232525
  0.4912853883954028  0.2534649645324477  0.2247326235024084
  0.5009735230405994  0.2532855338225494  0.4953772046860717
  0.4983841204739495  0.2448395476345739  0.7457470798063650
  0.2405205386736237  0.4975313119020595 -0.0134100741935584
  0.2498890836270152  0.5027571772672900  0.2446183208707292
  0.2543458705830188  0.5004386119154364  0.4956964479928501
  0.2395119197646614  0.4960688548115953  0.7643329778401056
  0.0029985199893689  0.7394135810615574 -0.0114151521482669
 -0.0016843559698669  0.7548552312644351  0.2358665550863718
 -0.0000041805958070  0.7467884234045514  0.4997123442999204
  0.0010415529835247  0.7410658639399444  0.7684852051574632
  0.7552517474104196  0.4994551287922245 -0.0128842398076506
  0.7516761186972992  0.5014098854523144  0.2611233266231371
  0.7481413897512695  0.5023167726227380  0.4872271829912637
  0.7573814045941502  0.5019883050862805  0.7636345335046220
  0.4932296872627266  0.7514469866490507  0.0090376843597228
  0.4956079157069663  0.7365521876584824  0.2750619233202619
  0.4982344037213155  0.7327437429639597  0.4753993227530784
  0.5021653865178741  0.7599385589659218  0.7417321089312163
  0.2537751254883835  0.0039907850664199  0.0097497620213306
  0.2510376759035563 -0.0073271376485180  0.2684961723444902
  0.2567511661466574  0.0006088572461947  0.4851413628291714
  0.2570943503265437  0.0051585258977561  0.7401573186418298
  0.7498074093531415 -0.0016661799634530  0.0079455120150367
  0.7486635634171459  0.9969988240838622  0.2720241218204563
  0.7414054189977713 -0.0006188305027460  0.4853124476782775
  0.7472259899040039  0.0050896231344502  0.7404219481701531
  0.1427488045698090  0.0866577799583196  0.1382149769513067
  0.1281118388727207  0.1188981754465405  0.3761137761831247
  0.1600218618467135  0.1108075601173858  0.6146629956339837
  0.1207013886947874  0.1406652320644614  0.8721528619536667
  0.6249757367796535  0.1307161302339042  0.1265906310458894
  0.6391269015845545  0.1154448056700040  0.3747473221754060
  0.6094807985805442  0.1372265307695576  0.6219931206245296
  0.6179780429703867  0.1304916580751069  0.8815417759469391
  0.3676799934493169  0.3821475605724469  0.1239377458332055
  0.3629130003951578  0.3913955075277691  0.3715905178008284
  0.3908727828451412  0.3555464159006386  0.6243223158924036
  0.3460790872144616  0.3846229886858809  0.8756139537142724
  0.1098945983648861  0.6385803768478097  0.1198191372953032
  0.1409438069524123  0.6120754027366263  0.3743464255325988
  0.1262299152554769  0.6204631923626084  0.6264707165560255
  0.1293122491040088  0.6073843973615961  0.8750294714012529
  0.8859670917023627  0.3686851957016082  0.1231959512072476
  0.8621835569782741  0.3913907075295290  0.3751523894732241
  0.8804702990531486  0.3625868744268426  0.6261787732048036
  0.8680039450562220  0.3949187570020531  0.8749071184802156
  0.6160465647461077  0.6272648804007550  0.1260523723422270
  0.6369037974081129  0.6145799268693722  0.3731773896935936
  0.6206207061621809  0.6335800887725198  0.6251390904030860
  0.6534369496258224  0.6127734756837228  0.8751804075991017
  0.3424390559861535  0.8889150352882562  0.1367971689137298
  0.3801108563348292  0.8689728916712917  0.3769544303049988
  0.3666326831930778  0.9074492679030860  0.6136536776527394
  0.3778501240624426  0.8711002912364165  0.8741502440420035
  0.8937342913106555  0.8587281045857430  0.1105065941152568
  0.8593416016026135  0.8883767588981093  0.3806175427405936
  0.8642474143941979  0.8865547857418811  0.6229531558208600
  0.8823159102344759  0.8633809958577942  0.8779232367424127
  0.8872378054988294  0.1270090740314330  0.1222387083602190
  0.8732810111012048  0.1216438426257068  0.3793384592439472
  0.8387773163966130  0.1115519455811990  0.6125403644160692
  0.8901351538640464  0.1494296381458723  0.8720245917087900
  0.3686424919386543  0.1177912070056813  0.1333414207790314
  0.3609496042516058  0.1098933448460728  0.3725551045952041
  0.3900617529628617  0.1363395636425133  0.6213351960932364
  0.3715765959313944  0.1182750975113017  0.8763609982866222
  0.1414730389678821  0.4084601729817401  0.1195027853048735
  0.1441522827696609  0.3938527261914663  0.3718413391304055
  0.1203227423454029  0.3637615402475142  0.6256789059066634
  0.1121637564964815  0.3750209479278540  0.8738636692596944
  0.8899160839295494  0.6407662048265840  0.1184728581345638
  0.8640234849682458  0.6176522196171043  0.3744468044339033
  0.8730773580301799  0.6213597594602767  0.6256167232134375
  0.8908098789392065  0.6309255377517969  0.8784178731676214
  0.6225099216104519  0.3707290145139748  0.1201857809099676
  0.6352520346932327  0.3871952351418350  0.3727459752750072
  0.6088552321105142  0.3563337329468204  0.6266135278850005
  0.6350755709590444  0.3828233380889128  0.8746128120264054
  0.3397607325902470  0.6095358204243546  0.1169851320660600
  0.3607310996041440  0.6106558061574401  0.3709776025876885
  0.3807327212341488  0.6343947229590754  0.6262209789444442
  0.3594242183844673  0.6128908891342464  0.8736914191995561
  0.1127201534234226  0.8588199559261780  0.1136147491770207
  0.1433221799826573  0.8871141300212774  0.3797150089152476
  0.1382429291607284  0.8857556852369354  0.6242064301334663
  0.1114786026895514  0.8475972800097096  0.8775353973668173
  0.6135563341170079  0.8691516416568948  0.1304043889471723
  0.6186901454077762  0.8686306500890555  0.3759457365642169
  0.6357515932502923  0.9087426923708043  0.6138028210709371
  0.6281783910812357  0.8780537286036529  0.8764755123978730
 
  0.00000000E+00  0.00000000E+00  0.00000000E+00
  0.00000000E+00  0.00000000E+00  0.00000000E+00
  0.00000000E+00  0.00000000E+00  0.00000000E+00
  0.00000000E+00  0.00000000E+00  0.00000000E+00
  0.00000000E+00  0.00000000E+00  0.00000000E+00
  0.00000000E+00  0.00000000E+00  0.00000000E+00
  0.00000000E+00  0.00000000E+00  0.00000000E+00
  0.00000000E+00  0.00000000E+00  0.00000000E+00
  0.00000000E+00  0.00000000E+00  0.00000000E+00
  0.00000000E+00  0.00000000E+00  0.00000000E+00
  0.00000000E+00  0.00000000E+00  0.00000000E+00
  0.00000000E+00  0.00000000E+00  0.00000000E+00
  0.00000000E+00  0.00000000E+00  0.00000000E+00
  0.00000000E+00  0.00000000E+00  0.00000000E+00
  0.00000000E+00  0.00000000E+00  0.00000000E+00
  0.00000000E+00  0.00000000E+00  0.00000000E+00
  0.00000000E+00  0.00000000E+00  0.00000000E+00
  0.00000000E+00  0.00000000E+00  0.00000000E+00
  0.00000000E+00  0.00000000E+00  0.00000000E+00
  0.00000000E+00  0.00000000E+00  0.00000000E+00
  0.00000000E+00  0.00000000E+00  0.00000000E+00
  0.00000000E+00  0.00000000E+00  0.00000000E+00
  0.00000000E+00  0.00000000E+00  0.00000000E+00
  0.00000000E+00  0.00000000E+00  0.00000000E+00
  0.00000000E+00  0.00000000E+00  0.00000000E+00
  0.00000000E+00  0.00000000E+00  0.00000000E+00
  0.00000000E+00  0.00000000E+00  0.00000000E+00
  0.00000000E+00  0.00000000E+00  0.00000000E+00
  0.00000000E+00  0.00000000E+00  0.00000000E+00
  0.00000000E+00  0.00000000E+00  0.00000000E+00
  0.00000000E+00  0.00000000E+00  0.00000000E+00
  0.00000000E+00  0.00000000E+00  0.00000000E+00
  0.00000000E+00  0.00000000E+00  0.00000000E+00
  0.00000000E+00  0.00000000E+00  0.00000000E+00
  0.00000000E+00  0.00000000E+00  0.00000000E+00
  0.00000000E+00  0.00000000E+00  0.00000000E+00
  0.00000000E+00  0.00000000E+00  0.00000000E+00
  0.00000000E+00  0.00000000E+00  0.00000000E+00
  0.00000000E+00  0.00000000E+00  0.00000000E+00
  0.00000000E+00  0.00000000E+00  0.00000000E+00
  0.00000000E+00  0.00000000E+00  0.00000000E+00
  0.00000000E+00  0.00000000E+00  0.00000000E+00
  0.00000000E+00  0.00000000E+00  0.00000000E+00
  0.00000000E+00  0.00000000E+00  0.00000000E+00
  0.00000000E+00  0.00000000E+00  0.00000000E+00
  0.00000000E+00  0.00000000E+00  0.00000000E+00
  0.00000000E+00  0.00000000E+00  0.00000000E+00
  0.00000000E+00  0.00000000E+00  0.00000000E+00
  0.00000000E+00  0.00000000E+00  0.00000000E+00
  0.00000000E+00  0.00000000E+00  0.00000000E+00
  0.00000000E+00  0.00000000E+00  0.00000000E+00
  0.00000000E+00  0.00000000E+00  0.00000000E+00
  0.00000000E+00  0.00000000E+00  0.00000000E+00
  0.00000000E+00  0.00000000E+00  0.00000000E+00
  0.00000000E+00  0.00000000E+00  0.00000000E+00
  0.00000000E+00  0.00000000E+00  0.00000000E+00
  0.00000000E+00  0.00000000E+00  0.00000000E+00
  0.00000000E+00  0.00000000E+00  0.00000000E+00
  0.00000000E+00  0.00000000E+00  0.00000000E+00
  0.00000000E+00  0.00000000E+00  0.00000000E+00
  0.00000000E+00  0.00000000E+00  0.00000000E+00
  0.00000000E+00  0.00000000E+00  0.00000000E+00
  0.00000000E+00  0.00000000E+00  0.00000000E+00
  0.00000000E+00  0.00000000E+00  0.00000000E+00
  0.00000000E+00  0.00000000E+00  0.00000000E+00
  0.00000000E+00  0.00000000E+00  0.00000000E+00
  0.00000000E+00  0.00000000E+00  0.00000000E+00
  0.00000000E+00  0.00000000E+00  0.00000000E+00
  0.00000000E+00  0.00000000E+00  0.00000000E+00
  0.00000000E+00  0.00000000E+00  0.00000000E+00
  0.00000000E+00  0.00000000E+00  0.00000000E+00
  0.00000000E+00  0.00000000E+00  0.00000000E+00
  0.00000000E+00  0.00000000E+00  0.00000000E+00
  0.00000000E+00  0.00000000E+00  0.00000000E+00
  0.00000000E+00  0.00000000E+00  0.00000000E+00
  0.00000000E+00  0.00000000E+00  0.00000000E+00
  0.00000000E+00  0.00000000E+00  0.00000000E+00
  0.00000000E+00  0.00000000E+00  0.00000000E+00
  0.00000000E+00  0.00000000E+00  0.00000000E+00
  0.00000000E+00  0.00000000E+00  0.00000000E+00
  0.00000000E+00  0.00000000E+00  0.00000000E+00
  0.00000000E+00  0.00000000E+00  0.00000000E+00
  0.00000000E+00  0.00000000E+00  0.00000000E+00
  0.00000000E+00  0.00000000E+00  0.00000000E+00
  0.00000000E+00  0.00000000E+00  0.00000000E+00
  0.00000000E+00  0.00000000E+00  0.00000000E+00
  0.00000000E+00  0.00000000E+00  0.00000000E+00
  0.00000000E+00  0.00000000E+00  0.00000000E+00
  0.00000000E+00  0.00000000E+00  0.00000000E+00
  0.00000000E+00  0.00000000E+00  0.00000000E+00
  0.00000000E+00  0.00000000E+00  0.00000000E+00
  0.00000000E+00  0.00000000E+00  0.00000000E+00
  0.00000000E+00  0.00000000E+00  0.00000000E+00
  0.00000000E+00  0.00000000E+00  0.00000000E+00
  0.00000000E+00  0.00000000E+00  0.00000000E+00
  0.00000000E+00  0.00000000E+00  0.00000000E+00
  0.00000000E+00  0.00000000E+00  0.00000000E+00
  0.00000000E+00  0.00000000E+00  0.00000000E+00
  0.00000000E+00  0.00000000E+00  0.00000000E+00
  0.00000000E+00  0.00000000E+00  0.00000000E+00
  0.00000000E+00  0.00000000E+00  0.00000000E+00
  0.00000000E+00  0.00000000E+00  0.00000000E+00
  0.00000000E+00  0.00000000E+00  0.00000000E+00
  0.00000000E+00  0.00000000E+00  0.00000000E+00
  0.00000000E+00  0.00000000E+00  0.00000000E+00
  0.00000000E+00  0.00000000E+00  0.00000000E+00
  0.00000000E+00  0.00000000E+00  0.00000000E+00
  0.00000000E+00  0.00000000E+00  0.00000000E+00
  0.00000000E+00  0.00000000E+00  0.00000000E+00
  0.00000000E+00  0.00000000E+00  0.00000000E+00
  0.00000000E+00  0.00000000E+00  0.00000000E+00
  0.00000000E+00  0.00000000E+00  0.00000000E+00
  0.00000000E+00  0.00000000E+00  0.00000000E+00
  0.00000000E+00  0.00000000E+00  0.00000000E+00
  0.00000000E+00  0.00000000E+00  0.00000000E+00
  0.00000000E+00  0.00000000E+00  0.00000000E+00
  0.00000000E+00  0.00000000E+00  0.00000000E+00
  0.00000000E+00  0.00000000E+00  0.00000000E+00
  0.00000000E+00  0.00000000E+00  0.00000000E+00
  0.00000000E+00  0.00000000E+00  0.00000000E+00
  0.00000000E+00  0.00000000E+00  0.00000000E+00
  0.00000000E+00  0.00000000E+00  0.00000000E+00
  0.00000000E+00  0.00000000E+00  0.00000000E+00
  0.00000000E+00  0.00000000E+00  0.00000000E+00
  0.00000000E+00  0.00000000E+00  0.00000000E+00
  0.00000000E+00  0.00000000E+00  0.00000000E+00
  0.00000000E+00  0.00000000E+00  0.00000000E+00
  0.00000000E+00  0.00000000E+00  0.00000000E+00
  0.00000000E+00  0.00000000E+00  0.00000000E+00
  0.00000000E+00  0.00000000E+00  0.00000000E+00
  0.00000000E+00  0.00000000E+00  0.00000000E+00
  0.00000000E+00  0.00000000E+00  0.00000000E+00
  0.00000000E+00  0.00000000E+00  0.00000000E+00
  0.00000000E+00  0.00000000E+00  0.00000000E+00
  0.00000000E+00  0.00000000E+00  0.00000000E+00
  0.00000000E+00  0.00000000E+00  0.00000000E+00
  0.00000000E+00  0.00000000E+00  0.00000000E+00
  0.00000000E+00  0.00000000E+00  0.00000000E+00
  0.00000000E+00  0.00000000E+00  0.00000000E+00
  0.00000000E+00  0.00000000E+00  0.00000000E+00
  0.00000000E+00  0.00000000E+00  0.00000000E+00
  0.00000000E+00  0.00000000E+00  0.00000000E+00
  0.00000000E+00  0.00000000E+00  0.00000000E+00
  0.00000000E+00  0.00000000E+00  0.00000000E+00
  0.00000000E+00  0.00000000E+00  0.00000000E+00
  0.00000000E+00  0.00000000E+00  0.00000000E+00
  0.00000000E+00  0.00000000E+00  0.00000000E+00
  0.00000000E+00  0.00000000E+00  0.00000000E+00
  0.00000000E+00  0.00000000E+00  0.00000000E+00
  0.00000000E+00  0.00000000E+00  0.00000000E+00
  0.00000000E+00  0.00000000E+00  0.00000000E+00
  0.00000000E+00  0.00000000E+00  0.00000000E+00
  0.00000000E+00  0.00000000E+00  0.00000000E+00
  0.00000000E+00  0.00000000E+00  0.00000000E+00
  0.00000000E+00  0.00000000E+00  0.00000000E+00
  0.00000000E+00  0.00000000E+00  0.00000000E+00
  0.00000000E+00  0.00000000E+00  0.00000000E+00
  0.00000000E+00  0.00000000E+00  0.00000000E+00
  0.00000000E+00  0.00000000E+00  0.00000000E+00
  0.00000000E+00  0.00000000E+00  0.00000000E+00
