Pb Rb F                                 
   1.00000000000000     
     9.6702619999999992   -9.6702619999999992    0.0000000000000000
     9.6702619999999992    9.6702619999999992    0.0000000000000000
     0.0000000000000000    0.0000000000000000   19.3405230000000010
   F    Pb   Rb
    96    32    32
Direct
  0.0384752733630257  0.2335732544788525  0.0039664552402613
  0.9606598057632574  0.2641668955311262  0.2537947340971227
  0.0380650397272124  0.2642746227774642  0.5049009178263856
  0.9579503198347763  0.2663764696346293  0.7550277382692524
  0.5410100465460252  0.2332969864181286  0.0042296973050712
  0.4613970914650879  0.2644940378690389  0.2536642734355617
  0.5369987181473268  0.2640709090386356  0.5047255624017530
  0.4607489670456155  0.2642338350334374  0.7553112086209971
  0.2096399705957141  0.4816169849112030  0.0041435510119677
  0.2905121517152056  0.5126847737860432  0.2538475317394183
  0.2098795487940722  0.5139519169705429  0.5049952780937504
  0.2900311206818155  0.5176537283787908  0.7552850024085718
  0.0409268527144655  0.7337843079585257  0.0040843403668314
  0.9618612374320299  0.7628098921495309  0.2537525948164006
  0.0385176681794153  0.7656331854195830  0.5049061809155660
  0.9593536713510809  0.7656982518251055  0.7552607305480323
  0.7095943010472520  0.4837246319803516  0.0043225704837776
  0.7892537888190244  0.5127067225077420  0.2541185407461327
  0.7088527936402321  0.5149992294537229  0.5050059841132951
  0.7890944248266865  0.5185174421160328  0.7552627327075190
  0.5392860294580869  0.7342015875848906  0.0040158254824490
  0.4613952363121965  0.7634039075078201  0.2537285586325790
  0.5365712953726947  0.7648318596906484  0.5048975226904514
  0.4592150925943507  0.7680205973652549  0.7551989596963846
  0.2094343993324607  0.9827537962734703  0.0045437391172575
  0.2903483255841964  0.0137805529915182  0.2540282617904525
  0.2105102317114797  0.0156223164515684  0.5050926000306833
  0.2888669814036093  0.0154668103585995  0.7555175005803736
  0.7091510852528778  0.9809656586943798  0.0043693415246641
  0.7898894305946100  0.0125111039723552  0.2537443572585121
  0.7089263662418198  0.0154170162578981  0.5046794665324017
  0.7884910034794701  0.0156819148362126  0.7552582979221648
  0.0985537599570301  0.0962255362537606  0.1401652618735631
  0.1179936592984749  0.1087152659112652  0.3463860320858904
  0.1543857627288208  0.1482504329256628  0.6382424960832556
  0.1090768642008098  0.1105827528295154  0.8509376266829830
  0.6003452160795074  0.0968724232893417  0.1404026789622952
  0.6187098002265373  0.1088933717219935  0.3462348630230813
  0.6542123667893910  0.1479701714228013  0.6380335146132083
  0.6086937133971403  0.1094655424230063  0.8511520066545295
  0.3898884754052702  0.3861011413664348  0.0986177672120100
  0.4068679755909066  0.3973305025968465  0.3868109535402971
  0.3652962919700765  0.3592768938700062  0.5994642718246885
  0.3987311737720790  0.3996443459384494  0.8911160773244068
  0.0997352243361822  0.5957860195159166  0.1401505767142232
  0.1186066986466204  0.6088524259970229  0.3466537760079843
  0.1538827135414086  0.6483665185887411  0.6378330539956549
  0.1101308237526732  0.6115013914824409  0.8502542607484285
  0.8888835297166316  0.3860929335876495  0.0992843288179322
  0.9065002691308255  0.3974507288249418  0.3869153763464871
  0.8655311040983211  0.3592431576497157  0.5974951175313074
  0.9011394693256175  0.4023372803966151  0.8917068122342625
  0.6006221115066324  0.5977926060387414  0.1409185410861746
  0.6182376624295876  0.6090718308411812  0.3474694545798230
  0.6547596087442060  0.6485471308698506  0.6376784741364897
  0.6089209405163046  0.6099446751294394  0.8515902641017941
  0.3891294223025327  0.8867221719189773  0.1005095074639958
  0.4066542316294535  0.8978826456999510  0.3866826092926768
  0.3652915510566256  0.8590899722333246  0.5988963658442236
  0.3971898607424710  0.8984241149467834  0.8942793027758976
  0.8891482029180631  0.8852648585113868  0.0995132713731937
  0.9066334601786191  0.8972460921124777  0.3863149157096501
  0.8649906370095409  0.8591927557747546  0.5976800666360321
  0.9002667987548529  0.9011132809592807  0.8917249473716891
  0.8613971460742579  0.1363107027792639  0.0990970640594729
  0.8453828657826927  0.1487209762968801  0.3866470632981938
  0.8809356431944563  0.1084724562532544  0.5970542417588263
  0.8478949561718314  0.1527188696769948  0.8912244415738166
  0.3621820700739612  0.1365371140354844  0.0994977089546890
  0.3440491438000311  0.1491071646334106  0.3872006403250116
  0.3816132240551870  0.1081738719681315  0.5999218832916192
  0.3481822919132180  0.1497882464318762  0.8924242410636188
  0.1517884575977057  0.3460641204601307  0.1397414425794999
  0.1335856243199837  0.3602672983555386  0.3464559162051916
  0.0920558772176685  0.3971693320745704  0.6377381963807276
  0.1385778887369212  0.3619599115317395  0.8490374794184471
  0.8623715466719338  0.6365309334967191  0.0998536558187949
  0.8446933182030355  0.6484220832310087  0.3869256928926685
  0.8813742496535273  0.6086045037803920  0.5970587302562042
  0.8471558660257057  0.6507836975389661  0.8927810058199580
  0.6508626130735592  0.3480866891338740  0.1412517336393924
  0.6336991823662945  0.3594515197989683  0.3482541607432209
  0.5929337206339950  0.3973561676117291  0.6380047545601772
  0.6377222945563109  0.3604199515574114  0.8510514542931059
  0.3617249554340032  0.6359994169733174  0.0991067590319841
  0.3448024008238635  0.6485725267368344  0.3867779966396477
  0.3806130723524048  0.6085661165395739  0.5975947454074484
  0.3502840440971962  0.6501170382331242  0.8924408061101675
  0.1514256073037881  0.8478310816839730  0.1416364631779611
  0.1336322808155177  0.8594991720140261  0.3478861737185694
  0.0917195736097820  0.8977054981680422  0.6381451838030677
  0.1374093359479546  0.8606891822255459  0.8510588858794961
  0.6497942345959397  0.8481427816604383  0.1419837503704940
  0.6340262661995792  0.8597065551736132  0.3483430175903067
  0.5925974756270199  0.8969977623355477  0.6372735821884623
  0.6387500142186658  0.8622059639388863  0.8508067876834117
  0.0002527115261489  0.2453516827702322  0.1251882331238450
  0.0000156644021438  0.2508542218537843  0.3738317218597083
  0.9983094958297414  0.2503385082811587  0.6246952395691386
  0.9988835573788080  0.2526707216604049  0.8756856224860913
  0.5008563357393101  0.2458664082657598  0.1251777312742286
  0.4998987668841396  0.2506172681684907  0.3740545721236818
  0.4991128584707358  0.2501500266101480  0.6252001168063912
  0.4994768937921337  0.2510740522931713  0.8765368699014792
  0.2501337226390890  0.4949903573054207  0.1249542831438135
  0.2508547587186773  0.5004812477974439  0.3738081526612457
  0.2485030748522208  0.5004529690845985  0.6249824021950749
  0.2492071871197886  0.5017634561162633  0.8758662464000656
  0.0012421422510684  0.7453880117340929  0.1251552009897038
  0.0001530061558059  0.7505175429195525  0.3741272212945237
  0.9985083918526457  0.7505913472188638  0.6246136893925276
  0.9992586679094492  0.7518557441349351  0.8762560478563308
  0.7499656260130320  0.4958515704321069  0.1255087145298589
  0.7504142907122940  0.5007489523897816  0.3744982204203029
  0.7490257052001926  0.5009809876139318  0.6247475150386254
  0.7493024310248583  0.5025360229565826  0.8762890444954733
  0.5003394131364888  0.7454742306466023  0.1254692591222256
  0.4998021314800167  0.7508678762108997  0.3742408778884866
  0.4984637037503540  0.7502874712216959  0.6250134923087914
  0.4991430077455848  0.7522975550826141  0.8763637598651087
  0.2498671636937421  0.9958062745598193  0.1256584995651417
  0.2507171704424603  0.0010437851112725  0.3740927045660435
  0.2483439514327000  0.0003033867124754  0.6253208265559583
  0.2484805022154192  0.0017100484181383  0.8766823657700963
  0.7497692378773171  0.9953324029378453  0.1254317520678886
  0.7507678098238972  0.0008728215542296  0.3740422900361418
  0.7487732363959889  0.0004058184714516  0.6243675567806503
  0.7490858400708414  0.0018408708212527  0.8763642223081557
  0.9969934474803551  0.0145211022636237  0.0067987019047893
  0.0036828057132736  0.9815838880111191  0.2555497451251840
  0.9994694756365453  0.9814581851169885  0.5084371185201285
  0.9983169047641645  0.9812003067484211  0.7600235411102491
  0.4969443829311066  0.0143176177497426  0.0069456289480462
  0.5041286560572245  0.9816175670225950  0.2551772247334335
  0.4983391166983026  0.9814554788106191  0.5090772610524791
  0.4986717877712212  0.9819420679844381  0.7587146821579592
  0.2522273273247867  0.2643332625984699  0.0069031735907397
  0.2477744889089150  0.2330125532923963  0.2559961889507255
  0.2493668688317124  0.2312376193751819  0.5094703405401091
  0.2497810051435392  0.2307220511316507  0.7596178876704581
  0.9973765532669556  0.5144700280468343  0.0068969702580196
  0.0029924801356596  0.4827720004982058  0.2559526083128861
  0.9991533488673301  0.4807562670342751  0.5088115518733436
  0.9987907209599640  0.4820797841844012  0.7593638223237612
  0.7533253481549299  0.2655617280859669  0.0064978970687374
  0.7472941662311610  0.2328892113302594  0.2558873850698986
  0.7489746214088724  0.2313929256764839  0.5082122433322648
  0.7483741871053636  0.2308146247943549  0.7597999717327010
  0.4966730873617328  0.5153572418707381  0.0053038187231011
  0.5040714782126088  0.4823926149132769  0.2559513624523666
  0.4984987700924041  0.4807728888438061  0.5091828392122495
  0.4991245126289168  0.4801824688714839  0.7600953340995709
  0.2541585518262826  0.7657482918723657  0.0061037049506507
  0.2475311803676409  0.7325347988256814  0.2561511316871865
  0.2494298333889340  0.7308538150545105  0.5086170910101854
  0.2492002835043385  0.7318619087460868  0.7593410181067436
  0.7525965048097862  0.7643593460949941  0.0069889142649682
  0.7475785017031953  0.7327171041064171  0.2561961535217402
  0.7484255421573524  0.7312969615235301  0.5083082802950609
  0.7490737140900195  0.7321447699853503  0.7594086674156965
 
  0.00000000E+00  0.00000000E+00  0.00000000E+00
  0.00000000E+00  0.00000000E+00  0.00000000E+00
  0.00000000E+00  0.00000000E+00  0.00000000E+00
  0.00000000E+00  0.00000000E+00  0.00000000E+00
  0.00000000E+00  0.00000000E+00  0.00000000E+00
  0.00000000E+00  0.00000000E+00  0.00000000E+00
  0.00000000E+00  0.00000000E+00  0.00000000E+00
  0.00000000E+00  0.00000000E+00  0.00000000E+00
  0.00000000E+00  0.00000000E+00  0.00000000E+00
  0.00000000E+00  0.00000000E+00  0.00000000E+00
  0.00000000E+00  0.00000000E+00  0.00000000E+00
  0.00000000E+00  0.00000000E+00  0.00000000E+00
  0.00000000E+00  0.00000000E+00  0.00000000E+00
  0.00000000E+00  0.00000000E+00  0.00000000E+00
  0.00000000E+00  0.00000000E+00  0.00000000E+00
  0.00000000E+00  0.00000000E+00  0.00000000E+00
  0.00000000E+00  0.00000000E+00  0.00000000E+00
  0.00000000E+00  0.00000000E+00  0.00000000E+00
  0.00000000E+00  0.00000000E+00  0.00000000E+00
  0.00000000E+00  0.00000000E+00  0.00000000E+00
  0.00000000E+00  0.00000000E+00  0.00000000E+00
  0.00000000E+00  0.00000000E+00  0.00000000E+00
  0.00000000E+00  0.00000000E+00  0.00000000E+00
  0.00000000E+00  0.00000000E+00  0.00000000E+00
  0.00000000E+00  0.00000000E+00  0.00000000E+00
  0.00000000E+00  0.00000000E+00  0.00000000E+00
  0.00000000E+00  0.00000000E+00  0.00000000E+00
  0.00000000E+00  0.00000000E+00  0.00000000E+00
  0.00000000E+00  0.00000000E+00  0.00000000E+00
  0.00000000E+00  0.00000000E+00  0.00000000E+00
  0.00000000E+00  0.00000000E+00  0.00000000E+00
  0.00000000E+00  0.00000000E+00  0.00000000E+00
  0.00000000E+00  0.00000000E+00  0.00000000E+00
  0.00000000E+00  0.00000000E+00  0.00000000E+00
  0.00000000E+00  0.00000000E+00  0.00000000E+00
  0.00000000E+00  0.00000000E+00  0.00000000E+00
  0.00000000E+00  0.00000000E+00  0.00000000E+00
  0.00000000E+00  0.00000000E+00  0.00000000E+00
  0.00000000E+00  0.00000000E+00  0.00000000E+00
  0.00000000E+00  0.00000000E+00  0.00000000E+00
  0.00000000E+00  0.00000000E+00  0.00000000E+00
  0.00000000E+00  0.00000000E+00  0.00000000E+00
  0.00000000E+00  0.00000000E+00  0.00000000E+00
  0.00000000E+00  0.00000000E+00  0.00000000E+00
  0.00000000E+00  0.00000000E+00  0.00000000E+00
  0.00000000E+00  0.00000000E+00  0.00000000E+00
  0.00000000E+00  0.00000000E+00  0.00000000E+00
  0.00000000E+00  0.00000000E+00  0.00000000E+00
  0.00000000E+00  0.00000000E+00  0.00000000E+00
  0.00000000E+00  0.00000000E+00  0.00000000E+00
  0.00000000E+00  0.00000000E+00  0.00000000E+00
  0.00000000E+00  0.00000000E+00  0.00000000E+00
  0.00000000E+00  0.00000000E+00  0.00000000E+00
  0.00000000E+00  0.00000000E+00  0.00000000E+00
  0.00000000E+00  0.00000000E+00  0.00000000E+00
  0.00000000E+00  0.00000000E+00  0.00000000E+00
  0.00000000E+00  0.00000000E+00  0.00000000E+00
  0.00000000E+00  0.00000000E+00  0.00000000E+00
  0.00000000E+00  0.00000000E+00  0.00000000E+00
  0.00000000E+00  0.00000000E+00  0.00000000E+00
  0.00000000E+00  0.00000000E+00  0.00000000E+00
  0.00000000E+00  0.00000000E+00  0.00000000E+00
  0.00000000E+00  0.00000000E+00  0.00000000E+00
  0.00000000E+00  0.00000000E+00  0.00000000E+00
  0.00000000E+00  0.00000000E+00  0.00000000E+00
  0.00000000E+00  0.00000000E+00  0.00000000E+00
  0.00000000E+00  0.00000000E+00  0.00000000E+00
  0.00000000E+00  0.00000000E+00  0.00000000E+00
  0.00000000E+00  0.00000000E+00  0.00000000E+00
  0.00000000E+00  0.00000000E+00  0.00000000E+00
  0.00000000E+00  0.00000000E+00  0.00000000E+00
  0.00000000E+00  0.00000000E+00  0.00000000E+00
  0.00000000E+00  0.00000000E+00  0.00000000E+00
  0.00000000E+00  0.00000000E+00  0.00000000E+00
  0.00000000E+00  0.00000000E+00  0.00000000E+00
  0.00000000E+00  0.00000000E+00  0.00000000E+00
  0.00000000E+00  0.00000000E+00  0.00000000E+00
  0.00000000E+00  0.00000000E+00  0.00000000E+00
  0.00000000E+00  0.00000000E+00  0.00000000E+00
  0.00000000E+00  0.00000000E+00  0.00000000E+00
  0.00000000E+00  0.00000000E+00  0.00000000E+00
  0.00000000E+00  0.00000000E+00  0.00000000E+00
  0.00000000E+00  0.00000000E+00  0.00000000E+00
  0.00000000E+00  0.00000000E+00  0.00000000E+00
  0.00000000E+00  0.00000000E+00  0.00000000E+00
  0.00000000E+00  0.00000000E+00  0.00000000E+00
  0.00000000E+00  0.00000000E+00  0.00000000E+00
  0.00000000E+00  0.00000000E+00  0.00000000E+00
  0.00000000E+00  0.00000000E+00  0.00000000E+00
  0.00000000E+00  0.00000000E+00  0.00000000E+00
  0.00000000E+00  0.00000000E+00  0.00000000E+00
  0.00000000E+00  0.00000000E+00  0.00000000E+00
  0.00000000E+00  0.00000000E+00  0.00000000E+00
  0.00000000E+00  0.00000000E+00  0.00000000E+00
  0.00000000E+00  0.00000000E+00  0.00000000E+00
  0.00000000E+00  0.00000000E+00  0.00000000E+00
  0.00000000E+00  0.00000000E+00  0.00000000E+00
  0.00000000E+00  0.00000000E+00  0.00000000E+00
  0.00000000E+00  0.00000000E+00  0.00000000E+00
  0.00000000E+00  0.00000000E+00  0.00000000E+00
  0.00000000E+00  0.00000000E+00  0.00000000E+00
  0.00000000E+00  0.00000000E+00  0.00000000E+00
  0.00000000E+00  0.00000000E+00  0.00000000E+00
  0.00000000E+00  0.00000000E+00  0.00000000E+00
  0.00000000E+00  0.00000000E+00  0.00000000E+00
  0.00000000E+00  0.00000000E+00  0.00000000E+00
  0.00000000E+00  0.00000000E+00  0.00000000E+00
  0.00000000E+00  0.00000000E+00  0.00000000E+00
  0.00000000E+00  0.00000000E+00  0.00000000E+00
  0.00000000E+00  0.00000000E+00  0.00000000E+00
  0.00000000E+00  0.00000000E+00  0.00000000E+00
  0.00000000E+00  0.00000000E+00  0.00000000E+00
  0.00000000E+00  0.00000000E+00  0.00000000E+00
  0.00000000E+00  0.00000000E+00  0.00000000E+00
  0.00000000E+00  0.00000000E+00  0.00000000E+00
  0.00000000E+00  0.00000000E+00  0.00000000E+00
  0.00000000E+00  0.00000000E+00  0.00000000E+00
  0.00000000E+00  0.00000000E+00  0.00000000E+00
  0.00000000E+00  0.00000000E+00  0.00000000E+00
  0.00000000E+00  0.00000000E+00  0.00000000E+00
  0.00000000E+00  0.00000000E+00  0.00000000E+00
  0.00000000E+00  0.00000000E+00  0.00000000E+00
  0.00000000E+00  0.00000000E+00  0.00000000E+00
  0.00000000E+00  0.00000000E+00  0.00000000E+00
  0.00000000E+00  0.00000000E+00  0.00000000E+00
  0.00000000E+00  0.00000000E+00  0.00000000E+00
  0.00000000E+00  0.00000000E+00  0.00000000E+00
  0.00000000E+00  0.00000000E+00  0.00000000E+00
  0.00000000E+00  0.00000000E+00  0.00000000E+00
  0.00000000E+00  0.00000000E+00  0.00000000E+00
  0.00000000E+00  0.00000000E+00  0.00000000E+00
  0.00000000E+00  0.00000000E+00  0.00000000E+00
  0.00000000E+00  0.00000000E+00  0.00000000E+00
  0.00000000E+00  0.00000000E+00  0.00000000E+00
  0.00000000E+00  0.00000000E+00  0.00000000E+00
  0.00000000E+00  0.00000000E+00  0.00000000E+00
  0.00000000E+00  0.00000000E+00  0.00000000E+00
  0.00000000E+00  0.00000000E+00  0.00000000E+00
  0.00000000E+00  0.00000000E+00  0.00000000E+00
  0.00000000E+00  0.00000000E+00  0.00000000E+00
  0.00000000E+00  0.00000000E+00  0.00000000E+00
  0.00000000E+00  0.00000000E+00  0.00000000E+00
  0.00000000E+00  0.00000000E+00  0.00000000E+00
  0.00000000E+00  0.00000000E+00  0.00000000E+00
  0.00000000E+00  0.00000000E+00  0.00000000E+00
  0.00000000E+00  0.00000000E+00  0.00000000E+00
  0.00000000E+00  0.00000000E+00  0.00000000E+00
  0.00000000E+00  0.00000000E+00  0.00000000E+00
  0.00000000E+00  0.00000000E+00  0.00000000E+00
  0.00000000E+00  0.00000000E+00  0.00000000E+00
  0.00000000E+00  0.00000000E+00  0.00000000E+00
  0.00000000E+00  0.00000000E+00  0.00000000E+00
  0.00000000E+00  0.00000000E+00  0.00000000E+00
  0.00000000E+00  0.00000000E+00  0.00000000E+00
  0.00000000E+00  0.00000000E+00  0.00000000E+00
  0.00000000E+00  0.00000000E+00  0.00000000E+00
  0.00000000E+00  0.00000000E+00  0.00000000E+00
  0.00000000E+00  0.00000000E+00  0.00000000E+00
  0.00000000E+00  0.00000000E+00  0.00000000E+00
  0.00000000E+00  0.00000000E+00  0.00000000E+00
