Cl Tl Cd                                
   1.00000000000000     
    10.4992629999999991  -10.4992629999999991    0.0000000000000000
    10.4992629999999991   10.4992629999999991    0.0000000000000000
     0.0000000000000000    0.0000000000000000   20.9985259999999982
   Cd   Cl   Tl
    32    96    32
Direct
  0.0002110227084362  0.2500710781058494  0.1250291641683442
  0.0003135609915955  0.2497745449159041  0.3750195032344502
  0.0002210138838728  0.2499785393405712  0.6249054879340490
 -0.0005933657028214  0.2507560752510309  0.8749449168105167
  0.5005706536326949  0.2505611926805377  0.1249289785528360
  0.5002903583961399  0.2499320430730022  0.3749635857842662
  0.5002469829653566  0.2500721317490133  0.6250208023486910
  0.4993360851094997  0.2508049898651633  0.8748958422243257
  0.2500479514831066  0.5002390827721448  0.1250069643384651
  0.2503258089203065  0.4999672281882998  0.3749169194041552
  0.2502174255431328  0.5000663050948252  0.6250869433582399
  0.2493675018883842  0.5007556161016687  0.8751584547251098
  0.0005914359332299  0.7506690684435380  0.1249107098862456
  0.0006760872319512  0.7499730228662668  0.3745859384918095
  0.0002040672076175  0.7500133826483656  0.6249004413588212
 -0.0005284032197295  0.7507427221480768  0.8749422558894827
  0.7506575817082698  0.5003049229300903  0.1244998319493405
  0.7504073056580635  0.4998342262900602  0.3747745788214374
  0.7504153171299006  0.5001235314505441  0.6247782440603129
  0.7496164434010717  0.5007656867587973  0.8743441328822891
  0.5004668162626540  0.7503627164925236  0.1247600476188601
  0.5006410941588066  0.7501756217002010  0.3748996729524475
  0.5002698436966193  0.7499964638707299  0.6250574591084535
  0.4992612682289175  0.7508889235876836  0.8750233927706375
  0.2508317949610198  0.0008044103724604  0.1248833530218035
  0.2507389333245667 -0.0002876629041954  0.3747112949299592
  0.2503406836593960 -0.0000419791855835  0.6248367727869110
  0.2493654036860478  0.0006068882247094  0.8749341832696671
  0.7506030139952748  0.0005379580050951  0.1250402007370070
  0.7504094399068270 -0.0000679976784205  0.3750129222706505
  0.7502970360885635 -0.0000351190854453  0.6249409299339844
  0.7496180350787801  0.0006564814354273  0.8749254763582869
  0.0411707925866152  0.2501405399510698 -0.0002772716276141
 -0.0409518591282775  0.2499426750608431  0.2502930711929430
  0.0418609936894113  0.2503492293958777  0.4996779031781280
  0.9588045161020622  0.2500263623815500  0.7500612126797908
  0.4997616707383333  0.2918126372278481  0.0001147282245070
  0.5008735375952438  0.2089132570859623  0.2496066206154246
  0.5001184755658817  0.2911981033032050  0.5001828936403372
  0.5001743989345392  0.2092467016852089  0.7497731478875708
  0.2493983301384667  0.4589376973831498 -0.0001716208436099
  0.2502904836941788  0.5413053361400173  0.2501105807236267
  0.2509552569535001  0.4588832358903301  0.4997621369299253
  0.2501955809491200  0.5415987595743782  0.7504256199811037
  0.9994223567748487  0.7919360123806108  0.0002157532450737
  0.0007808085062439  0.7085549410438484  0.2494941921449319
  0.0009628433682153  0.7909128140666596  0.5000430655635210
  0.0002809949834027  0.7092676020872616  0.7496072439502224
  0.7089092380934071  0.5007875514637058 -0.0000902462085927
  0.7916660188525934  0.4994357962504762  0.2494585571879400
  0.7091280663929460  0.5002847516109004  0.5001231580252179
  0.7916760356964614  0.5005972180152026  0.7493582086319593
  0.5415754106078413  0.7502202691571965 -0.0004285909979105
  0.4594746749031453  0.7501520761210310  0.2500600802446514
  0.5416905658908907  0.7497061754047085  0.4997116786901429
  0.4585264286471414  0.7504887077577229  0.7504167170017546
  0.2087233861733966  0.0011202554703420  0.0003305238501053
  0.2923486687769932 -0.0001448702802433  0.2495280857881734
  0.2096146414481441 -0.0003095593085851  0.5000573323772989
  0.2910763356459258  0.0002065803623579  0.7497028773818575
  0.7507376901479254  0.9592305689470421 -0.0003220205786069
  0.7506596805215376  0.0415534079481868  0.2503583214531801
  0.7495998091706203 -0.0415220802085551  0.4998001662851475
  0.7505874495899084  0.0415796134575326  0.7501246947195421
  0.1462780699109733  0.1466265860013179  0.1459349015481729
  0.1049981612596616  0.1036604214408815  0.3542508350222099
  0.1457470447314315  0.1460900132862490  0.6455592271710637
  0.1040812628479378  0.1045313251064747  0.8541037501111388
  0.6467310918804478  0.1459421603839061  0.1040615742556988
  0.6042592547984206  0.1043305198500552  0.3957499654869896
  0.6463773190908872  0.1456891943362430  0.6041929487242467
  0.6039029690849363  0.1054124044628352  0.8957561926617669
  0.3541049030514393  0.3546753489159760  0.1457421662313242
  0.3964803343077590  0.3955305407814876  0.3540719536234331
  0.3539679130229285  0.3542932771721536  0.6458037565358996
  0.3958007565697974  0.3963678816666730  0.8542682895886731
  0.1464390625301395  0.6461153379259488  0.1039681471487991
  0.1042786590050496  0.6041683162197534  0.3956759823433298
  0.1468985530478668  0.6457364549154153  0.6043562064045912
  0.1032776333059718  0.6050737235510613  0.8957450474279475
  0.8543897327408423  0.3537986307289998  0.1040413990339985
  0.8959683430912299  0.3960142209988951  0.3957121923828359
  0.8547130461091849  0.3537963428901758  0.6040673646863627
  0.8953149138072685  0.3969344984053966  0.8954137357886028
  0.6458606354012412  0.6461144339769683  0.1456380321895332
  0.6050036191844315  0.6038915841275772  0.3540559188112348
  0.6460466114165506  0.6464251702870049  0.6458047592800529
  0.6041132497288562  0.6046615804262958  0.8541076552701330
  0.3549836919412296  0.8544024193061578  0.1039066217044654
  0.3965142115846292  0.8962003997907355  0.3956917912195988
  0.3549448805021381  0.8537332638293961  0.6042014446393753
  0.3951992256879056  0.8969065582198960  0.8959632972134047
  0.8543246315121773  0.8547034125454358  0.1459337064666456
  0.8970090140808620  0.8956509600474402  0.3544479888762997
  0.8541693747194585  0.8543724719554502  0.6454795916896122
  0.8960167016646509  0.8962163139905320  0.8539626449599336
  0.8999109922541622  0.1007108959867209  0.1084102340169613
  0.8590302323162263  0.1411972212018077  0.3995149382753486
  0.8995573031525164  0.1006319573965140  0.6080375774641346
  0.8580364410330235  0.1423703531518947  0.8990811150588159
  0.3924110600749643  0.1089006565900960  0.1005462935404349
  0.3512137702140433  0.1490875326775617  0.3916529294546435
  0.3920521114159343  0.1082471647352546  0.6010404734908854
  0.3504597181768871  0.1498123996754893  0.8914171895375098
  0.1006680720335249  0.3995211943140308  0.1417233349155612
  0.1421838785646005  0.3581075907268339  0.3510054030781852
  0.1012012676960253  0.3991377327087310  0.6417597671420843
  0.1412150957402465  0.3588730710590094  0.8510118232901769
  0.8919789610427691  0.6087620096562459  0.1007024531243365
  0.8515647796819181  0.6489140619408648  0.3913913639411286
  0.8922943309887641  0.6082222763816932  0.6006764383895165
  0.8504708280590810  0.6499241674520693  0.8914391281355575
  0.6086670632269530  0.3920474254502198  0.1486769613182534
  0.6496035648002683  0.3506752546198389  0.3584090727825920
  0.6086750831641374  0.3918583881753393  0.6487344575005930
  0.6487112145504368  0.3517672089549344  0.8578511023570407
  0.3993450405336924  0.6011707669308273  0.1083175531789436
  0.3590114785644302  0.6415949240529835  0.3987656940411137
  0.3998397009667078  0.6006011093106185  0.6084383104895656
  0.3579819532234241  0.6421194056980914  0.8994839219825439
  0.1091586630001184  0.8920093798392973  0.1488186776507600
  0.1501431371794480  0.8505269208407822  0.3581087211826421
  0.1087922600957595  0.8917144923868223  0.6487005550914062
  0.1488923531231527  0.8514025579905239  0.8582848041903444
  0.6015466582555884  0.8993920747726225  0.1415679729197002
  0.6425477814641448  0.8581217388695743  0.3507542213822094
  0.6012258092305114  0.8991242369542928  0.6420826052016455
  0.6412618409195548  0.8592842057139635  0.8510004192194834
 -0.0109346440724368  0.0113794811942384 -0.0185439565956490
 -0.0175585038899685  0.0180916512145620  0.2391348923944250
 -0.0094470275769749  0.0101141770228791  0.4815067517318133
 -0.0177591486028867  0.0184961693828192  0.7387821545999645
  0.5193107280178185  0.9820667252040988  0.0107663041694268
  0.5117660350711754  0.9894708902356905  0.2684362198795305
  0.5191028958980277 -0.0185668715573559  0.5111141159189991
  0.5102120030075676  0.9899949614735843  0.7684113582501538
  0.2606709634907129  0.2394696902168726  0.0183243347990765
  0.2692195625387239  0.2321286402728862  0.2609395827006805
  0.2613921844534361  0.2396204747876093  0.5183131339074822
  0.2674326300465722  0.2320935190835249  0.7607736339946842
  0.0184997075163141  0.4815600381050282  0.0107635645026049
  0.0109871751500342  0.4890872993968755  0.2686373204356550
  0.0189641107088278  0.4814226794444739  0.5108368379249048
  0.0108741307210000  0.4900611790713015  0.7683052315584665
  0.7309543209208981  0.2692714873357929  0.9886313221081103
  0.7395938427069657  0.2611455992246955  0.2314153214438611
  0.7320392526089815  0.2680769454714815  0.4891059690527410
  0.7395090640633266  0.2609390069763339  0.7315581456381736
  0.4896285673105995  0.5114050215015281 -0.0183762024673657
  0.4820426400285118  0.5187181424803791  0.2388547511711455
  0.4896706144575079  0.5106420652345997  0.4815233958862106
  0.4822098490009951  0.5182996394812587  0.7392232052695010
  0.2314814316055533  0.7694766780771790 -0.0109010190615214
  0.2402445634637877  0.7607067251594910  0.2310133363573315
  0.2324435106352849  0.7681227667925481  0.4890125519085440
  0.2392446184680049  0.7608228503475369  0.7316666417225177
  0.7611662841145052  0.7396961784379934  0.0183970813946210
  0.7687545386758398  0.7310316257338280  0.2606067526445242
  0.7610698223699850  0.7387808796094096  0.5179990361091781
  0.7681874808018085  0.7330000774927001  0.7607384054891543
 
  0.00000000E+00  0.00000000E+00  0.00000000E+00
  0.00000000E+00  0.00000000E+00  0.00000000E+00
  0.00000000E+00  0.00000000E+00  0.00000000E+00
  0.00000000E+00  0.00000000E+00  0.00000000E+00
  0.00000000E+00  0.00000000E+00  0.00000000E+00
  0.00000000E+00  0.00000000E+00  0.00000000E+00
  0.00000000E+00  0.00000000E+00  0.00000000E+00
  0.00000000E+00  0.00000000E+00  0.00000000E+00
  0.00000000E+00  0.00000000E+00  0.00000000E+00
  0.00000000E+00  0.00000000E+00  0.00000000E+00
  0.00000000E+00  0.00000000E+00  0.00000000E+00
  0.00000000E+00  0.00000000E+00  0.00000000E+00
  0.00000000E+00  0.00000000E+00  0.00000000E+00
  0.00000000E+00  0.00000000E+00  0.00000000E+00
  0.00000000E+00  0.00000000E+00  0.00000000E+00
  0.00000000E+00  0.00000000E+00  0.00000000E+00
  0.00000000E+00  0.00000000E+00  0.00000000E+00
  0.00000000E+00  0.00000000E+00  0.00000000E+00
  0.00000000E+00  0.00000000E+00  0.00000000E+00
  0.00000000E+00  0.00000000E+00  0.00000000E+00
  0.00000000E+00  0.00000000E+00  0.00000000E+00
  0.00000000E+00  0.00000000E+00  0.00000000E+00
  0.00000000E+00  0.00000000E+00  0.00000000E+00
  0.00000000E+00  0.00000000E+00  0.00000000E+00
  0.00000000E+00  0.00000000E+00  0.00000000E+00
  0.00000000E+00  0.00000000E+00  0.00000000E+00
  0.00000000E+00  0.00000000E+00  0.00000000E+00
  0.00000000E+00  0.00000000E+00  0.00000000E+00
  0.00000000E+00  0.00000000E+00  0.00000000E+00
  0.00000000E+00  0.00000000E+00  0.00000000E+00
  0.00000000E+00  0.00000000E+00  0.00000000E+00
  0.00000000E+00  0.00000000E+00  0.00000000E+00
  0.00000000E+00  0.00000000E+00  0.00000000E+00
  0.00000000E+00  0.00000000E+00  0.00000000E+00
  0.00000000E+00  0.00000000E+00  0.00000000E+00
  0.00000000E+00  0.00000000E+00  0.00000000E+00
  0.00000000E+00  0.00000000E+00  0.00000000E+00
  0.00000000E+00  0.00000000E+00  0.00000000E+00
  0.00000000E+00  0.00000000E+00  0.00000000E+00
  0.00000000E+00  0.00000000E+00  0.00000000E+00
  0.00000000E+00  0.00000000E+00  0.00000000E+00
  0.00000000E+00  0.00000000E+00  0.00000000E+00
  0.00000000E+00  0.00000000E+00  0.00000000E+00
  0.00000000E+00  0.00000000E+00  0.00000000E+00
  0.00000000E+00  0.00000000E+00  0.00000000E+00
  0.00000000E+00  0.00000000E+00  0.00000000E+00
  0.00000000E+00  0.00000000E+00  0.00000000E+00
  0.00000000E+00  0.00000000E+00  0.00000000E+00
  0.00000000E+00  0.00000000E+00  0.00000000E+00
  0.00000000E+00  0.00000000E+00  0.00000000E+00
  0.00000000E+00  0.00000000E+00  0.00000000E+00
  0.00000000E+00  0.00000000E+00  0.00000000E+00
  0.00000000E+00  0.00000000E+00  0.00000000E+00
  0.00000000E+00  0.00000000E+00  0.00000000E+00
  0.00000000E+00  0.00000000E+00  0.00000000E+00
  0.00000000E+00  0.00000000E+00  0.00000000E+00
  0.00000000E+00  0.00000000E+00  0.00000000E+00
  0.00000000E+00  0.00000000E+00  0.00000000E+00
  0.00000000E+00  0.00000000E+00  0.00000000E+00
  0.00000000E+00  0.00000000E+00  0.00000000E+00
  0.00000000E+00  0.00000000E+00  0.00000000E+00
  0.00000000E+00  0.00000000E+00  0.00000000E+00
  0.00000000E+00  0.00000000E+00  0.00000000E+00
  0.00000000E+00  0.00000000E+00  0.00000000E+00
  0.00000000E+00  0.00000000E+00  0.00000000E+00
  0.00000000E+00  0.00000000E+00  0.00000000E+00
  0.00000000E+00  0.00000000E+00  0.00000000E+00
  0.00000000E+00  0.00000000E+00  0.00000000E+00
  0.00000000E+00  0.00000000E+00  0.00000000E+00
  0.00000000E+00  0.00000000E+00  0.00000000E+00
  0.00000000E+00  0.00000000E+00  0.00000000E+00
  0.00000000E+00  0.00000000E+00  0.00000000E+00
  0.00000000E+00  0.00000000E+00  0.00000000E+00
  0.00000000E+00  0.00000000E+00  0.00000000E+00
  0.00000000E+00  0.00000000E+00  0.00000000E+00
  0.00000000E+00  0.00000000E+00  0.00000000E+00
  0.00000000E+00  0.00000000E+00  0.00000000E+00
  0.00000000E+00  0.00000000E+00  0.00000000E+00
  0.00000000E+00  0.00000000E+00  0.00000000E+00
  0.00000000E+00  0.00000000E+00  0.00000000E+00
  0.00000000E+00  0.00000000E+00  0.00000000E+00
  0.00000000E+00  0.00000000E+00  0.00000000E+00
  0.00000000E+00  0.00000000E+00  0.00000000E+00
  0.00000000E+00  0.00000000E+00  0.00000000E+00
  0.00000000E+00  0.00000000E+00  0.00000000E+00
  0.00000000E+00  0.00000000E+00  0.00000000E+00
  0.00000000E+00  0.00000000E+00  0.00000000E+00
  0.00000000E+00  0.00000000E+00  0.00000000E+00
  0.00000000E+00  0.00000000E+00  0.00000000E+00
  0.00000000E+00  0.00000000E+00  0.00000000E+00
  0.00000000E+00  0.00000000E+00  0.00000000E+00
  0.00000000E+00  0.00000000E+00  0.00000000E+00
  0.00000000E+00  0.00000000E+00  0.00000000E+00
  0.00000000E+00  0.00000000E+00  0.00000000E+00
  0.00000000E+00  0.00000000E+00  0.00000000E+00
  0.00000000E+00  0.00000000E+00  0.00000000E+00
  0.00000000E+00  0.00000000E+00  0.00000000E+00
  0.00000000E+00  0.00000000E+00  0.00000000E+00
  0.00000000E+00  0.00000000E+00  0.00000000E+00
  0.00000000E+00  0.00000000E+00  0.00000000E+00
  0.00000000E+00  0.00000000E+00  0.00000000E+00
  0.00000000E+00  0.00000000E+00  0.00000000E+00
  0.00000000E+00  0.00000000E+00  0.00000000E+00
  0.00000000E+00  0.00000000E+00  0.00000000E+00
  0.00000000E+00  0.00000000E+00  0.00000000E+00
  0.00000000E+00  0.00000000E+00  0.00000000E+00
  0.00000000E+00  0.00000000E+00  0.00000000E+00
  0.00000000E+00  0.00000000E+00  0.00000000E+00
  0.00000000E+00  0.00000000E+00  0.00000000E+00
  0.00000000E+00  0.00000000E+00  0.00000000E+00
  0.00000000E+00  0.00000000E+00  0.00000000E+00
  0.00000000E+00  0.00000000E+00  0.00000000E+00
  0.00000000E+00  0.00000000E+00  0.00000000E+00
  0.00000000E+00  0.00000000E+00  0.00000000E+00
  0.00000000E+00  0.00000000E+00  0.00000000E+00
  0.00000000E+00  0.00000000E+00  0.00000000E+00
  0.00000000E+00  0.00000000E+00  0.00000000E+00
  0.00000000E+00  0.00000000E+00  0.00000000E+00
  0.00000000E+00  0.00000000E+00  0.00000000E+00
  0.00000000E+00  0.00000000E+00  0.00000000E+00
  0.00000000E+00  0.00000000E+00  0.00000000E+00
  0.00000000E+00  0.00000000E+00  0.00000000E+00
  0.00000000E+00  0.00000000E+00  0.00000000E+00
  0.00000000E+00  0.00000000E+00  0.00000000E+00
  0.00000000E+00  0.00000000E+00  0.00000000E+00
  0.00000000E+00  0.00000000E+00  0.00000000E+00
  0.00000000E+00  0.00000000E+00  0.00000000E+00
  0.00000000E+00  0.00000000E+00  0.00000000E+00
  0.00000000E+00  0.00000000E+00  0.00000000E+00
  0.00000000E+00  0.00000000E+00  0.00000000E+00
  0.00000000E+00  0.00000000E+00  0.00000000E+00
  0.00000000E+00  0.00000000E+00  0.00000000E+00
  0.00000000E+00  0.00000000E+00  0.00000000E+00
  0.00000000E+00  0.00000000E+00  0.00000000E+00
  0.00000000E+00  0.00000000E+00  0.00000000E+00
  0.00000000E+00  0.00000000E+00  0.00000000E+00
  0.00000000E+00  0.00000000E+00  0.00000000E+00
  0.00000000E+00  0.00000000E+00  0.00000000E+00
  0.00000000E+00  0.00000000E+00  0.00000000E+00
  0.00000000E+00  0.00000000E+00  0.00000000E+00
  0.00000000E+00  0.00000000E+00  0.00000000E+00
  0.00000000E+00  0.00000000E+00  0.00000000E+00
  0.00000000E+00  0.00000000E+00  0.00000000E+00
  0.00000000E+00  0.00000000E+00  0.00000000E+00
  0.00000000E+00  0.00000000E+00  0.00000000E+00
  0.00000000E+00  0.00000000E+00  0.00000000E+00
  0.00000000E+00  0.00000000E+00  0.00000000E+00
  0.00000000E+00  0.00000000E+00  0.00000000E+00
  0.00000000E+00  0.00000000E+00  0.00000000E+00
  0.00000000E+00  0.00000000E+00  0.00000000E+00
  0.00000000E+00  0.00000000E+00  0.00000000E+00
  0.00000000E+00  0.00000000E+00  0.00000000E+00
  0.00000000E+00  0.00000000E+00  0.00000000E+00
  0.00000000E+00  0.00000000E+00  0.00000000E+00
  0.00000000E+00  0.00000000E+00  0.00000000E+00
  0.00000000E+00  0.00000000E+00  0.00000000E+00
  0.00000000E+00  0.00000000E+00  0.00000000E+00
  0.00000000E+00  0.00000000E+00  0.00000000E+00
  0.00000000E+00  0.00000000E+00  0.00000000E+00
  0.00000000E+00  0.00000000E+00  0.00000000E+00
