Tl Cl Zn                                
   1.00000000000000     
     9.9268029999999996   -9.9268029999999996    0.0000000000000000
     9.9268029999999996    9.9268029999999996    0.0000000000000000
     0.0000000000000000    0.0000000000000000   19.8536050000000017
   Cl   Tl   Zn
    96    32    32
Direct
  0.0387775892937830  0.2561741309941070  0.9952529664123306
  0.9545133098361795  0.2403247873317095  0.2511077565715270
  0.0363286531885130  0.2527412511274146  0.5193373479114243
  0.9596918169124781  0.2352670893558365  0.7270200299153163
  0.4920056876339883  0.2232751336142189  0.0101233279635173
  0.4975505648435308  0.2259531051798866  0.2183143195388757
  0.5013895601903431  0.2425619612009689  0.4956873030940636
  0.4899336575396140  0.3129382734878274  0.7636241522712084
  0.2168346138517527  0.4885125955531630  0.0171929612274284
  0.2363213658908041  0.5111455854016088  0.2359380555449106
  0.2044605698771139  0.4737461722428722  0.5083497742474395
  0.3098700567113367  0.4914328994879437  0.7449733447430350
  0.9976437304640214  0.7620279492891078  0.0068553828205880
  0.0046126348982701  0.7983873496504393  0.2445919437726107
  0.0141727136257356  0.7147618350780303  0.5193949955512572
  0.9979423897449096  0.7507392212880507  0.7332636999671968
  0.7275878393653878  0.5631960834422438  0.0127366822694449
  0.7652733349156452  0.4614087933394211  0.2489996491459183
  0.7253687323662861  0.4909156492394839  0.4700446463485880
  0.7457364718996981  0.4708006879626994  0.7535059585964963
  0.5392043348770619  0.7444162445487358  0.9887957908904698
  0.4508665260178366  0.7423790980057088  0.2623614746999434
  0.5533259748476537  0.7104548403488531  0.4793708983480950
  0.4774771359353237  0.7674928073837205  0.7713443946437660
  0.2022069783223672  0.0437975051444069  0.9829021405103613
  0.2542887688709591  0.9756377634258990  0.2728611036865244
  0.2608169126999751  0.0251300389678086  0.4895176536620836
  0.2883342866646330  0.9484171819720053  0.7634159886697807
  0.7508490857184698  0.0209664447097171  0.9845808965696669
  0.8060376067855130  0.9933839132799774  0.2608815308390286
  0.6992509902086397  0.9488364228767358  0.4827113473745925
  0.7568562000714748  0.0294788731477211  0.7589406405716855
  0.0993416544234208  0.0954632352298403  0.1435038897299973
  0.1280383003786753  0.1688082836486926  0.3722977584103529
  0.1347225573330477  0.1230188424922481  0.6477395422512001
  0.1234927700550402  0.0992393479158119  0.8332540443122293
  0.6418069295169337  0.0744964068192010  0.1322820367247580
  0.6461076337243613  0.1207780236705132  0.3560544050113022
  0.6070079703299198  0.1728027766425673  0.6392371449563274
  0.6222543498055514  0.1605247477960004  0.8712993233251325
  0.3775830038555038  0.3910096369569664  0.1254959079572491
  0.3428897308938185  0.3520551068699284  0.3649484515845619
  0.3607676877342252  0.3414702242884243  0.6144396923769038
  0.3448657497230193  0.3628444103395051  0.9012432160899363
  0.0968158744542857  0.6340084602287326  0.1283052715622191
  0.1203965717248387  0.6539664442059206  0.3674171203950240
  0.1694406626483015  0.6315026743852822  0.6423945246521554
  0.1427328922416051  0.5869799757327220  0.8656669874981240
  0.8828517188505951  0.4094409515707689  0.1026117545400190
  0.8719310711330301  0.3405564266432400  0.3952505017946796
  0.8453878670470357  0.3520302511356648  0.5972008875916829
  0.8544858231995957  0.4106768782822739  0.8952302379510888
  0.5940342497843274  0.5990673690208471  0.1534791910398071
  0.6186381284732169  0.6177598856423437  0.3345633548113655
  0.6299685784101612  0.6716232569030935  0.6421251419445094
  0.6671199595863812  0.6433972704805269  0.8564640923631753
  0.4328871713608917  0.8724013796306090  0.1161842518820718
  0.3868181779978452  0.8508635808739103  0.4103286252743655
  0.3910276901252199  0.8362818351822647  0.6036317682969660
  0.3634633158060919  0.8853378583044714  0.9206580424383365
  0.8979252912168935  0.9112356165132156  0.1131805981838490
  0.8758300196147146  0.8429229317375884  0.3978051715498814
  0.8731149653839687  0.8624246786555637  0.6121065820346504
  0.8899768810718603  0.9047818472595716  0.8646455910543086
  0.8674706094826103  0.1604241504343680  0.1040116502538963
  0.8866042649922927  0.0937283035182406  0.4075161621468931
  0.8410236879713219  0.1070685881767661  0.6000778323772114
  0.8845618011578487  0.1629297252322459  0.8758531800955770
  0.3519461197133331  0.0945273420575142  0.1224853247537516
  0.3968712670785751  0.1209109473237464  0.3586846383580213
  0.3779984556764932  0.0915286895400720  0.6372752711158348
  0.3811282237724643  0.1313375063577129  0.8647221761128434
  0.1185909268451955  0.3451735038167703  0.1458818973440438
  0.0966126424413419  0.4201878680919116  0.3607335203263202
  0.1203266365253698  0.3971731307202065  0.6598499783855445
  0.1038291853682992  0.3573425129788375  0.8421706536161511
  0.8539173695300158  0.6511151689498180  0.1434922988812118
  0.8895830758326470  0.6039356973853039  0.3637425581868015
  0.8618120392381816  0.5950416517996974  0.6239994953274383
  0.9046508702169656  0.6496696295348715  0.8721739064578798
  0.6462739034124098  0.3681080237466995  0.1081687293592989
  0.5939822413836414  0.3562414675186792  0.3470151580236721
  0.6013246779349710  0.4323409728656443  0.6104167258554813
  0.5925231232418364  0.4064698626308786  0.9049030111003359
  0.3582707604906117  0.6512985783275034  0.1116786888716992
  0.3495122213147883  0.5987123486890581  0.3852439659314160
  0.4001846999518995  0.5815012077549632  0.5906513791444719
  0.3887092854510036  0.6158535213888424  0.8934130712297067
  0.1738544881473463  0.8599950904840156  0.1130336462908834
  0.1129754519909672  0.8923541755887392  0.4049033603339512
  0.1521156290990577  0.8821461009246502  0.6140990679018348
  0.1350044230485683  0.8438434589316131  0.8713625447449316
  0.6733007560025924  0.8203764663346075  0.1354965337456847
  0.6258341643902222  0.8800063623420507  0.3346462564405993
  0.6221339297941557  0.9176592324066636  0.6387134276702296
  0.6243110821771283  0.8937832135886357  0.8665346726255302
  0.9747876833591118  0.0296486298290097  0.9936381782644985
  0.0247456951116316  0.0195625758328151  0.2819102266412881
  0.0228492069802309  0.0245033793832357  0.5192121926319880
  0.9747212467307576  0.0071047815540293  0.7271408434004546
  0.5233310606992475  0.9971721691788292  0.0059158687359585
  0.4827098253154247  0.0007883589844285  0.2385368814180193
  0.4824170795705015  0.0065537613856460  0.5174838641414361
  0.5176047360835252  0.0233563251140440  0.7514086179670885
  0.2527325104834314  0.2633030941264233  0.0272803103882909
  0.2653900174424810  0.2229948312340909  0.2446737712823583
  0.2620072931077862  0.2392383200839084  0.4924488013687234
  0.2573907271916787  0.2566601059696215  0.7506007940912457
 -0.0019360724025732  0.5150585964018083  0.9915998866005807
  0.9943906969079666  0.4979988540003927  0.2303228421432593
  0.9704994018351674  0.4888646238870455  0.4926138769723925
  0.9792674063337861  0.5112108001010058  0.7624937287801049
  0.7546836184584378  0.2584356516538300  0.9897174485934047
  0.7305853421583743  0.2370740986977488  0.2335856528399960
  0.7359980272981029  0.2308107076995334  0.4898633895197247
  0.7460158877212371  0.2494524478963101  0.7524484092233285
  0.4930942573930474  0.5278000323808558  0.0180383806659116
  0.4585392818856016  0.4917791355365795  0.2609025569865160
  0.5038944970232789  0.4749293127210306  0.4666946052635609
  0.5300345121938662  0.5464145639555753  0.7565116415378697
  0.2291199525134005  0.7255699524463921  0.9919296029046116
  0.2308214862674045  0.7419187177098038  0.2432476089240800
  0.2435743977261896  0.7223642138717282  0.5000511859096292
  0.2570733183649853  0.7272294936082179  0.7663970425934442
  0.7566036211661716  0.7781804252832178  0.9788323025631559
  0.7773239296859196  0.7501312753537995  0.2701450763470408
  0.7783613651862819  0.7152718093439681  0.5094597841626388
  0.7581259329145783  0.7866427902666631  0.7435525061195385
  0.0013980834479757  0.2388451155836440  0.1306965693677054
  0.0079873913693265  0.2731119933213031  0.3602939409262867
  0.0036686283039991  0.2879213932394772  0.6261737503396164
  0.0344242987676806  0.2253640254062370  0.8804630972298614
  0.5038245270225479  0.2882185197314159  0.1149786361761320
  0.5157157341725016  0.2243204245211203  0.3825466301010138
  0.5132819229400750  0.2995883227899158  0.6469965336039241
  0.4936870322411948  0.2680996963576318  0.8827009460565600
  0.2498260997905940  0.5285435594723873  0.1241483083917851
  0.2461333637093969  0.4757189380258696  0.3935132932401990
  0.2616318066719612  0.4894397476596257  0.6241099421856031
  0.2781018524155513  0.5013752201457193  0.8608017845286218
  0.9819305175165440  0.7588271851941298  0.1265528002940080
  0.0114250982857145  0.7683766878064080  0.3655649486586965
  0.0444171167252283  0.7484349617861444  0.6268175174893065
  0.9921761128712463  0.7799542711576168  0.8854306403668816
  0.7540029098698973  0.5090749594576633  0.1264555729418759
  0.7494348056847857  0.5185591080966439  0.3590626499221479
  0.7563944538372720  0.4768468701554628  0.6403207118974149
  0.7287542808122672  0.5077610262841930  0.8988291799107283
  0.5172100123850455  0.7459575609107491  0.1516962784322176
  0.5239236059719116  0.7631127456297491  0.3690048103667611
  0.4962261269514577  0.7215721543435221  0.5923836458373779
  0.4878244229766545  0.7794964108169840  0.8835728650021557
  0.2255726785353353  0.0067211875145624  0.0970131757404450
  0.2680069763458545  0.9627958637349481  0.3846829076091688
  0.2449197321460114  0.0066617714821469  0.6583318207032681
  0.2632975870811781  0.0113441367014496  0.8741190093130774
  0.7510843304319479  0.9632303114054342  0.1527326876261903
  0.7609092515520290  0.9975895185155668  0.3789309464164566
  0.7566041742503601  0.9734264936554086  0.5921602747918420
  0.7424257665615311  0.0155231810273222  0.8716511945740014
 
  0.00000000E+00  0.00000000E+00  0.00000000E+00
  0.00000000E+00  0.00000000E+00  0.00000000E+00
  0.00000000E+00  0.00000000E+00  0.00000000E+00
  0.00000000E+00  0.00000000E+00  0.00000000E+00
  0.00000000E+00  0.00000000E+00  0.00000000E+00
  0.00000000E+00  0.00000000E+00  0.00000000E+00
  0.00000000E+00  0.00000000E+00  0.00000000E+00
  0.00000000E+00  0.00000000E+00  0.00000000E+00
  0.00000000E+00  0.00000000E+00  0.00000000E+00
  0.00000000E+00  0.00000000E+00  0.00000000E+00
  0.00000000E+00  0.00000000E+00  0.00000000E+00
  0.00000000E+00  0.00000000E+00  0.00000000E+00
  0.00000000E+00  0.00000000E+00  0.00000000E+00
  0.00000000E+00  0.00000000E+00  0.00000000E+00
  0.00000000E+00  0.00000000E+00  0.00000000E+00
  0.00000000E+00  0.00000000E+00  0.00000000E+00
  0.00000000E+00  0.00000000E+00  0.00000000E+00
  0.00000000E+00  0.00000000E+00  0.00000000E+00
  0.00000000E+00  0.00000000E+00  0.00000000E+00
  0.00000000E+00  0.00000000E+00  0.00000000E+00
  0.00000000E+00  0.00000000E+00  0.00000000E+00
  0.00000000E+00  0.00000000E+00  0.00000000E+00
  0.00000000E+00  0.00000000E+00  0.00000000E+00
  0.00000000E+00  0.00000000E+00  0.00000000E+00
  0.00000000E+00  0.00000000E+00  0.00000000E+00
  0.00000000E+00  0.00000000E+00  0.00000000E+00
  0.00000000E+00  0.00000000E+00  0.00000000E+00
  0.00000000E+00  0.00000000E+00  0.00000000E+00
  0.00000000E+00  0.00000000E+00  0.00000000E+00
  0.00000000E+00  0.00000000E+00  0.00000000E+00
  0.00000000E+00  0.00000000E+00  0.00000000E+00
  0.00000000E+00  0.00000000E+00  0.00000000E+00
  0.00000000E+00  0.00000000E+00  0.00000000E+00
  0.00000000E+00  0.00000000E+00  0.00000000E+00
  0.00000000E+00  0.00000000E+00  0.00000000E+00
  0.00000000E+00  0.00000000E+00  0.00000000E+00
  0.00000000E+00  0.00000000E+00  0.00000000E+00
  0.00000000E+00  0.00000000E+00  0.00000000E+00
  0.00000000E+00  0.00000000E+00  0.00000000E+00
  0.00000000E+00  0.00000000E+00  0.00000000E+00
  0.00000000E+00  0.00000000E+00  0.00000000E+00
  0.00000000E+00  0.00000000E+00  0.00000000E+00
  0.00000000E+00  0.00000000E+00  0.00000000E+00
  0.00000000E+00  0.00000000E+00  0.00000000E+00
  0.00000000E+00  0.00000000E+00  0.00000000E+00
  0.00000000E+00  0.00000000E+00  0.00000000E+00
  0.00000000E+00  0.00000000E+00  0.00000000E+00
  0.00000000E+00  0.00000000E+00  0.00000000E+00
  0.00000000E+00  0.00000000E+00  0.00000000E+00
  0.00000000E+00  0.00000000E+00  0.00000000E+00
  0.00000000E+00  0.00000000E+00  0.00000000E+00
  0.00000000E+00  0.00000000E+00  0.00000000E+00
  0.00000000E+00  0.00000000E+00  0.00000000E+00
  0.00000000E+00  0.00000000E+00  0.00000000E+00
  0.00000000E+00  0.00000000E+00  0.00000000E+00
  0.00000000E+00  0.00000000E+00  0.00000000E+00
  0.00000000E+00  0.00000000E+00  0.00000000E+00
  0.00000000E+00  0.00000000E+00  0.00000000E+00
  0.00000000E+00  0.00000000E+00  0.00000000E+00
  0.00000000E+00  0.00000000E+00  0.00000000E+00
  0.00000000E+00  0.00000000E+00  0.00000000E+00
  0.00000000E+00  0.00000000E+00  0.00000000E+00
  0.00000000E+00  0.00000000E+00  0.00000000E+00
  0.00000000E+00  0.00000000E+00  0.00000000E+00
  0.00000000E+00  0.00000000E+00  0.00000000E+00
  0.00000000E+00  0.00000000E+00  0.00000000E+00
  0.00000000E+00  0.00000000E+00  0.00000000E+00
  0.00000000E+00  0.00000000E+00  0.00000000E+00
  0.00000000E+00  0.00000000E+00  0.00000000E+00
  0.00000000E+00  0.00000000E+00  0.00000000E+00
  0.00000000E+00  0.00000000E+00  0.00000000E+00
  0.00000000E+00  0.00000000E+00  0.00000000E+00
  0.00000000E+00  0.00000000E+00  0.00000000E+00
  0.00000000E+00  0.00000000E+00  0.00000000E+00
  0.00000000E+00  0.00000000E+00  0.00000000E+00
  0.00000000E+00  0.00000000E+00  0.00000000E+00
  0.00000000E+00  0.00000000E+00  0.00000000E+00
  0.00000000E+00  0.00000000E+00  0.00000000E+00
  0.00000000E+00  0.00000000E+00  0.00000000E+00
  0.00000000E+00  0.00000000E+00  0.00000000E+00
  0.00000000E+00  0.00000000E+00  0.00000000E+00
  0.00000000E+00  0.00000000E+00  0.00000000E+00
  0.00000000E+00  0.00000000E+00  0.00000000E+00
  0.00000000E+00  0.00000000E+00  0.00000000E+00
  0.00000000E+00  0.00000000E+00  0.00000000E+00
  0.00000000E+00  0.00000000E+00  0.00000000E+00
  0.00000000E+00  0.00000000E+00  0.00000000E+00
  0.00000000E+00  0.00000000E+00  0.00000000E+00
  0.00000000E+00  0.00000000E+00  0.00000000E+00
  0.00000000E+00  0.00000000E+00  0.00000000E+00
  0.00000000E+00  0.00000000E+00  0.00000000E+00
  0.00000000E+00  0.00000000E+00  0.00000000E+00
  0.00000000E+00  0.00000000E+00  0.00000000E+00
  0.00000000E+00  0.00000000E+00  0.00000000E+00
  0.00000000E+00  0.00000000E+00  0.00000000E+00
  0.00000000E+00  0.00000000E+00  0.00000000E+00
  0.00000000E+00  0.00000000E+00  0.00000000E+00
  0.00000000E+00  0.00000000E+00  0.00000000E+00
  0.00000000E+00  0.00000000E+00  0.00000000E+00
  0.00000000E+00  0.00000000E+00  0.00000000E+00
  0.00000000E+00  0.00000000E+00  0.00000000E+00
  0.00000000E+00  0.00000000E+00  0.00000000E+00
  0.00000000E+00  0.00000000E+00  0.00000000E+00
  0.00000000E+00  0.00000000E+00  0.00000000E+00
  0.00000000E+00  0.00000000E+00  0.00000000E+00
  0.00000000E+00  0.00000000E+00  0.00000000E+00
  0.00000000E+00  0.00000000E+00  0.00000000E+00
  0.00000000E+00  0.00000000E+00  0.00000000E+00
  0.00000000E+00  0.00000000E+00  0.00000000E+00
  0.00000000E+00  0.00000000E+00  0.00000000E+00
  0.00000000E+00  0.00000000E+00  0.00000000E+00
  0.00000000E+00  0.00000000E+00  0.00000000E+00
  0.00000000E+00  0.00000000E+00  0.00000000E+00
  0.00000000E+00  0.00000000E+00  0.00000000E+00
  0.00000000E+00  0.00000000E+00  0.00000000E+00
  0.00000000E+00  0.00000000E+00  0.00000000E+00
  0.00000000E+00  0.00000000E+00  0.00000000E+00
  0.00000000E+00  0.00000000E+00  0.00000000E+00
  0.00000000E+00  0.00000000E+00  0.00000000E+00
  0.00000000E+00  0.00000000E+00  0.00000000E+00
  0.00000000E+00  0.00000000E+00  0.00000000E+00
  0.00000000E+00  0.00000000E+00  0.00000000E+00
  0.00000000E+00  0.00000000E+00  0.00000000E+00
  0.00000000E+00  0.00000000E+00  0.00000000E+00
  0.00000000E+00  0.00000000E+00  0.00000000E+00
  0.00000000E+00  0.00000000E+00  0.00000000E+00
  0.00000000E+00  0.00000000E+00  0.00000000E+00
  0.00000000E+00  0.00000000E+00  0.00000000E+00
  0.00000000E+00  0.00000000E+00  0.00000000E+00
  0.00000000E+00  0.00000000E+00  0.00000000E+00
  0.00000000E+00  0.00000000E+00  0.00000000E+00
  0.00000000E+00  0.00000000E+00  0.00000000E+00
  0.00000000E+00  0.00000000E+00  0.00000000E+00
  0.00000000E+00  0.00000000E+00  0.00000000E+00
  0.00000000E+00  0.00000000E+00  0.00000000E+00
  0.00000000E+00  0.00000000E+00  0.00000000E+00
  0.00000000E+00  0.00000000E+00  0.00000000E+00
  0.00000000E+00  0.00000000E+00  0.00000000E+00
  0.00000000E+00  0.00000000E+00  0.00000000E+00
  0.00000000E+00  0.00000000E+00  0.00000000E+00
  0.00000000E+00  0.00000000E+00  0.00000000E+00
  0.00000000E+00  0.00000000E+00  0.00000000E+00
  0.00000000E+00  0.00000000E+00  0.00000000E+00
  0.00000000E+00  0.00000000E+00  0.00000000E+00
  0.00000000E+00  0.00000000E+00  0.00000000E+00
  0.00000000E+00  0.00000000E+00  0.00000000E+00
  0.00000000E+00  0.00000000E+00  0.00000000E+00
  0.00000000E+00  0.00000000E+00  0.00000000E+00
  0.00000000E+00  0.00000000E+00  0.00000000E+00
  0.00000000E+00  0.00000000E+00  0.00000000E+00
  0.00000000E+00  0.00000000E+00  0.00000000E+00
  0.00000000E+00  0.00000000E+00  0.00000000E+00
  0.00000000E+00  0.00000000E+00  0.00000000E+00
  0.00000000E+00  0.00000000E+00  0.00000000E+00
  0.00000000E+00  0.00000000E+00  0.00000000E+00
  0.00000000E+00  0.00000000E+00  0.00000000E+00
  0.00000000E+00  0.00000000E+00  0.00000000E+00
  0.00000000E+00  0.00000000E+00  0.00000000E+00
  0.00000000E+00  0.00000000E+00  0.00000000E+00
  0.00000000E+00  0.00000000E+00  0.00000000E+00
