I Ba Rb                                 
   1.00000000000000     
    13.5544829999999994  -13.5544829999999994    0.0000000000000000
    13.5544829999999994   13.5544829999999994    0.0000000000000000
     0.0000000000000000    0.0000000000000000   27.1089650000000013
   Ba   I    Rb
    32    96    32
Direct
  0.0043158658830877  0.0070116937861578  0.0036630897917672
  0.0050626699102276  0.9963822239664175  0.2511896751942967
  0.9928927020744704  0.9922885516536203  0.5015075130499296
  0.0002647193324933  0.9968930392008383  0.7483514850556117
  0.4938137490372426  0.0102719487678650  0.9976107701508543
  0.5034261866008911  0.9952960665769708  0.2516193330031369
  0.4985088432878501  0.9962569643660120  0.4967644872675870
  0.4995579396888347  0.9931054378025931  0.7484421086262543
  0.2532961852919596  0.2634125868468716  0.0060200459826486
  0.2474862990353940  0.2500134928857262  0.2561635404538981
  0.2436029324867009  0.2483709325460268  0.5017922163172094
  0.2476873609205555  0.2459026359073700  0.7512618382160666
  0.0030477569416902  0.5038229240770673  0.9969961684925506
 -0.0001016154984822  0.5008188968370986  0.2479910967639778
  0.0048274992102185  0.5010723064143129  0.5041897812489430
  0.9968395038555422  0.4991539806204467  0.7547721547054194
  0.7548385580310200  0.2591217315684545  0.9924656165124549
  0.7588730139238308  0.2559189230260655  0.2425413669106738
  0.7453234794047382  0.2510707507970775  0.4963045299752354
  0.7477607587192628  0.2405544671319391  0.7470420345715054
  0.5035501173956182  0.5122484410763104  0.0012077195668913
  0.5109924093686876  0.5036692180483622  0.2468191442488759
  0.5018955967889595  0.4945271259075338  0.5001388992226795
  0.5009497247913753  0.4867672719733039  0.7475097977551706
  0.2542316056984179  0.7572683883821715  0.0006597829968413
  0.2503676510824654  0.7494225042747908  0.2489534969280124
  0.2501343995398739  0.7405717195511157  0.4980855246299196
  0.2508716007256163  0.7464308658433696  0.7469392436522168
  0.7524265520889136  0.7575033789678727  0.9991806998640371
  0.7538726149995786  0.7472387295762379  0.2487902334834733
  0.7482234093645633  0.7492436485174713  0.5085138404575138
  0.7426929044958930  0.7469151966103766  0.7533590468507131
  0.1589651898340961  0.1070586579346965  0.9826026838841841
  0.1030579999030916  0.1448701570183055  0.2835801698948438
  0.1239265761808236  0.1137885186796188  0.4673091309986047
  0.0973758537170293  0.1481318531128556  0.7822266275068844
  0.6476518121246136  0.1147313421353023  0.0186402131049247
  0.6165516212301749  0.1394454103830245  0.2242350255345293
  0.6328788876915122  0.1128939915732224  0.5320942866218282
  0.6116448941980011  0.1288781701780298  0.7109402579396684
  0.3577352559091451  0.4096167785141036  0.0322759172699418
  0.4024390505863248  0.3541421566726387  0.2429927351644276
  0.3619785439269277  0.3819422553605600  0.5354450193664386
  0.3950132528168063  0.3438303741446788  0.7192655621633779
  0.1415140084966362  0.6170123593348198  0.0306587403887830
  0.1067699870266002  0.6444189482948989  0.2177417833844827
  0.1530633976224059  0.5968242282294057  0.5388179771826310
  0.0920162257618903  0.6549821102812154  0.7405555449833455
  0.8594858001482152  0.4014729530147573  0.9572507488765465
  0.9236271505734237  0.3339010383774901  0.2520335538452320
  0.8454845153446899  0.4075595664657908  0.4837592641719093
  0.8863640511846981  0.3554471387478943  0.7672538825154921
  0.6394174314628414  0.6227920020501448  0.9604561663076570
  0.5884057646192744  0.6688695189871667  0.2600447080380602
  0.6603574418955864  0.5892637567386805  0.4869513108096444
  0.6077955143444976  0.6275919636568070  0.7821413716466631
  0.3359212330559975  0.9202671085043559  0.9748683884886121
  0.4112084438577699  0.8383374563234269  0.2679909350140540
  0.3653390359848447  0.8755832349532614  0.4598403298134698
  0.4131448093982546  0.8298229414824518  0.7608073941988066
  0.8462737554744393  0.9182738695920281  0.0232137757566245
  0.9139153176282634  0.8373213664769323  0.2460102282233440
  0.8528410221562510  0.8915825188928074  0.5421837910261605
  0.9008296117849828  0.8422274783640276  0.7333862435928858
  0.9156769730888016  0.1676568203777425  0.0029362387920084
  0.8535571598102317  0.0978510367415569  0.2201011505865769
  0.8972139582452993  0.1494247174231141  0.5146837831445802
  0.8678331678986209  0.1106310714223710  0.7078876821997456
  0.4136693831278781  0.1750389879930339  0.9965761319691199
  0.3730911227053672  0.1193234990267463  0.2738635807572232
  0.3709920642371760  0.1225482801395382  0.4743036644493216
  0.3401790036357329  0.0871485125289216  0.7672977703140346
  0.1093550777195247  0.3662665287312926  0.0403144429080450
  0.1595642822266920  0.4090554793056047  0.2388728859799440
  0.0900990905055530  0.3425765164651028  0.5207698406457945
  0.1534001606565768  0.4029748668808537  0.7317562437618897
  0.9114423181947338  0.6652059983557258  0.9791603842427593
  0.8394611563328446  0.5868008444956185  0.2612235680874856
  0.9063579754601516  0.6564807544591554  0.4968941930015689
  0.8592448947181529  0.6121555812581818  0.7910152148621230
  0.6152268813726608  0.3742910902539683  0.9683166377674671
  0.6639609032648299  0.4087868739947455  0.2541903503978167
  0.5838442656926027  0.3332998446548645  0.4758118001999850
  0.6239537186407123  0.3655651189136782  0.7898992153500997
  0.4146922944907321  0.6713529000772995  0.0090831104609485
  0.3520700624124090  0.5958994350449092  0.2197065206398084
  0.4095361525497304  0.6517490808021230  0.5173692209931184
  0.3466605814166606  0.5883289054495030  0.7308247741274775
  0.1063148036590180  0.8593453335137319  0.0230079176994627
  0.1465924065155797  0.8902008218069947  0.2872936536538025
  0.1061371375750591  0.8542937045057997  0.4669373981308581
  0.1592003227447735  0.9035803750409175  0.7601175687112386
  0.6192786304436991  0.8805889895358334  0.0213896545710538
  0.6633501902877150  0.9066237195283974  0.2341467334485688
  0.5947341107725201  0.8447748319143626  0.5186086626098065
  0.6339559285886828  0.8798308096361699  0.7089102834479335
  0.0468833308642600  0.0378389339248975  0.1286358880785534
  0.9401827021230915  0.0010240602731680  0.3748938254841230
  0.0532196060470539  0.0104004999521464  0.6237991595434356
  0.9982481861309248  0.9641909154396149  0.8768114732006945
  0.4573277172321712  0.0102638170050437  0.1258983916637065
  0.5529844097002852  0.0305480917263951  0.3740694566141541
  0.4447786726875492  0.9858256939782695  0.6221330680076618
  0.5426042781310626  0.0097539701333536  0.8736872454085922
  0.2591163144872647  0.2068322521846479  0.1306043575324371
  0.2754649692812572  0.3011477370886216  0.3792982354993144
  0.2203273785626993  0.1988430095747746  0.6267828698330671
  0.2741450248506795  0.2971613239433913  0.8761843765357157
  0.9531176852003298  0.5156493800173718  0.1215381677621344
  0.0073642530816805  0.5370697210967997  0.3755571296790698
  0.9521546078213192  0.5116753957473573  0.6292444309487004
  0.0561032488896221  0.4713468372957088  0.8756914112614057
  0.7798584690906633  0.2994149892237346  0.1175183301134860
  0.7748787935952575  0.2116009785067984  0.3692630129114688
  0.7341138088211864  0.2990015419311756  0.6219248183318086
  0.7742016818883035  0.1909485767914096  0.8715221965446771
  0.5555477719834662  0.5349657714282747  0.1231107048444311
  0.4671493123628668  0.5217827841750563  0.3732390297831822
  0.5549997202490857  0.4762635939737125  0.6243845480230055
  0.4458700095393102  0.4961615624772244  0.8743953167061896
  0.2844689719152908  0.7960090144102017  0.1262636493732949
  0.2626800896365652  0.6863460083003929  0.3717476519545845
  0.2688306480189049  0.7963734433330503  0.6216913093823017
  0.2639684258473869  0.7048079690033697  0.8741415313567528
  0.7757952083118755  0.7096642378485922  0.1227224906733535
  0.7767048903403918  0.7554398263144330  0.3787563358657753
  0.7608775009122994  0.6889274989752598  0.6313212397299975
  0.7630159294069364  0.8109251152489322  0.8749150824680078
  0.9692872702478450  0.2278871184357164  0.1324551002604098
  0.9763337385201527  0.1968686897509027  0.3854925248710188
  0.0210594700800296  0.2047412476927727  0.6163735223077187
  0.9610460666106537  0.2719708688535269  0.8788629234932073
  0.4529237692660536  0.2043211349168181  0.1464318436375813
  0.4630107364044951  0.2226663796701684  0.3750267602149794
  0.5374478067174076  0.2737973296734159  0.6128957501194381
  0.4744247534816433  0.2971506512460572  0.8886728570190829
  0.2258680517306568  0.4952830578943991  0.1215772317101145
  0.2825307538101181  0.4913800811916783  0.3314674648151167
  0.2587406391066526  0.4816714974493141  0.6288145832853786
  0.2479060754930973  0.4974073741972339  0.8408418203898728
  0.9949158866100840  0.7116503262473348  0.1059449258513416
  0.9789948353491275  0.7676425882358668  0.3715949072001458
  0.9571762282736705  0.7082542855787742  0.6347051159849004
  0.9538862475159031  0.7637159336002081  0.8571488436028650
  0.7555639486125250  0.5047903003161704  0.1479312097312283
  0.8050526232629071  0.5539305697397247  0.3942520636545051
  0.7551260545968298  0.4955720023115251  0.5944407870715367
  0.7262275618250686  0.4977752258029025  0.8703316279597710
  0.4682795176326240  0.7194400858089014  0.1467352371551513
  0.4568033788606445  0.7232797572556907  0.3818696280709980
  0.4694519899973769  0.7923503808355693  0.6225422282357912
  0.4658082620286757  0.6980432684922586  0.8694917974763073
  0.2397186535558815  0.9940275851205498  0.0872587509373297
  0.2316776484693263  0.9868439629621832  0.3952131093159481
  0.2508728910434340  0.9983356714759207  0.6541588388247280
  0.2110608241068545  0.0190645568239008  0.8656581624921876
  0.7202774778274756  0.0024929755621339  0.1194695829904118
  0.7460066055053522  0.0264444451427781  0.3292070900808923
  0.7332024816223984  0.0105093434111498  0.6290714474192289
  0.7281395054157743  0.9977561547201690  0.9209872011336797
 
  0.00000000E+00  0.00000000E+00  0.00000000E+00
  0.00000000E+00  0.00000000E+00  0.00000000E+00
  0.00000000E+00  0.00000000E+00  0.00000000E+00
  0.00000000E+00  0.00000000E+00  0.00000000E+00
  0.00000000E+00  0.00000000E+00  0.00000000E+00
  0.00000000E+00  0.00000000E+00  0.00000000E+00
  0.00000000E+00  0.00000000E+00  0.00000000E+00
  0.00000000E+00  0.00000000E+00  0.00000000E+00
  0.00000000E+00  0.00000000E+00  0.00000000E+00
  0.00000000E+00  0.00000000E+00  0.00000000E+00
  0.00000000E+00  0.00000000E+00  0.00000000E+00
  0.00000000E+00  0.00000000E+00  0.00000000E+00
  0.00000000E+00  0.00000000E+00  0.00000000E+00
  0.00000000E+00  0.00000000E+00  0.00000000E+00
  0.00000000E+00  0.00000000E+00  0.00000000E+00
  0.00000000E+00  0.00000000E+00  0.00000000E+00
  0.00000000E+00  0.00000000E+00  0.00000000E+00
  0.00000000E+00  0.00000000E+00  0.00000000E+00
  0.00000000E+00  0.00000000E+00  0.00000000E+00
  0.00000000E+00  0.00000000E+00  0.00000000E+00
  0.00000000E+00  0.00000000E+00  0.00000000E+00
  0.00000000E+00  0.00000000E+00  0.00000000E+00
  0.00000000E+00  0.00000000E+00  0.00000000E+00
  0.00000000E+00  0.00000000E+00  0.00000000E+00
  0.00000000E+00  0.00000000E+00  0.00000000E+00
  0.00000000E+00  0.00000000E+00  0.00000000E+00
  0.00000000E+00  0.00000000E+00  0.00000000E+00
  0.00000000E+00  0.00000000E+00  0.00000000E+00
  0.00000000E+00  0.00000000E+00  0.00000000E+00
  0.00000000E+00  0.00000000E+00  0.00000000E+00
  0.00000000E+00  0.00000000E+00  0.00000000E+00
  0.00000000E+00  0.00000000E+00  0.00000000E+00
  0.00000000E+00  0.00000000E+00  0.00000000E+00
  0.00000000E+00  0.00000000E+00  0.00000000E+00
  0.00000000E+00  0.00000000E+00  0.00000000E+00
  0.00000000E+00  0.00000000E+00  0.00000000E+00
  0.00000000E+00  0.00000000E+00  0.00000000E+00
  0.00000000E+00  0.00000000E+00  0.00000000E+00
  0.00000000E+00  0.00000000E+00  0.00000000E+00
  0.00000000E+00  0.00000000E+00  0.00000000E+00
  0.00000000E+00  0.00000000E+00  0.00000000E+00
  0.00000000E+00  0.00000000E+00  0.00000000E+00
  0.00000000E+00  0.00000000E+00  0.00000000E+00
  0.00000000E+00  0.00000000E+00  0.00000000E+00
  0.00000000E+00  0.00000000E+00  0.00000000E+00
  0.00000000E+00  0.00000000E+00  0.00000000E+00
  0.00000000E+00  0.00000000E+00  0.00000000E+00
  0.00000000E+00  0.00000000E+00  0.00000000E+00
  0.00000000E+00  0.00000000E+00  0.00000000E+00
  0.00000000E+00  0.00000000E+00  0.00000000E+00
  0.00000000E+00  0.00000000E+00  0.00000000E+00
  0.00000000E+00  0.00000000E+00  0.00000000E+00
  0.00000000E+00  0.00000000E+00  0.00000000E+00
  0.00000000E+00  0.00000000E+00  0.00000000E+00
  0.00000000E+00  0.00000000E+00  0.00000000E+00
  0.00000000E+00  0.00000000E+00  0.00000000E+00
  0.00000000E+00  0.00000000E+00  0.00000000E+00
  0.00000000E+00  0.00000000E+00  0.00000000E+00
  0.00000000E+00  0.00000000E+00  0.00000000E+00
  0.00000000E+00  0.00000000E+00  0.00000000E+00
  0.00000000E+00  0.00000000E+00  0.00000000E+00
  0.00000000E+00  0.00000000E+00  0.00000000E+00
  0.00000000E+00  0.00000000E+00  0.00000000E+00
  0.00000000E+00  0.00000000E+00  0.00000000E+00
  0.00000000E+00  0.00000000E+00  0.00000000E+00
  0.00000000E+00  0.00000000E+00  0.00000000E+00
  0.00000000E+00  0.00000000E+00  0.00000000E+00
  0.00000000E+00  0.00000000E+00  0.00000000E+00
  0.00000000E+00  0.00000000E+00  0.00000000E+00
  0.00000000E+00  0.00000000E+00  0.00000000E+00
  0.00000000E+00  0.00000000E+00  0.00000000E+00
  0.00000000E+00  0.00000000E+00  0.00000000E+00
  0.00000000E+00  0.00000000E+00  0.00000000E+00
  0.00000000E+00  0.00000000E+00  0.00000000E+00
  0.00000000E+00  0.00000000E+00  0.00000000E+00
  0.00000000E+00  0.00000000E+00  0.00000000E+00
  0.00000000E+00  0.00000000E+00  0.00000000E+00
  0.00000000E+00  0.00000000E+00  0.00000000E+00
  0.00000000E+00  0.00000000E+00  0.00000000E+00
  0.00000000E+00  0.00000000E+00  0.00000000E+00
  0.00000000E+00  0.00000000E+00  0.00000000E+00
  0.00000000E+00  0.00000000E+00  0.00000000E+00
  0.00000000E+00  0.00000000E+00  0.00000000E+00
  0.00000000E+00  0.00000000E+00  0.00000000E+00
  0.00000000E+00  0.00000000E+00  0.00000000E+00
  0.00000000E+00  0.00000000E+00  0.00000000E+00
  0.00000000E+00  0.00000000E+00  0.00000000E+00
  0.00000000E+00  0.00000000E+00  0.00000000E+00
  0.00000000E+00  0.00000000E+00  0.00000000E+00
  0.00000000E+00  0.00000000E+00  0.00000000E+00
  0.00000000E+00  0.00000000E+00  0.00000000E+00
  0.00000000E+00  0.00000000E+00  0.00000000E+00
  0.00000000E+00  0.00000000E+00  0.00000000E+00
  0.00000000E+00  0.00000000E+00  0.00000000E+00
  0.00000000E+00  0.00000000E+00  0.00000000E+00
  0.00000000E+00  0.00000000E+00  0.00000000E+00
  0.00000000E+00  0.00000000E+00  0.00000000E+00
  0.00000000E+00  0.00000000E+00  0.00000000E+00
  0.00000000E+00  0.00000000E+00  0.00000000E+00
  0.00000000E+00  0.00000000E+00  0.00000000E+00
  0.00000000E+00  0.00000000E+00  0.00000000E+00
  0.00000000E+00  0.00000000E+00  0.00000000E+00
  0.00000000E+00  0.00000000E+00  0.00000000E+00
  0.00000000E+00  0.00000000E+00  0.00000000E+00
  0.00000000E+00  0.00000000E+00  0.00000000E+00
  0.00000000E+00  0.00000000E+00  0.00000000E+00
  0.00000000E+00  0.00000000E+00  0.00000000E+00
  0.00000000E+00  0.00000000E+00  0.00000000E+00
  0.00000000E+00  0.00000000E+00  0.00000000E+00
  0.00000000E+00  0.00000000E+00  0.00000000E+00
  0.00000000E+00  0.00000000E+00  0.00000000E+00
  0.00000000E+00  0.00000000E+00  0.00000000E+00
  0.00000000E+00  0.00000000E+00  0.00000000E+00
  0.00000000E+00  0.00000000E+00  0.00000000E+00
  0.00000000E+00  0.00000000E+00  0.00000000E+00
  0.00000000E+00  0.00000000E+00  0.00000000E+00
  0.00000000E+00  0.00000000E+00  0.00000000E+00
  0.00000000E+00  0.00000000E+00  0.00000000E+00
  0.00000000E+00  0.00000000E+00  0.00000000E+00
  0.00000000E+00  0.00000000E+00  0.00000000E+00
  0.00000000E+00  0.00000000E+00  0.00000000E+00
  0.00000000E+00  0.00000000E+00  0.00000000E+00
  0.00000000E+00  0.00000000E+00  0.00000000E+00
  0.00000000E+00  0.00000000E+00  0.00000000E+00
  0.00000000E+00  0.00000000E+00  0.00000000E+00
  0.00000000E+00  0.00000000E+00  0.00000000E+00
  0.00000000E+00  0.00000000E+00  0.00000000E+00
  0.00000000E+00  0.00000000E+00  0.00000000E+00
  0.00000000E+00  0.00000000E+00  0.00000000E+00
  0.00000000E+00  0.00000000E+00  0.00000000E+00
  0.00000000E+00  0.00000000E+00  0.00000000E+00
  0.00000000E+00  0.00000000E+00  0.00000000E+00
  0.00000000E+00  0.00000000E+00  0.00000000E+00
  0.00000000E+00  0.00000000E+00  0.00000000E+00
  0.00000000E+00  0.00000000E+00  0.00000000E+00
  0.00000000E+00  0.00000000E+00  0.00000000E+00
  0.00000000E+00  0.00000000E+00  0.00000000E+00
  0.00000000E+00  0.00000000E+00  0.00000000E+00
  0.00000000E+00  0.00000000E+00  0.00000000E+00
  0.00000000E+00  0.00000000E+00  0.00000000E+00
  0.00000000E+00  0.00000000E+00  0.00000000E+00
  0.00000000E+00  0.00000000E+00  0.00000000E+00
  0.00000000E+00  0.00000000E+00  0.00000000E+00
  0.00000000E+00  0.00000000E+00  0.00000000E+00
  0.00000000E+00  0.00000000E+00  0.00000000E+00
  0.00000000E+00  0.00000000E+00  0.00000000E+00
  0.00000000E+00  0.00000000E+00  0.00000000E+00
  0.00000000E+00  0.00000000E+00  0.00000000E+00
  0.00000000E+00  0.00000000E+00  0.00000000E+00
  0.00000000E+00  0.00000000E+00  0.00000000E+00
  0.00000000E+00  0.00000000E+00  0.00000000E+00
  0.00000000E+00  0.00000000E+00  0.00000000E+00
  0.00000000E+00  0.00000000E+00  0.00000000E+00
  0.00000000E+00  0.00000000E+00  0.00000000E+00
  0.00000000E+00  0.00000000E+00  0.00000000E+00
  0.00000000E+00  0.00000000E+00  0.00000000E+00
  0.00000000E+00  0.00000000E+00  0.00000000E+00
  0.00000000E+00  0.00000000E+00  0.00000000E+00
  0.00000000E+00  0.00000000E+00  0.00000000E+00
  0.00000000E+00  0.00000000E+00  0.00000000E+00
