Rb Tl  F                                
   1.00000000000000     
     9.3633939999999996   -9.3633939999999996    0.0000000000000000
     9.3633939999999996    9.3633939999999996    0.0000000000000000
     0.0000000000000000    0.0000000000000000   18.7267879999999991
   Rb   Tl   F 
    32    32    96
Direct
  0.9939548352866638  0.9936746776704865  0.9945243889160806
  0.9919633512466081  0.9992570866275428  0.2535630248333873
  0.0089882272270032  0.9982215195166206  0.5050746539392850
  0.9947142267266456  0.9992010363790376  0.7664481544030103
  0.4989279715740365  0.9934967332241104  0.9955065246815581
  0.4835365256751981  0.9939514447385175  0.2401177638820776
  0.4839118262708879  0.0240450847629692  0.4954927983246499
  0.4943372579282189  0.0066776742791431  0.7454093561607704
  0.2315262105888102  0.2446728748811711  0.9914903388603071
  0.2246923797422882  0.2409638917489041  0.2649299398208163
  0.2634718884698055  0.2810485589737078  0.5035891193319324
  0.2644598265373286  0.2693575990424244  0.7360908044958077
  0.0048533043845444  0.4949701808063851  0.0041038197556620
  0.9952025026186779  0.5134292867823301  0.2511345688664781
  0.0026838794529672  0.4990809203919710  0.4814156149847706
  0.0057177911347439  0.5014707346214596  0.7461210048428848
  0.7730702619825284  0.2588244146403914  0.9846367756722825
  0.7665199645362480  0.2551021456166957  0.2570521829542757
  0.7379222263543714  0.2304213688491075  0.5133430710696446
  0.7385781903619337  0.2199469286703257  0.7463137365419841
  0.5104873089677932  0.5061292670311427  0.0049976567329153
  0.4983849010320198  0.5063484061051846  0.2533235190696188
  0.5109094197525729  0.4897097900184607  0.5056870037849296
  0.5277138186306082  0.4754757558331150  0.7510286292633268
  0.2559013436699892  0.7348656132688325  0.0218243275322986
  0.2443625721690499  0.7369089569791960  0.2493892486022679
  0.2426606089611384  0.7598571620343390  0.4926866886263745
  0.2633831690062808  0.7496221965195160  0.7541532598790831
  0.7484967323007078  0.7622638065873866 -0.0001227630635994
  0.7389221898467845  0.7658656825131608  0.2296809070788007
  0.7326663893551495  0.7474801150047006  0.4955851843104399
  0.7596506333674073  0.7406228487117767  0.7584862742302649
 -0.0000541816507219  0.2473163044410596  0.1260554341654301
  0.9907819367971638  0.2463899962430511  0.3907224470784114
  0.0016760484279598  0.2496263544044559  0.6249974952325903
  0.0083128169065264  0.2524965067153510  0.8591209985275043
  0.4988941267053621  0.2497872410273380  0.1239406385087425
  0.4945511612084458  0.2501176246728064  0.3573228247513944
  0.5020258061476089  0.2485188809651974  0.6253578376005072
  0.5028606290733677  0.2532184206226680  0.8913429554014306
  0.2577062316864289  0.4673756400914094  0.1264853019000931
  0.2484244245628239  0.5072556648530019  0.3756320225430270
  0.2570540285025700  0.5255604212835442  0.6232444622197977
  0.2488773943832239  0.5016117100058268  0.8768108294116700
  0.9972657911384823  0.7520999552378425  0.1244621651277794
  0.9842142992385998  0.7581391637039627  0.3729273912791028
  0.0012607286981993  0.7480588955376661  0.6248957790409101
  0.0142395955646931  0.7429597974904271  0.8786845707234547
  0.7537192119952113  0.4962176385392970  0.1264288409517947
  0.7436060604110389  0.5010537226060428  0.3740009642309403
  0.7729939044643698  0.4930082673644131  0.6153539741676418
  0.7575125322252206  0.4968724046712787  0.8748223313266691
  0.4981927272232867  0.7490014661839814  0.1246149892618225
  0.5021279247992505  0.7603463842719269  0.3824474766848448
  0.5001510119648178  0.7486289108062469  0.6250403442384570
  0.4928101729811455  0.7368274014068263  0.8669442208439019
  0.2410831359027543  0.0028126455560909  0.1220061457797111
  0.2445114342007710  0.0033189480851147  0.3753442244971493
  0.2329139344900326  0.0056991389959562  0.6359479389722293
  0.2572369698612882  0.9991894042800440  0.8746801012057902
  0.7426125052912618  0.0279213593390956  0.1245898524241982
  0.7412648830883990  0.0002548953253402  0.3735512208234833
  0.7482755883899526  0.9731465071246006  0.6234460163613215
  0.7474021030742133  0.9934215497895000  0.8733676102056833
  0.0061172031968282  0.2612081205493741  0.0057105934192466
  0.9928275614427058  0.2301075908321838  0.2461118439414176
  0.0732292208161785  0.1974640034515024  0.5225723369132340
  0.9300424447213413  0.3035683980437567  0.7270316840209909
  0.5784687165783300  0.2028628416548604  0.0226771302478701
  0.4192084412203298  0.2969806975075531  0.2252917234491909
  0.5184601094563476  0.2531642602438269  0.5056502839418868
  0.4843211819956278  0.2463211542125927  0.7449454302221603
  0.2239528469561672  0.4940205113271888  0.9948635350575945
  0.2777251991807232  0.5126478526945244  0.2586856681852094
  0.2134213401897925  0.5023233573182798  0.4923628766637286
  0.2413206901087940  0.5182966301592661  0.7585855664135557
  0.0486324915673479  0.7887360227739802  0.0135733146213063
  0.9478741517208066  0.7214492620220199  0.2367967357734893
  0.0239657084148520  0.7724038432415721  0.5073472059416270
  0.9796834423576256  0.7254246872251039  0.7427562322947175
  0.7260153489795752  0.4692063937266464  0.9914435911590644
  0.7566087420409326  0.5581629044136093  0.2619174283824626
  0.7187338560867205  0.4406837894231871  0.4843893652505530
  0.7753423089159459  0.5229654545604789  0.7568686762467198
  0.4861390031262996  0.7687096984400946  0.0059940835109621
  0.5127657535562709  0.7284046419891185  0.2430031735385206
  0.5357660990253380  0.8217768358540107  0.5197689515297143
  0.4603031644371868  0.6729616886105664  0.7287806175670478
  0.2501040620798703  0.9420710717218052  0.9868833736399425
  0.2672943649417303  0.0306399384959687  0.2578174947806313
  0.2318901960795502  0.9766598121084724  0.4935648238251135
  0.2864637390287982  0.0603098231770192  0.7649800147802726
  0.7229777800607350  0.9870031626559149  0.9909698462126331
  0.7769057280320415  0.9934801280046283  0.2564716343137272
  0.7083994258394668  0.0055871693687802  0.4904611762351044
  0.7803494877461077  0.0019045637942788  0.7562206496426191
  0.1586636618711794  0.1887471080071776  0.1267822207906821
  0.0990833278991811  0.0888627192490263  0.3662454083224103
  0.1002962175721033  0.1470960845573077  0.6900968834336810
  0.1207821166610735  0.0949675033862567  0.8972954731800913
  0.6067379796291289  0.1597366270278762  0.1906780407409271
  0.5885911042690641  0.0700684780193575  0.3600634343746204
  0.6043873044070820  0.1136094801113012  0.6314781766340359
  0.6157065763347248  0.0973259168310439  0.8554108881843663
  0.3923124088794120  0.3402762118530545  0.0562880284857990
  0.3827037180585564  0.4076707000938071  0.3967939712974390
  0.4016323323406335  0.3852919827262461  0.6229941845990412
  0.4049704544823715  0.4366378315966397  0.8757850535592703
  0.1243242208899004  0.6383838116979103  0.1348463194945145
  0.1096094233425657  0.6041806810691344  0.3603937673113231
  0.1637021028742593  0.7000320206558009  0.6292861085529228
  0.0899604697098145  0.5618205229057389  0.8758326274047830
  0.8431895540419285  0.3110853818852368  0.1226639421000047
  0.8793438611183233  0.4043418553895746  0.3514661433209516
  0.9015346952784874  0.3512654463245599  0.5604589636590847
  0.8974126812202338  0.4051011835396823  0.8904994719500708
  0.6342583497408719  0.6508416811872907  0.1054991961390293
  0.6103390218276522  0.6000185626149096  0.3975515228652043
  0.6204506107388850  0.6305286406003989  0.6046415815026750
  0.6111205534486919  0.5808859006699901  0.8722240951908493
  0.3618973066815310  0.8466800171454855  0.1441822049990053
  0.3921124557788599  0.9217013519827906  0.3747069520455868
  0.3801653264735460  0.8659930305064907  0.6475644251311957
  0.3903492501940181  0.8994468295031921  0.8518902262018414
  0.8669006412703907  0.8614572677000905  0.1126895486373574
  0.8959236934897702  0.9352205689446438  0.3903939733858857
  0.8385976471276620  0.7946689788244922  0.6189765659007207
  0.8837650724216412  0.8926881652782843  0.8850467652337490
  0.9364110503138752  0.0911174157558957  0.1185786268520437
  0.8127440483597204  0.1544880298274223  0.3830411083149827
  0.8808182686674889  0.1304625091286397  0.6130990384413108
  0.8564031117862998  0.1241355582941204  0.8830075898667735
  0.4104928371924772  0.1047214638940493  0.1140703883976124
  0.3261602369258060  0.1504502347700984  0.3948907992942425
  0.3650039526231927  0.1508221722279407  0.6083069966574370
  0.3626816067053201  0.1191319014446081  0.9165296742791902
  0.0646659720725180  0.4028951293139967  0.1363638494121567
  0.1444499482816691  0.3724763048678941  0.3683969346225898
  0.1246640075739440  0.3664549499892085  0.6354492534543285
  0.1856492851133170  0.3440641664999179  0.8637677745943140
  0.8911857371877909  0.6331683235226848  0.0835033875438065
  0.8522169896208390  0.6165829236647259  0.4174161593890275
  0.9549123864725941  0.5862543855703111  0.6107688189254837
  0.8413382995650507  0.6420459003378525  0.8934212891238078
  0.5851477468568342  0.3961554085210804  0.1338638916291536
  0.6371662687520496  0.3829668821892843  0.3311032552879903
  0.6389941138808071  0.3473951618619797  0.6407228306709992
  0.6720523012093066  0.3525503147024199  0.8521481092044203
  0.3954272606009138  0.6133338897204887  0.1160073126649692
  0.3381203489743416  0.6502048874191935  0.3803611586174903
  0.3929875754452536  0.6477878606290602  0.5654140718638001
  0.3098775318909875  0.6589685602970586  0.8894090509636227
  0.1049665397167821  0.8677137921522592  0.1678735512454845
  0.1581719740576084  0.8590055592635240  0.3582894939394625
  0.0494596813504955  0.9092803025040279  0.6397751439424947
  0.1474134084334284  0.8855436813285833  0.8309753233697807
  0.6005981503191742  0.8850902151978860  0.1321043846206296
  0.6830747612242010  0.8415871986621309  0.3633849984020376
  0.6103812369112257  0.8501343508651109  0.6812794236890097
  0.6530237390279957  0.8535317296180690  0.8669821004962026
 
  0.00000000E+00  0.00000000E+00  0.00000000E+00
  0.00000000E+00  0.00000000E+00  0.00000000E+00
  0.00000000E+00  0.00000000E+00  0.00000000E+00
  0.00000000E+00  0.00000000E+00  0.00000000E+00
  0.00000000E+00  0.00000000E+00  0.00000000E+00
  0.00000000E+00  0.00000000E+00  0.00000000E+00
  0.00000000E+00  0.00000000E+00  0.00000000E+00
  0.00000000E+00  0.00000000E+00  0.00000000E+00
  0.00000000E+00  0.00000000E+00  0.00000000E+00
  0.00000000E+00  0.00000000E+00  0.00000000E+00
  0.00000000E+00  0.00000000E+00  0.00000000E+00
  0.00000000E+00  0.00000000E+00  0.00000000E+00
  0.00000000E+00  0.00000000E+00  0.00000000E+00
  0.00000000E+00  0.00000000E+00  0.00000000E+00
  0.00000000E+00  0.00000000E+00  0.00000000E+00
  0.00000000E+00  0.00000000E+00  0.00000000E+00
  0.00000000E+00  0.00000000E+00  0.00000000E+00
  0.00000000E+00  0.00000000E+00  0.00000000E+00
  0.00000000E+00  0.00000000E+00  0.00000000E+00
  0.00000000E+00  0.00000000E+00  0.00000000E+00
  0.00000000E+00  0.00000000E+00  0.00000000E+00
  0.00000000E+00  0.00000000E+00  0.00000000E+00
  0.00000000E+00  0.00000000E+00  0.00000000E+00
  0.00000000E+00  0.00000000E+00  0.00000000E+00
  0.00000000E+00  0.00000000E+00  0.00000000E+00
  0.00000000E+00  0.00000000E+00  0.00000000E+00
  0.00000000E+00  0.00000000E+00  0.00000000E+00
  0.00000000E+00  0.00000000E+00  0.00000000E+00
  0.00000000E+00  0.00000000E+00  0.00000000E+00
  0.00000000E+00  0.00000000E+00  0.00000000E+00
  0.00000000E+00  0.00000000E+00  0.00000000E+00
  0.00000000E+00  0.00000000E+00  0.00000000E+00
  0.00000000E+00  0.00000000E+00  0.00000000E+00
  0.00000000E+00  0.00000000E+00  0.00000000E+00
  0.00000000E+00  0.00000000E+00  0.00000000E+00
  0.00000000E+00  0.00000000E+00  0.00000000E+00
  0.00000000E+00  0.00000000E+00  0.00000000E+00
  0.00000000E+00  0.00000000E+00  0.00000000E+00
  0.00000000E+00  0.00000000E+00  0.00000000E+00
  0.00000000E+00  0.00000000E+00  0.00000000E+00
  0.00000000E+00  0.00000000E+00  0.00000000E+00
  0.00000000E+00  0.00000000E+00  0.00000000E+00
  0.00000000E+00  0.00000000E+00  0.00000000E+00
  0.00000000E+00  0.00000000E+00  0.00000000E+00
  0.00000000E+00  0.00000000E+00  0.00000000E+00
  0.00000000E+00  0.00000000E+00  0.00000000E+00
  0.00000000E+00  0.00000000E+00  0.00000000E+00
  0.00000000E+00  0.00000000E+00  0.00000000E+00
  0.00000000E+00  0.00000000E+00  0.00000000E+00
  0.00000000E+00  0.00000000E+00  0.00000000E+00
  0.00000000E+00  0.00000000E+00  0.00000000E+00
  0.00000000E+00  0.00000000E+00  0.00000000E+00
  0.00000000E+00  0.00000000E+00  0.00000000E+00
  0.00000000E+00  0.00000000E+00  0.00000000E+00
  0.00000000E+00  0.00000000E+00  0.00000000E+00
  0.00000000E+00  0.00000000E+00  0.00000000E+00
  0.00000000E+00  0.00000000E+00  0.00000000E+00
  0.00000000E+00  0.00000000E+00  0.00000000E+00
  0.00000000E+00  0.00000000E+00  0.00000000E+00
  0.00000000E+00  0.00000000E+00  0.00000000E+00
  0.00000000E+00  0.00000000E+00  0.00000000E+00
  0.00000000E+00  0.00000000E+00  0.00000000E+00
  0.00000000E+00  0.00000000E+00  0.00000000E+00
  0.00000000E+00  0.00000000E+00  0.00000000E+00
  0.00000000E+00  0.00000000E+00  0.00000000E+00
  0.00000000E+00  0.00000000E+00  0.00000000E+00
  0.00000000E+00  0.00000000E+00  0.00000000E+00
  0.00000000E+00  0.00000000E+00  0.00000000E+00
  0.00000000E+00  0.00000000E+00  0.00000000E+00
  0.00000000E+00  0.00000000E+00  0.00000000E+00
  0.00000000E+00  0.00000000E+00  0.00000000E+00
  0.00000000E+00  0.00000000E+00  0.00000000E+00
  0.00000000E+00  0.00000000E+00  0.00000000E+00
  0.00000000E+00  0.00000000E+00  0.00000000E+00
  0.00000000E+00  0.00000000E+00  0.00000000E+00
  0.00000000E+00  0.00000000E+00  0.00000000E+00
  0.00000000E+00  0.00000000E+00  0.00000000E+00
  0.00000000E+00  0.00000000E+00  0.00000000E+00
  0.00000000E+00  0.00000000E+00  0.00000000E+00
  0.00000000E+00  0.00000000E+00  0.00000000E+00
  0.00000000E+00  0.00000000E+00  0.00000000E+00
  0.00000000E+00  0.00000000E+00  0.00000000E+00
  0.00000000E+00  0.00000000E+00  0.00000000E+00
  0.00000000E+00  0.00000000E+00  0.00000000E+00
  0.00000000E+00  0.00000000E+00  0.00000000E+00
  0.00000000E+00  0.00000000E+00  0.00000000E+00
  0.00000000E+00  0.00000000E+00  0.00000000E+00
  0.00000000E+00  0.00000000E+00  0.00000000E+00
  0.00000000E+00  0.00000000E+00  0.00000000E+00
  0.00000000E+00  0.00000000E+00  0.00000000E+00
  0.00000000E+00  0.00000000E+00  0.00000000E+00
  0.00000000E+00  0.00000000E+00  0.00000000E+00
  0.00000000E+00  0.00000000E+00  0.00000000E+00
  0.00000000E+00  0.00000000E+00  0.00000000E+00
  0.00000000E+00  0.00000000E+00  0.00000000E+00
  0.00000000E+00  0.00000000E+00  0.00000000E+00
  0.00000000E+00  0.00000000E+00  0.00000000E+00
  0.00000000E+00  0.00000000E+00  0.00000000E+00
  0.00000000E+00  0.00000000E+00  0.00000000E+00
  0.00000000E+00  0.00000000E+00  0.00000000E+00
  0.00000000E+00  0.00000000E+00  0.00000000E+00
  0.00000000E+00  0.00000000E+00  0.00000000E+00
  0.00000000E+00  0.00000000E+00  0.00000000E+00
  0.00000000E+00  0.00000000E+00  0.00000000E+00
  0.00000000E+00  0.00000000E+00  0.00000000E+00
  0.00000000E+00  0.00000000E+00  0.00000000E+00
  0.00000000E+00  0.00000000E+00  0.00000000E+00
  0.00000000E+00  0.00000000E+00  0.00000000E+00
  0.00000000E+00  0.00000000E+00  0.00000000E+00
  0.00000000E+00  0.00000000E+00  0.00000000E+00
  0.00000000E+00  0.00000000E+00  0.00000000E+00
  0.00000000E+00  0.00000000E+00  0.00000000E+00
  0.00000000E+00  0.00000000E+00  0.00000000E+00
  0.00000000E+00  0.00000000E+00  0.00000000E+00
  0.00000000E+00  0.00000000E+00  0.00000000E+00
  0.00000000E+00  0.00000000E+00  0.00000000E+00
  0.00000000E+00  0.00000000E+00  0.00000000E+00
  0.00000000E+00  0.00000000E+00  0.00000000E+00
  0.00000000E+00  0.00000000E+00  0.00000000E+00
  0.00000000E+00  0.00000000E+00  0.00000000E+00
  0.00000000E+00  0.00000000E+00  0.00000000E+00
  0.00000000E+00  0.00000000E+00  0.00000000E+00
  0.00000000E+00  0.00000000E+00  0.00000000E+00
  0.00000000E+00  0.00000000E+00  0.00000000E+00
  0.00000000E+00  0.00000000E+00  0.00000000E+00
  0.00000000E+00  0.00000000E+00  0.00000000E+00
  0.00000000E+00  0.00000000E+00  0.00000000E+00
  0.00000000E+00  0.00000000E+00  0.00000000E+00
  0.00000000E+00  0.00000000E+00  0.00000000E+00
  0.00000000E+00  0.00000000E+00  0.00000000E+00
  0.00000000E+00  0.00000000E+00  0.00000000E+00
  0.00000000E+00  0.00000000E+00  0.00000000E+00
  0.00000000E+00  0.00000000E+00  0.00000000E+00
  0.00000000E+00  0.00000000E+00  0.00000000E+00
  0.00000000E+00  0.00000000E+00  0.00000000E+00
  0.00000000E+00  0.00000000E+00  0.00000000E+00
  0.00000000E+00  0.00000000E+00  0.00000000E+00
  0.00000000E+00  0.00000000E+00  0.00000000E+00
  0.00000000E+00  0.00000000E+00  0.00000000E+00
  0.00000000E+00  0.00000000E+00  0.00000000E+00
  0.00000000E+00  0.00000000E+00  0.00000000E+00
  0.00000000E+00  0.00000000E+00  0.00000000E+00
  0.00000000E+00  0.00000000E+00  0.00000000E+00
  0.00000000E+00  0.00000000E+00  0.00000000E+00
  0.00000000E+00  0.00000000E+00  0.00000000E+00
  0.00000000E+00  0.00000000E+00  0.00000000E+00
  0.00000000E+00  0.00000000E+00  0.00000000E+00
  0.00000000E+00  0.00000000E+00  0.00000000E+00
  0.00000000E+00  0.00000000E+00  0.00000000E+00
  0.00000000E+00  0.00000000E+00  0.00000000E+00
  0.00000000E+00  0.00000000E+00  0.00000000E+00
  0.00000000E+00  0.00000000E+00  0.00000000E+00
  0.00000000E+00  0.00000000E+00  0.00000000E+00
  0.00000000E+00  0.00000000E+00  0.00000000E+00
  0.00000000E+00  0.00000000E+00  0.00000000E+00
  0.00000000E+00  0.00000000E+00  0.00000000E+00
  0.00000000E+00  0.00000000E+00  0.00000000E+00
  0.00000000E+00  0.00000000E+00  0.00000000E+00
  0.00000000E+00  0.00000000E+00  0.00000000E+00
  0.00000000E+00  0.00000000E+00  0.00000000E+00
