F Ag Cd                                 
   1.00000000000000     
     8.8307219999999997   -8.8307219999999997    0.0000000000000000
     8.8307219999999997    8.8307219999999997    0.0000000000000000
     0.0000000000000000    0.0000000000000000   17.6614429999999984
   Ag   Cd   F 
    32    32    96
Direct
  0.0016640948937376  0.9736619973546058  0.9822792488053748
  0.0075744808754842  0.9850904680687317  0.2508083759720973
  0.9969009895267924  0.0160686510051359  0.5000309333121632
  0.9950883954032619  0.9640310550185354  0.7342416414140489
  0.4990905804561986  0.9795940310393992  0.9860167211334684
  0.4874339590775196  0.0387142120817618  0.2448942308928094
  0.4880490730846391  0.0185870115737762  0.5001166555126856
  0.4963686627370556  0.0325974797739677  0.7663586463018464
  0.2458870579136792  0.2219621264553723  0.9848490283317367
  0.2398774229556536  0.2358945823159729  0.2465591150433774
  0.2600669969326888  0.2650525786843984  0.4958848612264982
  0.2535129277298810  0.2670745908391024  0.7661504839709338
  0.0009375098921904  0.4736617859559079  0.9826068561199466
  0.0070236903527213  0.4804302149333001  0.2539619919287001
  0.9960363261342660  0.5156103842643397  0.4953439658541029
  0.9952976663667346  0.4650295852477331  0.7358740516226482
  0.7445227985112945  0.2925812668864415  0.0198263027355263
  0.7462448340858993  0.2365237272309495  0.2445249784643020
  0.7369432545881800  0.2111178061738989  0.5017472707161822
  0.7529945196171360  0.2083600973418599  0.7319445793601392
  0.5047581224709735  0.5422202599460690  0.0190229830737627
  0.4894643226566896  0.5229469860488647  0.2415931268475851
  0.4937123368003337  0.5132550542666928  0.4963313193536673
  0.5016395539511749  0.5248181212194376  0.7642634138155558
  0.2469747179175930  0.7272649117906320  0.9841873240833904
  0.2375377850884683  0.7346004473799664  0.2502605936133772
  0.2627478943426660  0.7708579454763183  0.4990115975440874
  0.2492450314085384  0.7131501355359804  0.7354272183157488
  0.7484623909937483  0.7897058484290858  0.0187968079270590
  0.7523187371584388  0.7426758909922176  0.2467054229017761
  0.7357580175792072  0.7138682056305712  0.5031852348718122
  0.7542802929589187  0.7076558230180633  0.7307610221100526
 -0.0008062392641681  0.2627455098713190  0.1271514672910758
  0.0006983238573835  0.2485626203448092  0.3767719086966963
  0.0046690681625689  0.2399815276575108  0.6252749208258972
  0.9945781396104310  0.2480978859127997  0.8764791334955940
  0.4969070748839096  0.2668980617040255  0.1250120848015046
  0.5010978182132818  0.2511752264167937  0.3731336099223874
  0.4978743480717258  0.2418921043729130  0.6249588279718341
  0.5037655012100888  0.2555418966795778  0.8770912917895345
  0.2465717677369458  0.5138620291334605  0.1265907902062347
  0.2478085184511636  0.4983299775398283  0.3771634716124042
  0.2511147814128667  0.4887517328595442  0.6241466274197606
  0.2494660735283994  0.4998765321388055  0.8767291672258275
  0.0013591707901704  0.7645306085718370  0.1267939797812399
  0.9993693335202346  0.7494224212838724  0.3773783320019958
  0.0032488410420965  0.7398724574155502  0.6239920459831190
  0.9971642710507126  0.7474024187467095  0.8748829425148821
  0.7535147363338595  0.5154635767568613  0.1268409866979509
  0.7501426005021735  0.4950150464153650  0.3728793398173423
  0.7500530341909691  0.4821735185710413  0.6225834369892894
  0.7491670659140164  0.5019569258083715  0.8754170276135842
  0.4968458688491640  0.7694595387709466  0.1277730425523998
  0.4984279613153536  0.7485151069045130  0.3724521142004464
  0.4980811686783520  0.7405488592158382  0.6243451620512110
  0.5008060747590571  0.7525919079157789  0.8738199674751970
  0.2481796587924203  0.0138791589941065  0.1247473236326974
  0.2490288992814814  0.9971589219132241  0.3770281847438881
  0.2512801857007270  0.9917640793959046  0.6259244057242993
  0.2473347855181353  0.9977629262393424  0.8728159450214996
  0.7517589050393265  0.0140648078760043  0.1263924569917863
  0.7512177632187442  0.9927401953975917  0.3743219405508671
  0.7481493401813781  0.9833400429783672  0.6228915837642177
  0.7499524442681934  0.0010099691458645  0.8754423719945532
  0.0532422362767332  0.2671141554038342  0.0016713373997944
  0.9434578177132573  0.2813544185756702  0.2531072539748657
  0.0576956195731476  0.2181388268501605  0.5014021990739169
  0.9449694807458363  0.2551495691897204  0.7503825062907220
  0.5526548245816533  0.2637522738734336  0.0014306246470228
  0.4398053146002368  0.2578427827105604  0.2501315118145107
  0.5500057163783610  0.2221778864189756  0.4986126789196872
  0.4458065572150900  0.2403616801635616  0.7502017798332202
  0.1942913388676855  0.5119898796142603  0.0012764308876796
  0.2991699516110324  0.5310968522888065  0.2531413924521393
  0.1942450824593193  0.4632089159446672  0.5011047639552444
  0.3055711026921460  0.5034014608719388  0.7514312042044184
  0.0554797582037816  0.7645894812200521  0.0007476736706536
  0.9463881272799168  0.7834555389434048  0.2533089854406045
  0.0544918159705202  0.7131206038401006  0.5011031463220509
  0.9456102196793811  0.7554363245345417  0.7494817811639057
  0.6948614701819325  0.5062623895156503  0.0015402426988683
  0.8073609745372474  0.5303209075200869  0.2508863179932479
  0.6940496198577439  0.4937474000647750  0.4986187593214569
  0.8026138105653627  0.5017970045110850  0.7485071841051738
  0.5525254445906445  0.7620154412253554  0.0007126439244904
  0.4375065491640456  0.7572518673829003  0.2499445143916643
  0.5464736046634761  0.7134840457849795  0.4981329204258701
  0.4450928715152608  0.7315690608447177  0.7496622122335896
  0.1948201515976291  0.0140573901177640  0.9993756600859321
  0.3021393512834704  0.0269665205788408  0.2520717309875669
  0.1951826776079373  0.9651783227418916  0.5010624635329927
  0.3049940548939734  0.0027285211136051  0.7503626019314844
  0.6942058054674779  0.9950396578233790  0.0016126101012514
  0.8087222689044016  0.0241097489084423  0.2513275903106194
  0.6911437440689030  0.9939551943419755  0.4993563429452162
  0.8004973331387241  0.0007559907631769  0.7487272889366308
  0.1094007087473258  0.1261495588494226  0.1617957556392837
  0.0978995752463036  0.0950611830539331  0.3480620965202192
  0.0945805062248897  0.0827135773669129  0.6499189231072064
  0.1557906916129132  0.1591599843414790  0.8576675421911558
  0.6073206990299629  0.1219448917332526  0.1573949174981472
  0.6030535581960025  0.0994150490835154  0.3461235512152214
  0.6002765246375895  0.0893439477622737  0.6542545998878718
  0.6464383293274555  0.1473043560424635  0.8419294460616820
  0.4088764570430601  0.4286230935677584  0.1128559140883350
  0.3999715115427256  0.3975625033958112  0.4054335112465701
  0.3984905120349320  0.3883258896081724  0.5920432582277612
  0.3398776031471042  0.3417878725338322  0.8939967111663947
  0.1114967476062345  0.6286064148822403  0.1619226529821786
  0.0932988106456719  0.5933447841264952  0.3496420362778508
  0.1016459212386597  0.5883740155269216  0.6570767014275022
  0.1584383073213582  0.6582727025737807  0.8538337919258437
  0.9001655700435079  0.4144561991266043  0.0951088966515797
  0.9065450615501237  0.4028470190881172  0.4030703623859054
  0.9126516127947234  0.3977281311018022  0.6017804540481843
  0.8504482922837915  0.3553926696871974  0.9107144554235298
  0.5995658682742887  0.6159269256114591  0.1477398243738910
  0.5962047004516670  0.5949015966397855  0.3438553187991930
  0.6010019654104360  0.5884035646308068  0.6525348171430549
  0.6463960945174655  0.6486153677625431  0.8405099601826983
  0.4055765112046412  0.9237419216630971  0.1021257343727087
  0.3999909893030078  0.8961696124449061  0.4063095128287294
  0.3973945127606063  0.8861134243634180  0.5922846632692994
  0.3503792271785710  0.8521415617633316  0.9052487409542137
  0.9012938138642563  0.9149577311716122  0.0949935646481811
  0.9060395072528382  0.9020627172184310  0.4062960564247243
  0.9096237619643919  0.8968263884884730  0.6020821227764706
  0.8510560765465214  0.8536096527911078  0.9087453694611590
  0.8414432364725766  0.1730110610047368  0.1064703847081873
  0.8553672957829183  0.1430473154869779  0.4072693534562727
  0.8502676576929697  0.1400963289220019  0.6024851220755316
  0.9014571319837397  0.0972018567434910  0.9021331735389653
  0.3428669972523323  0.1710598716108277  0.0984650781049791
  0.3531014420189229  0.1444576797738155  0.4065272993964488
  0.3544119963988372  0.1356134001681905  0.5894809503778055
  0.4024383057139436  0.0996596607443368  0.9010039966636093
  0.1367643993191640  0.3774967143640062  0.1630015545863001
  0.1560632915421435  0.3425649944653854  0.3488675111902184
  0.1545827672989633  0.3386735514353993  0.6604167930106717
  0.0957660560937085  0.4027374744776976  0.8485588333848268
  0.8427084520487085  0.6750485982400908  0.1078775030764635
  0.8503227321096782  0.6463437844208533  0.4054181499211277
  0.8501589910423045  0.6397914969334925  0.6024950226268676
  0.9037300268856588  0.5963698153464496  0.9007115671139639
  0.6533651528261021  0.3626792568629109  0.1495242412828501
  0.6566899307697122  0.3423560481911440  0.3460080333187187
  0.6595635529089459  0.3270145677303398  0.6426776496999563
  0.5962355805353673  0.4065983705749983  0.8475051496822985
  0.3518702402019981  0.6628391474039591  0.0921707489689635
  0.3481237255888371  0.6462684389427579  0.4077573957626561
  0.3452334314045270  0.6419703920396005  0.5983792245335676
  0.4015866987427980  0.6011889968986632  0.9069082224765120
  0.1398513422099541  0.8772767468029964  0.1614517104274381
  0.1549351495302925  0.8427810858307353  0.3495214440181509
  0.1549117458440495  0.8362807311830054  0.6545182138964888
  0.0904904768266861  0.9064258458667918  0.8504987453619820
  0.6543150172329072  0.8601385223391221  0.1514132447388290
  0.6567210938925052  0.8390261171416360  0.3484648461534717
  0.6597340088944612  0.8252239577426186  0.6402516697700404
  0.5903396187619923  0.9099138737001117  0.8534596549548704
 
  0.00000000E+00  0.00000000E+00  0.00000000E+00
  0.00000000E+00  0.00000000E+00  0.00000000E+00
  0.00000000E+00  0.00000000E+00  0.00000000E+00
  0.00000000E+00  0.00000000E+00  0.00000000E+00
  0.00000000E+00  0.00000000E+00  0.00000000E+00
  0.00000000E+00  0.00000000E+00  0.00000000E+00
  0.00000000E+00  0.00000000E+00  0.00000000E+00
  0.00000000E+00  0.00000000E+00  0.00000000E+00
  0.00000000E+00  0.00000000E+00  0.00000000E+00
  0.00000000E+00  0.00000000E+00  0.00000000E+00
  0.00000000E+00  0.00000000E+00  0.00000000E+00
  0.00000000E+00  0.00000000E+00  0.00000000E+00
  0.00000000E+00  0.00000000E+00  0.00000000E+00
  0.00000000E+00  0.00000000E+00  0.00000000E+00
  0.00000000E+00  0.00000000E+00  0.00000000E+00
  0.00000000E+00  0.00000000E+00  0.00000000E+00
  0.00000000E+00  0.00000000E+00  0.00000000E+00
  0.00000000E+00  0.00000000E+00  0.00000000E+00
  0.00000000E+00  0.00000000E+00  0.00000000E+00
  0.00000000E+00  0.00000000E+00  0.00000000E+00
  0.00000000E+00  0.00000000E+00  0.00000000E+00
  0.00000000E+00  0.00000000E+00  0.00000000E+00
  0.00000000E+00  0.00000000E+00  0.00000000E+00
  0.00000000E+00  0.00000000E+00  0.00000000E+00
  0.00000000E+00  0.00000000E+00  0.00000000E+00
  0.00000000E+00  0.00000000E+00  0.00000000E+00
  0.00000000E+00  0.00000000E+00  0.00000000E+00
  0.00000000E+00  0.00000000E+00  0.00000000E+00
  0.00000000E+00  0.00000000E+00  0.00000000E+00
  0.00000000E+00  0.00000000E+00  0.00000000E+00
  0.00000000E+00  0.00000000E+00  0.00000000E+00
  0.00000000E+00  0.00000000E+00  0.00000000E+00
  0.00000000E+00  0.00000000E+00  0.00000000E+00
  0.00000000E+00  0.00000000E+00  0.00000000E+00
  0.00000000E+00  0.00000000E+00  0.00000000E+00
  0.00000000E+00  0.00000000E+00  0.00000000E+00
  0.00000000E+00  0.00000000E+00  0.00000000E+00
  0.00000000E+00  0.00000000E+00  0.00000000E+00
  0.00000000E+00  0.00000000E+00  0.00000000E+00
  0.00000000E+00  0.00000000E+00  0.00000000E+00
  0.00000000E+00  0.00000000E+00  0.00000000E+00
  0.00000000E+00  0.00000000E+00  0.00000000E+00
  0.00000000E+00  0.00000000E+00  0.00000000E+00
  0.00000000E+00  0.00000000E+00  0.00000000E+00
  0.00000000E+00  0.00000000E+00  0.00000000E+00
  0.00000000E+00  0.00000000E+00  0.00000000E+00
  0.00000000E+00  0.00000000E+00  0.00000000E+00
  0.00000000E+00  0.00000000E+00  0.00000000E+00
  0.00000000E+00  0.00000000E+00  0.00000000E+00
  0.00000000E+00  0.00000000E+00  0.00000000E+00
  0.00000000E+00  0.00000000E+00  0.00000000E+00
  0.00000000E+00  0.00000000E+00  0.00000000E+00
  0.00000000E+00  0.00000000E+00  0.00000000E+00
  0.00000000E+00  0.00000000E+00  0.00000000E+00
  0.00000000E+00  0.00000000E+00  0.00000000E+00
  0.00000000E+00  0.00000000E+00  0.00000000E+00
  0.00000000E+00  0.00000000E+00  0.00000000E+00
  0.00000000E+00  0.00000000E+00  0.00000000E+00
  0.00000000E+00  0.00000000E+00  0.00000000E+00
  0.00000000E+00  0.00000000E+00  0.00000000E+00
  0.00000000E+00  0.00000000E+00  0.00000000E+00
  0.00000000E+00  0.00000000E+00  0.00000000E+00
  0.00000000E+00  0.00000000E+00  0.00000000E+00
  0.00000000E+00  0.00000000E+00  0.00000000E+00
  0.00000000E+00  0.00000000E+00  0.00000000E+00
  0.00000000E+00  0.00000000E+00  0.00000000E+00
  0.00000000E+00  0.00000000E+00  0.00000000E+00
  0.00000000E+00  0.00000000E+00  0.00000000E+00
  0.00000000E+00  0.00000000E+00  0.00000000E+00
  0.00000000E+00  0.00000000E+00  0.00000000E+00
  0.00000000E+00  0.00000000E+00  0.00000000E+00
  0.00000000E+00  0.00000000E+00  0.00000000E+00
  0.00000000E+00  0.00000000E+00  0.00000000E+00
  0.00000000E+00  0.00000000E+00  0.00000000E+00
  0.00000000E+00  0.00000000E+00  0.00000000E+00
  0.00000000E+00  0.00000000E+00  0.00000000E+00
  0.00000000E+00  0.00000000E+00  0.00000000E+00
  0.00000000E+00  0.00000000E+00  0.00000000E+00
  0.00000000E+00  0.00000000E+00  0.00000000E+00
  0.00000000E+00  0.00000000E+00  0.00000000E+00
  0.00000000E+00  0.00000000E+00  0.00000000E+00
  0.00000000E+00  0.00000000E+00  0.00000000E+00
  0.00000000E+00  0.00000000E+00  0.00000000E+00
  0.00000000E+00  0.00000000E+00  0.00000000E+00
  0.00000000E+00  0.00000000E+00  0.00000000E+00
  0.00000000E+00  0.00000000E+00  0.00000000E+00
  0.00000000E+00  0.00000000E+00  0.00000000E+00
  0.00000000E+00  0.00000000E+00  0.00000000E+00
  0.00000000E+00  0.00000000E+00  0.00000000E+00
  0.00000000E+00  0.00000000E+00  0.00000000E+00
  0.00000000E+00  0.00000000E+00  0.00000000E+00
  0.00000000E+00  0.00000000E+00  0.00000000E+00
  0.00000000E+00  0.00000000E+00  0.00000000E+00
  0.00000000E+00  0.00000000E+00  0.00000000E+00
  0.00000000E+00  0.00000000E+00  0.00000000E+00
  0.00000000E+00  0.00000000E+00  0.00000000E+00
  0.00000000E+00  0.00000000E+00  0.00000000E+00
  0.00000000E+00  0.00000000E+00  0.00000000E+00
  0.00000000E+00  0.00000000E+00  0.00000000E+00
  0.00000000E+00  0.00000000E+00  0.00000000E+00
  0.00000000E+00  0.00000000E+00  0.00000000E+00
  0.00000000E+00  0.00000000E+00  0.00000000E+00
  0.00000000E+00  0.00000000E+00  0.00000000E+00
  0.00000000E+00  0.00000000E+00  0.00000000E+00
  0.00000000E+00  0.00000000E+00  0.00000000E+00
  0.00000000E+00  0.00000000E+00  0.00000000E+00
  0.00000000E+00  0.00000000E+00  0.00000000E+00
  0.00000000E+00  0.00000000E+00  0.00000000E+00
  0.00000000E+00  0.00000000E+00  0.00000000E+00
  0.00000000E+00  0.00000000E+00  0.00000000E+00
  0.00000000E+00  0.00000000E+00  0.00000000E+00
  0.00000000E+00  0.00000000E+00  0.00000000E+00
  0.00000000E+00  0.00000000E+00  0.00000000E+00
  0.00000000E+00  0.00000000E+00  0.00000000E+00
  0.00000000E+00  0.00000000E+00  0.00000000E+00
  0.00000000E+00  0.00000000E+00  0.00000000E+00
  0.00000000E+00  0.00000000E+00  0.00000000E+00
  0.00000000E+00  0.00000000E+00  0.00000000E+00
  0.00000000E+00  0.00000000E+00  0.00000000E+00
  0.00000000E+00  0.00000000E+00  0.00000000E+00
  0.00000000E+00  0.00000000E+00  0.00000000E+00
  0.00000000E+00  0.00000000E+00  0.00000000E+00
  0.00000000E+00  0.00000000E+00  0.00000000E+00
  0.00000000E+00  0.00000000E+00  0.00000000E+00
  0.00000000E+00  0.00000000E+00  0.00000000E+00
  0.00000000E+00  0.00000000E+00  0.00000000E+00
  0.00000000E+00  0.00000000E+00  0.00000000E+00
  0.00000000E+00  0.00000000E+00  0.00000000E+00
  0.00000000E+00  0.00000000E+00  0.00000000E+00
  0.00000000E+00  0.00000000E+00  0.00000000E+00
  0.00000000E+00  0.00000000E+00  0.00000000E+00
  0.00000000E+00  0.00000000E+00  0.00000000E+00
  0.00000000E+00  0.00000000E+00  0.00000000E+00
  0.00000000E+00  0.00000000E+00  0.00000000E+00
  0.00000000E+00  0.00000000E+00  0.00000000E+00
  0.00000000E+00  0.00000000E+00  0.00000000E+00
  0.00000000E+00  0.00000000E+00  0.00000000E+00
  0.00000000E+00  0.00000000E+00  0.00000000E+00
  0.00000000E+00  0.00000000E+00  0.00000000E+00
  0.00000000E+00  0.00000000E+00  0.00000000E+00
  0.00000000E+00  0.00000000E+00  0.00000000E+00
  0.00000000E+00  0.00000000E+00  0.00000000E+00
  0.00000000E+00  0.00000000E+00  0.00000000E+00
  0.00000000E+00  0.00000000E+00  0.00000000E+00
  0.00000000E+00  0.00000000E+00  0.00000000E+00
  0.00000000E+00  0.00000000E+00  0.00000000E+00
  0.00000000E+00  0.00000000E+00  0.00000000E+00
  0.00000000E+00  0.00000000E+00  0.00000000E+00
  0.00000000E+00  0.00000000E+00  0.00000000E+00
  0.00000000E+00  0.00000000E+00  0.00000000E+00
  0.00000000E+00  0.00000000E+00  0.00000000E+00
  0.00000000E+00  0.00000000E+00  0.00000000E+00
  0.00000000E+00  0.00000000E+00  0.00000000E+00
  0.00000000E+00  0.00000000E+00  0.00000000E+00
  0.00000000E+00  0.00000000E+00  0.00000000E+00
  0.00000000E+00  0.00000000E+00  0.00000000E+00
  0.00000000E+00  0.00000000E+00  0.00000000E+00
  0.00000000E+00  0.00000000E+00  0.00000000E+00
  0.00000000E+00  0.00000000E+00  0.00000000E+00
  0.00000000E+00  0.00000000E+00  0.00000000E+00
