Pb Na F                                 
   1.00000000000000     
     9.5712480000000006   -9.5712480000000006    0.0000000000000000
     9.5712480000000006    9.5712480000000006    0.0000000000000000
     0.0000000000000000    0.0000000000000000   19.1424969999999988
   F    Na   Pb
    96    32    32
Direct
  0.0227401676755693  0.3383809098590694  0.9917029359357596
  0.0050609368319936  0.2867569584963503  0.2582926698821928
  0.0029593784434838  0.2234421662277692  0.5176515616379450
  0.9360467624595304  0.2192993181540138  0.7612491582403337
  0.5666573813887416  0.3165029822587136  0.9740703186072636
  0.5226157525252966  0.2997010702648594  0.2310456856438867
  0.4507607566318342  0.2476328512298618  0.4765041127682190
  0.4528655096627422  0.2559495758904711  0.7366600345004471
  0.2394344716915093  0.4111647367055895  0.9800791474557474
  0.3132867762792408  0.5329996720983946  0.2237974242518135
  0.2441214726873025  0.5174752310621662  0.4781107059209425
  0.2932330096070397  0.5293203368625226  0.7304193792068587
  0.9678442754425680  0.8393681590160369  0.0003639342817504
  0.0409899001286740  0.7765558755282036  0.2419639437961715
  0.0485210926539615  0.6566249643835245  0.4728711159908361
  0.0072005406088218  0.7435937173144138  0.7612756691668202
  0.7076504032591345  0.5117219516597465  0.0019256956573157
  0.7665873547884338  0.4333562987602681  0.2641879671968433
  0.7528126947508601  0.5309327909911111  0.5094917015018752
  0.7467308217098192  0.5751158212958771  0.7500021030840304
  0.5134036345586528  0.8144238476553606  0.9955109112051367
  0.5118185986783271  0.7866801256605244  0.2471178304878736
  0.5269375734428046  0.7820881469250111  0.5011588819469321
  0.4305895293815253  0.7392404317502985  0.7505819567639375
  0.2530602948540154  0.9863350254177324  0.9957031659834864
  0.2603506267575406  0.9789806720267941  0.2501150788290165
  0.2809514499632971  0.9849952387514292  0.4995199135886729
  0.3269370281351593  0.9968395332431905  0.7481524277943764
  0.7166336181613289  0.0824079734464994  0.0094199284941240
  0.7685487690256324  0.9793663731008758  0.2568303914363410
  0.7860228188453473  0.9808112821127462  0.5163556631781823
  0.7644434842336477  0.0601552442917058  0.7631104302402621
  0.1787650777558691  0.1795790743879338  0.1141576651239823
  0.1600372898650439  0.1343577626187779  0.4161049618179186
  0.0938450164970225  0.0858152326475162  0.6794618562389286
  0.1292755353597020  0.1381899643898280  0.9297394609318850
  0.6631242025577230  0.1715632474594901  0.1618471333721310
  0.6267214171722154  0.1217894719549881  0.4006008810823572
  0.6282508283772968  0.1321129095611448  0.5877727393583563
  0.6444621617711622  0.1552735442449659  0.8669255944075224
  0.3787055590510268  0.3608312546877360  0.1278260528678208
  0.3390417428405971  0.3115884298631207  0.3179277777308614
  0.3751565623262232  0.3900188884302014  0.6222996642321899
  0.3763934127660068  0.4012626585334309  0.8373697466941755
  0.1783691395885583  0.6586662352921319  0.1321966422469581
  0.1376233133873339  0.5963228104915677  0.3405023807879856
  0.1115717801701276  0.6085407825647521  0.6678887152985437
  0.1210866340784294  0.6198500016639424  0.9250761242744664
  0.9191370628984030  0.4246910459559385  0.1508677782818530
  0.9011514504040725  0.3849338286753669  0.3991071500679162
  0.9204241250804009  0.4101460632871175  0.6644517456471376
  0.8378574481337205  0.3497106809328897  0.8887264959672798
  0.6631641490073519  0.6602674274206088  0.1335988041116405
  0.5929595859772401  0.5940562015492006  0.4229691766566481
  0.6580632523814008  0.6552588331737285  0.6129134806733417
  0.5680933813102340  0.5861441415763743  0.8602831896836433
  0.4012299862998739  0.8992791788163086  0.1403522146864952
  0.3938413506142829  0.8808741305205162  0.3786402011985543
  0.4153877921526237  0.8970798653095945  0.6192267078673538
  0.3487405265530156  0.8629354483094601  0.8924317565218809
  0.8823136499734007  0.8643973518823816  0.1470144863847155
  0.9003986113953784  0.8845439466114464  0.3633195649183220
  0.8594281479282390  0.8777207233847458  0.6703243627576569
  0.8951923578964551  0.9225318960348574  0.8444261322831065
  0.8865777691218026  0.1549144419059777  0.1316418963773238
  0.8844050017080123  0.1089794781218480  0.4062140825498813
  0.8776005680536981  0.0997241876359672  0.6311038567106884
  0.8462783495491633  0.1448017626677650  0.8959516291093094
  0.3839391738282831  0.1445511349823734  0.1665134169836936
  0.3739188657128870  0.0932142788692913  0.3824738657833826
  0.3250153293573799  0.1461748720324234  0.6003050293898496
  0.3963887923455506  0.0967862874304979  0.9058994836399895
  0.1634166363243508  0.3854218845085960  0.1598529269721582
  0.1209534484236908  0.3853519453286927  0.3918129835153348
  0.1482031759808259  0.3550418779281381  0.6888816770886732
  0.0586304223319477  0.4240471999673755  0.8437962111448152
  0.8734963700684328  0.6518548524847818  0.0912586324218192
  0.9161438476538464  0.5723235762146081  0.3429872017132365
  0.8729225065754126  0.6427617775460165  0.6379971826095733
  0.8742283625940422  0.6033758416541287  0.8948305646930617
  0.6095789828802517  0.4037317448859439  0.1283851783552288
  0.6455426611094141  0.3576277162315973  0.4117470539749687
  0.6068457797659168  0.3535965639505383  0.5744456358768134
  0.6416310692329629  0.3521194216120543  0.8186830792574054
  0.4421063170934093  0.5612918832209226  0.0927030066954162
  0.3470586790545471  0.6389626983622401  0.3757487376538389
  0.3318486060653871  0.6471370468096667  0.6048980962630506
  0.3374242009124881  0.6357702869210581  0.8808832440900678
  0.1077968058457303  0.9221107284322375  0.1068045778582468
  0.1552650212589566  0.8114258599609584  0.3909086827504800
  0.1744169786167042  0.8278548998263942  0.6676064543225020
  0.1199363647142276  0.8669017899376872  0.8970336432834916
  0.6419036192529770  0.8670445719030607  0.1325019314323515
  0.6555385606160400  0.8270858542550541  0.3648077644827153
  0.6116670982735574  0.8477156270881797  0.6807275318429690
  0.5541255792720639  0.9086026959118322  0.8495439317804676
  0.0823327061544387  0.9645483545759836  0.9939382441855140
  0.9240839294881652  0.9117218923110804  0.2515975203359010
  0.9143266757262652  0.0856610789087959  0.5183865253270677
  0.9281859961961176  0.0160651314662940  0.7351140808547061
  0.4680907805152157  0.9620513479284466  0.9479923507847684
  0.4076546367972423  0.9134399724988377  0.2576645086234180
  0.4288045880324307  0.9194960129754776  0.4980260970876373
  0.4744733295463660  0.9199327471587500  0.7425463059453290
  0.1764550060727161  0.2593866163739357  0.0074308771959088
  0.2790817598681767  0.2725810284823987  0.2021209346245684
  0.2997050003802968  0.1565322821360122  0.4844672529300992
  0.3140654511886600  0.3513490613624244  0.7299018737790243
  0.9880888310819887  0.5026564515007113  0.9385629554166728
  0.9346286202899777  0.4365336101615578  0.2690052696092531
  0.0229220742876239  0.5070643172666158  0.4251287600083226
  0.0421810141416633  0.4761346360951147  0.7279030230765620
  0.7181312068057437  0.2376637493202255  0.9580728618650706
  0.6860713931242478  0.3121270064320322  0.2197728144994089
  0.6462038659368856  0.2287427763695571  0.4905076247723500
  0.7688453447061389  0.2315389043090590  0.7973146396854598
  0.5507863864884560  0.4671528100319208  0.0260005288862522
  0.4716533079725800  0.4650050579441812  0.1910704989291172
  0.5881851869849043  0.4615016539391899  0.4933207161821900
  0.4340854898478033  0.5463619022356604  0.7957263364596857
  0.2294820509516259  0.7506625663406377  0.9196708001441913
  0.1936034242314263  0.6700221254635974  0.2451819684139765
  0.2136748909706862  0.6760111719344978  0.4445648742098914
  0.2642738965961896  0.6997261116029712  0.7069162053090274
  0.7687501452032224  0.7757257351277929  0.0941038444725220
  0.6652866956133736  0.8500535809164659  0.2493754639410252
  0.6772534722807122  0.6834920163098294  0.4999778001881443
  0.7549010768433256  0.7430515294363907  0.6906006241790147
  0.0167758668211237  0.2844375576687574  0.1388646678959281
  0.0189069801878280  0.2390152937651431  0.3943498386058170
  0.0142106620332205  0.2416303501711481  0.6520857793449643
  0.9869752714430887  0.2592960791387915  0.8835027188051419
  0.5074260584203328  0.2441332041960608  0.1178332228743142
  0.4813316068522598  0.2208310027941746  0.3579585736355424
  0.4801445913381298  0.2455224069430685  0.6131566422388817
  0.5029420733268354  0.2659183357579510  0.8590058095042074
  0.2672292069429721  0.5077471576069020  0.1068417483366013
  0.2656574125164902  0.4744735020896632  0.3587216754427595
  0.2439329856267978  0.5019973574034026  0.6070677685390045
  0.2249326098415164  0.4932850724696114  0.8770856267143147
  0.0215888468758414  0.7699414487646224  0.1132683745979756
  0.0036893377457730  0.7329320686852011  0.3664200802153383
  0.0175296708731616  0.7504897533941163  0.6451275330717707
  0.9714829551604197  0.7757848075927287  0.8819131991113610
  0.7665539047805963  0.5222074544453010  0.1158364622585986
  0.7618694070863574  0.4828433126098647  0.3824448068790766
  0.7749200376227787  0.5060994437575459  0.6363838951989171
  0.7299995334393479  0.5075797677611178  0.8659935284179420
  0.5070320020993400  0.7622415951421655  0.1169771600024174
  0.5004991371891823  0.7331146324162348  0.3759132534858109
  0.4969313151984419  0.7419897169229244  0.6264141807545888
  0.4856887592239040  0.7509777928136132  0.8769802101022928
  0.2607128523645083  0.0173864021010607  0.1276475805854218
  0.2356420849952611  0.9782716583288193  0.3797443340864072
  0.2486476742309675  0.9958651340909319  0.6412861110346736
  0.2522620079748645  0.0185415442157385  0.8765751011307182
  0.7624950769571863  0.0442665099824540  0.1253226703628290
  0.7576286346846969  0.9912355576799056  0.3877833292744610
  0.7338590439438673  0.0027308767763179  0.6331173060180773
  0.7421757774500231  0.0120268603370908  0.8784079500799433
 
  0.00000000E+00  0.00000000E+00  0.00000000E+00
  0.00000000E+00  0.00000000E+00  0.00000000E+00
  0.00000000E+00  0.00000000E+00  0.00000000E+00
  0.00000000E+00  0.00000000E+00  0.00000000E+00
  0.00000000E+00  0.00000000E+00  0.00000000E+00
  0.00000000E+00  0.00000000E+00  0.00000000E+00
  0.00000000E+00  0.00000000E+00  0.00000000E+00
  0.00000000E+00  0.00000000E+00  0.00000000E+00
  0.00000000E+00  0.00000000E+00  0.00000000E+00
  0.00000000E+00  0.00000000E+00  0.00000000E+00
  0.00000000E+00  0.00000000E+00  0.00000000E+00
  0.00000000E+00  0.00000000E+00  0.00000000E+00
  0.00000000E+00  0.00000000E+00  0.00000000E+00
  0.00000000E+00  0.00000000E+00  0.00000000E+00
  0.00000000E+00  0.00000000E+00  0.00000000E+00
  0.00000000E+00  0.00000000E+00  0.00000000E+00
  0.00000000E+00  0.00000000E+00  0.00000000E+00
  0.00000000E+00  0.00000000E+00  0.00000000E+00
  0.00000000E+00  0.00000000E+00  0.00000000E+00
  0.00000000E+00  0.00000000E+00  0.00000000E+00
  0.00000000E+00  0.00000000E+00  0.00000000E+00
  0.00000000E+00  0.00000000E+00  0.00000000E+00
  0.00000000E+00  0.00000000E+00  0.00000000E+00
  0.00000000E+00  0.00000000E+00  0.00000000E+00
  0.00000000E+00  0.00000000E+00  0.00000000E+00
  0.00000000E+00  0.00000000E+00  0.00000000E+00
  0.00000000E+00  0.00000000E+00  0.00000000E+00
  0.00000000E+00  0.00000000E+00  0.00000000E+00
  0.00000000E+00  0.00000000E+00  0.00000000E+00
  0.00000000E+00  0.00000000E+00  0.00000000E+00
  0.00000000E+00  0.00000000E+00  0.00000000E+00
  0.00000000E+00  0.00000000E+00  0.00000000E+00
  0.00000000E+00  0.00000000E+00  0.00000000E+00
  0.00000000E+00  0.00000000E+00  0.00000000E+00
  0.00000000E+00  0.00000000E+00  0.00000000E+00
  0.00000000E+00  0.00000000E+00  0.00000000E+00
  0.00000000E+00  0.00000000E+00  0.00000000E+00
  0.00000000E+00  0.00000000E+00  0.00000000E+00
  0.00000000E+00  0.00000000E+00  0.00000000E+00
  0.00000000E+00  0.00000000E+00  0.00000000E+00
  0.00000000E+00  0.00000000E+00  0.00000000E+00
  0.00000000E+00  0.00000000E+00  0.00000000E+00
  0.00000000E+00  0.00000000E+00  0.00000000E+00
  0.00000000E+00  0.00000000E+00  0.00000000E+00
  0.00000000E+00  0.00000000E+00  0.00000000E+00
  0.00000000E+00  0.00000000E+00  0.00000000E+00
  0.00000000E+00  0.00000000E+00  0.00000000E+00
  0.00000000E+00  0.00000000E+00  0.00000000E+00
  0.00000000E+00  0.00000000E+00  0.00000000E+00
  0.00000000E+00  0.00000000E+00  0.00000000E+00
  0.00000000E+00  0.00000000E+00  0.00000000E+00
  0.00000000E+00  0.00000000E+00  0.00000000E+00
  0.00000000E+00  0.00000000E+00  0.00000000E+00
  0.00000000E+00  0.00000000E+00  0.00000000E+00
  0.00000000E+00  0.00000000E+00  0.00000000E+00
  0.00000000E+00  0.00000000E+00  0.00000000E+00
  0.00000000E+00  0.00000000E+00  0.00000000E+00
  0.00000000E+00  0.00000000E+00  0.00000000E+00
  0.00000000E+00  0.00000000E+00  0.00000000E+00
  0.00000000E+00  0.00000000E+00  0.00000000E+00
  0.00000000E+00  0.00000000E+00  0.00000000E+00
  0.00000000E+00  0.00000000E+00  0.00000000E+00
  0.00000000E+00  0.00000000E+00  0.00000000E+00
  0.00000000E+00  0.00000000E+00  0.00000000E+00
  0.00000000E+00  0.00000000E+00  0.00000000E+00
  0.00000000E+00  0.00000000E+00  0.00000000E+00
  0.00000000E+00  0.00000000E+00  0.00000000E+00
  0.00000000E+00  0.00000000E+00  0.00000000E+00
  0.00000000E+00  0.00000000E+00  0.00000000E+00
  0.00000000E+00  0.00000000E+00  0.00000000E+00
  0.00000000E+00  0.00000000E+00  0.00000000E+00
  0.00000000E+00  0.00000000E+00  0.00000000E+00
  0.00000000E+00  0.00000000E+00  0.00000000E+00
  0.00000000E+00  0.00000000E+00  0.00000000E+00
  0.00000000E+00  0.00000000E+00  0.00000000E+00
  0.00000000E+00  0.00000000E+00  0.00000000E+00
  0.00000000E+00  0.00000000E+00  0.00000000E+00
  0.00000000E+00  0.00000000E+00  0.00000000E+00
  0.00000000E+00  0.00000000E+00  0.00000000E+00
  0.00000000E+00  0.00000000E+00  0.00000000E+00
  0.00000000E+00  0.00000000E+00  0.00000000E+00
  0.00000000E+00  0.00000000E+00  0.00000000E+00
  0.00000000E+00  0.00000000E+00  0.00000000E+00
  0.00000000E+00  0.00000000E+00  0.00000000E+00
  0.00000000E+00  0.00000000E+00  0.00000000E+00
  0.00000000E+00  0.00000000E+00  0.00000000E+00
  0.00000000E+00  0.00000000E+00  0.00000000E+00
  0.00000000E+00  0.00000000E+00  0.00000000E+00
  0.00000000E+00  0.00000000E+00  0.00000000E+00
  0.00000000E+00  0.00000000E+00  0.00000000E+00
  0.00000000E+00  0.00000000E+00  0.00000000E+00
  0.00000000E+00  0.00000000E+00  0.00000000E+00
  0.00000000E+00  0.00000000E+00  0.00000000E+00
  0.00000000E+00  0.00000000E+00  0.00000000E+00
  0.00000000E+00  0.00000000E+00  0.00000000E+00
  0.00000000E+00  0.00000000E+00  0.00000000E+00
  0.00000000E+00  0.00000000E+00  0.00000000E+00
  0.00000000E+00  0.00000000E+00  0.00000000E+00
  0.00000000E+00  0.00000000E+00  0.00000000E+00
  0.00000000E+00  0.00000000E+00  0.00000000E+00
  0.00000000E+00  0.00000000E+00  0.00000000E+00
  0.00000000E+00  0.00000000E+00  0.00000000E+00
  0.00000000E+00  0.00000000E+00  0.00000000E+00
  0.00000000E+00  0.00000000E+00  0.00000000E+00
  0.00000000E+00  0.00000000E+00  0.00000000E+00
  0.00000000E+00  0.00000000E+00  0.00000000E+00
  0.00000000E+00  0.00000000E+00  0.00000000E+00
  0.00000000E+00  0.00000000E+00  0.00000000E+00
  0.00000000E+00  0.00000000E+00  0.00000000E+00
  0.00000000E+00  0.00000000E+00  0.00000000E+00
  0.00000000E+00  0.00000000E+00  0.00000000E+00
  0.00000000E+00  0.00000000E+00  0.00000000E+00
  0.00000000E+00  0.00000000E+00  0.00000000E+00
  0.00000000E+00  0.00000000E+00  0.00000000E+00
  0.00000000E+00  0.00000000E+00  0.00000000E+00
  0.00000000E+00  0.00000000E+00  0.00000000E+00
  0.00000000E+00  0.00000000E+00  0.00000000E+00
  0.00000000E+00  0.00000000E+00  0.00000000E+00
  0.00000000E+00  0.00000000E+00  0.00000000E+00
  0.00000000E+00  0.00000000E+00  0.00000000E+00
  0.00000000E+00  0.00000000E+00  0.00000000E+00
  0.00000000E+00  0.00000000E+00  0.00000000E+00
  0.00000000E+00  0.00000000E+00  0.00000000E+00
  0.00000000E+00  0.00000000E+00  0.00000000E+00
  0.00000000E+00  0.00000000E+00  0.00000000E+00
  0.00000000E+00  0.00000000E+00  0.00000000E+00
  0.00000000E+00  0.00000000E+00  0.00000000E+00
  0.00000000E+00  0.00000000E+00  0.00000000E+00
  0.00000000E+00  0.00000000E+00  0.00000000E+00
  0.00000000E+00  0.00000000E+00  0.00000000E+00
  0.00000000E+00  0.00000000E+00  0.00000000E+00
  0.00000000E+00  0.00000000E+00  0.00000000E+00
  0.00000000E+00  0.00000000E+00  0.00000000E+00
  0.00000000E+00  0.00000000E+00  0.00000000E+00
  0.00000000E+00  0.00000000E+00  0.00000000E+00
  0.00000000E+00  0.00000000E+00  0.00000000E+00
  0.00000000E+00  0.00000000E+00  0.00000000E+00
  0.00000000E+00  0.00000000E+00  0.00000000E+00
  0.00000000E+00  0.00000000E+00  0.00000000E+00
  0.00000000E+00  0.00000000E+00  0.00000000E+00
  0.00000000E+00  0.00000000E+00  0.00000000E+00
  0.00000000E+00  0.00000000E+00  0.00000000E+00
  0.00000000E+00  0.00000000E+00  0.00000000E+00
  0.00000000E+00  0.00000000E+00  0.00000000E+00
  0.00000000E+00  0.00000000E+00  0.00000000E+00
  0.00000000E+00  0.00000000E+00  0.00000000E+00
  0.00000000E+00  0.00000000E+00  0.00000000E+00
  0.00000000E+00  0.00000000E+00  0.00000000E+00
  0.00000000E+00  0.00000000E+00  0.00000000E+00
  0.00000000E+00  0.00000000E+00  0.00000000E+00
  0.00000000E+00  0.00000000E+00  0.00000000E+00
  0.00000000E+00  0.00000000E+00  0.00000000E+00
  0.00000000E+00  0.00000000E+00  0.00000000E+00
  0.00000000E+00  0.00000000E+00  0.00000000E+00
  0.00000000E+00  0.00000000E+00  0.00000000E+00
  0.00000000E+00  0.00000000E+00  0.00000000E+00
  0.00000000E+00  0.00000000E+00  0.00000000E+00
  0.00000000E+00  0.00000000E+00  0.00000000E+00
  0.00000000E+00  0.00000000E+00  0.00000000E+00
  0.00000000E+00  0.00000000E+00  0.00000000E+00
