In Rb Br                                
   1.00000000000000     
    11.4630729999999996  -11.4630729999999996    0.0000000000000000
    11.4630729999999996   11.4630729999999996    0.0000000000000000
     0.0000000000000000    0.0000000000000000   22.9261459999999992
   Br   In   Rb
    96    32    32
Direct
  0.9687215231692453  0.2426792425870203  0.9868088493941779
  0.0479397778943374  0.2636528430081382  0.2576781303915811
  0.9624130155520811  0.2501297346622020  0.4907048795168635
  0.0548803320364132  0.2741259635367707  0.7580321532477753
  0.4850739685871687  0.2945614571472591  0.9914931794704480
  0.4949292471046361  0.2008320388882087  0.2617892985651444
  0.5124328090392825  0.2998338058842369  0.4906660061608732
  0.5057942949885851  0.2318553508167189  0.7624877233466667
  0.2748429850401191  0.4984180374249536  0.9923222217651974
  0.2021913301965768  0.4888318757568561  0.2689896937366998
  0.2940208799603007  0.5002966459184301  0.4886534327229614
  0.2146552666668790  0.5078990297292044  0.7606594281364707
  0.9868624525118807  0.7699813570084356  0.9907969276951660
  0.0183664204930025  0.6916035004776692  0.2628089376353550
  0.0023842961062457  0.8067097415252379  0.4825101820365105
  0.0229424696118403  0.7254611405814603  0.7562530352098060
  0.7376702309013560  0.4525513168777899  0.0126567842585855
  0.7308690405313161  0.5446831959506842  0.2385062639970824
  0.7445198036368005  0.4629657677352629  0.5117211355642521
  0.7610757644920582  0.5350591619838131  0.7412598889090920
  0.4651951723505269  0.7394980676480966  0.0064649945500872
  0.5408871969779050  0.7550260364535195  0.2338769970877351
  0.4655807278253601  0.7599575933646723  0.5078104715678370
  0.5305083673119340  0.7704452235512840  0.7359525743148119
  0.2355085137217020  0.9589564536187439  0.0058351814369700
  0.2509188792586158  0.0450168803082517  0.2367024508766139
  0.2623500179510175  0.9631025600418194  0.5057399805129880
  0.2552492705525128  0.0251849309663254  0.7385262733645322
  0.7936029420814517  0.0013489328416996  0.0136187953434160
  0.6978171151756729  0.9792252162235914  0.2438337482986220
  0.7999782555599347  0.9915719247523718  0.5139428377409996
  0.7000459662591711  0.9971512168427511  0.7432300174994877
  0.1474486830987729  0.1346956064515678  0.0963204045370355
  0.1116997388002881  0.1338509243186851  0.3888997588599417
  0.1754080837395440  0.1417532369082364  0.6012981664944174
  0.1466010566219219  0.1686257852897556  0.8928606189561935
  0.6387329057379419  0.1105365238068456  0.1141517396009639
  0.6060772349128357  0.1220178652193485  0.3990133114063456
  0.6596081777137134  0.1287579796080512  0.6085985331438344
  0.6554390699885773  0.1791177297370086  0.8929115512529661
  0.3402262417135702  0.3345294234105101  0.1426300184015873
  0.4024957349131972  0.3826784782831633  0.3525948127397717
  0.3637939642163448  0.3533624704654055  0.6381903151608761
  0.3347509191607302  0.3515780153775148  0.8589877456643122
  0.1424577359312975  0.6542591558091035  0.1107846273986079
  0.1002589048978473  0.6072442255548591  0.4175493297793079
  0.1645532857206586  0.6716459585621997  0.6142871897416227
  0.1479516133289014  0.6521659767183824  0.8925512363286155
  0.8187078549808475  0.3470665906042094  0.1573931573518787
  0.9117553091867581  0.3920110909724072  0.3622455068522211
  0.8425142081659850  0.3509092504417332  0.6471161405688772
  0.8769737753737239  0.3453795177043999  0.8517902376546344
  0.6541731036614696  0.6490368482665132  0.0882698352455143
  0.5990236530385425  0.5927243250310219  0.3883273541590324
  0.6499019288923688  0.6604113193316823  0.6017866492075500
  0.6579843306181711  0.6424982080901349  0.8945299721853964
  0.3368681130227986  0.8630167807972822  0.1403062037562771
  0.4004812476475626  0.9059821215817300  0.3535548759909397
  0.3527713620372460  0.8572266654807458  0.6458890790318509
  0.3567840517226626  0.8617709360484060  0.8619570741351055
  0.8179361303987953  0.8451357867373051  0.1353379664412281
  0.9126788758629960  0.8887191424742832  0.3298414170800293
  0.8377406652263057  0.8562106254074453  0.6481202570023473
  0.8664428159916009  0.8434422350734490  0.8555534733232711
  0.8755572961067919  0.0956977785905662  0.1579384921536103
  0.8734633920911040  0.1485599230344068  0.3498524496419503
  0.8890169674285953  0.0930799003671713  0.6556665960823699
  0.9209246664781360  0.1051581185425060  0.8480692762072318
  0.3839973508977717  0.0888120625281746  0.0997388358324622
  0.3678948705181041  0.1569399049656413  0.4006464581133960
  0.4056021794656156  0.0863619481850760  0.6128762524631121
  0.4061621078450915  0.1258486158110163  0.8889527171034095
  0.0933534637021599  0.4045938402053176  0.1071811083190933
  0.1498488580346490  0.3652227663295799  0.4051363470518695
  0.0933070628575059  0.4116116183317792  0.6114772874644114
  0.1017579444662242  0.4135767893649937  0.8953577036848861
  0.8758606828888126  0.5806760941739066  0.1132520804190062
  0.8722363660799249  0.6609003896252433  0.3907835973259271
  0.8799240536149672  0.5970134349166255  0.6071253906477880
  0.9130658106129624  0.6061320879519871  0.8788944516200237
  0.5863879250737285  0.4262265822185585  0.1364394029221249
  0.6418443447685444  0.3432657779079163  0.3511047029551815
  0.6069369551236654  0.4243176523808860  0.6423675559740859
  0.5757143115638383  0.4061911566499319  0.8619599404205215
  0.4071284966420848  0.6233307070516936  0.1398001602174715
  0.3339659884063730  0.6318401380407306  0.3570253170131524
  0.4142948523569722  0.6242727642429364  0.6374295362455288
  0.3748563177075420  0.5956280439657662  0.8620191963158759
  0.1012984195269609  0.9129146551104266  0.1424436870567520
  0.1494454340601793  0.8338705866543018  0.3564805773381075
  0.1131531576856364  0.9162564549205058  0.6301691071319897
  0.1000268021269189  0.8842334119504931  0.8684321955326566
  0.5831130292071780  0.8870695150434320  0.0985185849665321
  0.6559592020253474  0.8432587144267552  0.3974045462953880
  0.6011676000409177  0.8985851360635199  0.6003520018826639
  0.6086268048234531  0.8938707057496076  0.8933760081406302
  0.9986057765610152  0.2508281967136708  0.1219669183859391
  0.9983045614800620  0.2526090129687156  0.3725524950801675
  0.0103873111842127  0.2497292910328059  0.6274097996009272
  0.0046432785629870  0.2446402409083028  0.8696544369117638
  0.4928539753787868  0.2464427228772096  0.1268928087034867
  0.5025840540736689  0.2527042836065213  0.3756678107810674
  0.5117465181571728  0.2499658177400047  0.6240607626717317
  0.5103310953226273  0.2552046159649025  0.8794162522394769
  0.2482401153040621  0.4959033177574431  0.1299083739349539
  0.2250993424061621  0.5125518716140353  0.3825635689164365
  0.2468436287140438  0.5078194463427785  0.6227132319120544
  0.2460998124491977  0.4919496818357489  0.8756549717293525
  0.9935727302345699  0.7543499719394458  0.1298620193423636
  0.0010917712006847  0.7614712412958670  0.3688115914803932
  0.0087867043927234  0.7534829940374225  0.6182924252163038
  0.0033177230220017  0.7457444835901014  0.8734679593061592
  0.7402504994994250  0.4866807543562870  0.1279453848454558
  0.7487142747273290  0.4994394056651347  0.3732450895065482
  0.7574979432390345  0.4890844461776190  0.6288811972344707
  0.7534686998437097  0.4922992187203254  0.8779928261857809
  0.5224360007877603  0.7362552393841935  0.1183841080951580
  0.5024312845494354  0.7504884073177001  0.3741465441695810
  0.5147259938110762  0.7545607291633770  0.6202302311666743
  0.5052780769769155  0.7459036404827631  0.8711926598853669
  0.2435832766983707  0.0009040657277266  0.1216439339927990
  0.2551788797741752  0.0034880588044244  0.3712618616618507
  0.2624793067077387  0.9980474380186412  0.6214465541062613
  0.2482241295614349  0.0043305514809537  0.8721185210317137
  0.7529874980876912  0.9938795428613765  0.1307471413438916
  0.7542301106827581  0.9943521717164515  0.3789691084616032
  0.7566275602604094  0.9985398049011119  0.6301149621293911
  0.7507905712501419  0.0054143274109870  0.8775230722428546
  0.0195147218230460  0.0159843362409266  0.9919022911645803
  0.0309032040608775  0.0386533836069796  0.2573338155834050
  0.0203945118260635  0.0304423573018924  0.5153626668130497
  0.9871604602396731  0.9554230123886996  0.7493653040293671
  0.4588515927995129  0.9649375615368027  0.9874953813714854
  0.4797809356335788  0.9841758063120940  0.2233412261341343
  0.4860262420325900  0.9864539941131075  0.4844483321800971
  0.4785711144010387  0.9850366429853025  0.7485866708923863
  0.2614484625842758  0.2717798441147016  0.0040174606071577
  0.2644544861828209  0.2602441323144874  0.2743107433202490
  0.2822473556682757  0.2775922336505835  0.5090592504319299
  0.2624980132806259  0.2366668801321233  0.7418456427138787
  0.0249410329810049  0.5424039956224660  0.0033174822029273
  0.9827233546697901  0.4781567502473736  0.2302408769054969
  0.9721990126069452  0.4730586907873205  0.4974109604275039
  0.9906081910352446  0.4875950142312784  0.7508359345430391
  0.7590592325140862  0.2359726417960966  0.0203975661639466
  0.7171315655627369  0.2015367789926539  0.2496439287512442
  0.7408291139792084  0.2414083348409156  0.4857673066367395
  0.7531878720038083  0.2151999753454756  0.7519679822827204
  0.5157522187683151  0.5174986238230016  0.9926795498261408
  0.5068050710598418  0.5201483270563555  0.2622627598056508
  0.5155005957065747  0.5189207684778218  0.5163370366492570
  0.4551515965522527  0.4746028201886887  0.7477328085403484
  0.2536254092769061  0.7472897060961581  0.0032627752096779
  0.2373163475594781  0.7302783568825534  0.2364385497382520
  0.2471394172266637  0.7470644538794310  0.4877731371549132
  0.2494989253000239  0.7337093864273844  0.7553899953076841
  0.7576021332987026  0.7824048461979130  0.9878892774614345
  0.7540194963828671  0.7599905448529919  0.2704955692448474
  0.7789738400317424  0.7702080033313514  0.5099447972053563
  0.7384551439524637  0.7440344848326835  0.7586847000825840
 
  0.00000000E+00  0.00000000E+00  0.00000000E+00
  0.00000000E+00  0.00000000E+00  0.00000000E+00
  0.00000000E+00  0.00000000E+00  0.00000000E+00
  0.00000000E+00  0.00000000E+00  0.00000000E+00
  0.00000000E+00  0.00000000E+00  0.00000000E+00
  0.00000000E+00  0.00000000E+00  0.00000000E+00
  0.00000000E+00  0.00000000E+00  0.00000000E+00
  0.00000000E+00  0.00000000E+00  0.00000000E+00
  0.00000000E+00  0.00000000E+00  0.00000000E+00
  0.00000000E+00  0.00000000E+00  0.00000000E+00
  0.00000000E+00  0.00000000E+00  0.00000000E+00
  0.00000000E+00  0.00000000E+00  0.00000000E+00
  0.00000000E+00  0.00000000E+00  0.00000000E+00
  0.00000000E+00  0.00000000E+00  0.00000000E+00
  0.00000000E+00  0.00000000E+00  0.00000000E+00
  0.00000000E+00  0.00000000E+00  0.00000000E+00
  0.00000000E+00  0.00000000E+00  0.00000000E+00
  0.00000000E+00  0.00000000E+00  0.00000000E+00
  0.00000000E+00  0.00000000E+00  0.00000000E+00
  0.00000000E+00  0.00000000E+00  0.00000000E+00
  0.00000000E+00  0.00000000E+00  0.00000000E+00
  0.00000000E+00  0.00000000E+00  0.00000000E+00
  0.00000000E+00  0.00000000E+00  0.00000000E+00
  0.00000000E+00  0.00000000E+00  0.00000000E+00
  0.00000000E+00  0.00000000E+00  0.00000000E+00
  0.00000000E+00  0.00000000E+00  0.00000000E+00
  0.00000000E+00  0.00000000E+00  0.00000000E+00
  0.00000000E+00  0.00000000E+00  0.00000000E+00
  0.00000000E+00  0.00000000E+00  0.00000000E+00
  0.00000000E+00  0.00000000E+00  0.00000000E+00
  0.00000000E+00  0.00000000E+00  0.00000000E+00
  0.00000000E+00  0.00000000E+00  0.00000000E+00
  0.00000000E+00  0.00000000E+00  0.00000000E+00
  0.00000000E+00  0.00000000E+00  0.00000000E+00
  0.00000000E+00  0.00000000E+00  0.00000000E+00
  0.00000000E+00  0.00000000E+00  0.00000000E+00
  0.00000000E+00  0.00000000E+00  0.00000000E+00
  0.00000000E+00  0.00000000E+00  0.00000000E+00
  0.00000000E+00  0.00000000E+00  0.00000000E+00
  0.00000000E+00  0.00000000E+00  0.00000000E+00
  0.00000000E+00  0.00000000E+00  0.00000000E+00
  0.00000000E+00  0.00000000E+00  0.00000000E+00
  0.00000000E+00  0.00000000E+00  0.00000000E+00
  0.00000000E+00  0.00000000E+00  0.00000000E+00
  0.00000000E+00  0.00000000E+00  0.00000000E+00
  0.00000000E+00  0.00000000E+00  0.00000000E+00
  0.00000000E+00  0.00000000E+00  0.00000000E+00
  0.00000000E+00  0.00000000E+00  0.00000000E+00
  0.00000000E+00  0.00000000E+00  0.00000000E+00
  0.00000000E+00  0.00000000E+00  0.00000000E+00
  0.00000000E+00  0.00000000E+00  0.00000000E+00
  0.00000000E+00  0.00000000E+00  0.00000000E+00
  0.00000000E+00  0.00000000E+00  0.00000000E+00
  0.00000000E+00  0.00000000E+00  0.00000000E+00
  0.00000000E+00  0.00000000E+00  0.00000000E+00
  0.00000000E+00  0.00000000E+00  0.00000000E+00
  0.00000000E+00  0.00000000E+00  0.00000000E+00
  0.00000000E+00  0.00000000E+00  0.00000000E+00
  0.00000000E+00  0.00000000E+00  0.00000000E+00
  0.00000000E+00  0.00000000E+00  0.00000000E+00
  0.00000000E+00  0.00000000E+00  0.00000000E+00
  0.00000000E+00  0.00000000E+00  0.00000000E+00
  0.00000000E+00  0.00000000E+00  0.00000000E+00
  0.00000000E+00  0.00000000E+00  0.00000000E+00
  0.00000000E+00  0.00000000E+00  0.00000000E+00
  0.00000000E+00  0.00000000E+00  0.00000000E+00
  0.00000000E+00  0.00000000E+00  0.00000000E+00
  0.00000000E+00  0.00000000E+00  0.00000000E+00
  0.00000000E+00  0.00000000E+00  0.00000000E+00
  0.00000000E+00  0.00000000E+00  0.00000000E+00
  0.00000000E+00  0.00000000E+00  0.00000000E+00
  0.00000000E+00  0.00000000E+00  0.00000000E+00
  0.00000000E+00  0.00000000E+00  0.00000000E+00
  0.00000000E+00  0.00000000E+00  0.00000000E+00
  0.00000000E+00  0.00000000E+00  0.00000000E+00
  0.00000000E+00  0.00000000E+00  0.00000000E+00
  0.00000000E+00  0.00000000E+00  0.00000000E+00
  0.00000000E+00  0.00000000E+00  0.00000000E+00
  0.00000000E+00  0.00000000E+00  0.00000000E+00
  0.00000000E+00  0.00000000E+00  0.00000000E+00
  0.00000000E+00  0.00000000E+00  0.00000000E+00
  0.00000000E+00  0.00000000E+00  0.00000000E+00
  0.00000000E+00  0.00000000E+00  0.00000000E+00
  0.00000000E+00  0.00000000E+00  0.00000000E+00
  0.00000000E+00  0.00000000E+00  0.00000000E+00
  0.00000000E+00  0.00000000E+00  0.00000000E+00
  0.00000000E+00  0.00000000E+00  0.00000000E+00
  0.00000000E+00  0.00000000E+00  0.00000000E+00
  0.00000000E+00  0.00000000E+00  0.00000000E+00
  0.00000000E+00  0.00000000E+00  0.00000000E+00
  0.00000000E+00  0.00000000E+00  0.00000000E+00
  0.00000000E+00  0.00000000E+00  0.00000000E+00
  0.00000000E+00  0.00000000E+00  0.00000000E+00
  0.00000000E+00  0.00000000E+00  0.00000000E+00
  0.00000000E+00  0.00000000E+00  0.00000000E+00
  0.00000000E+00  0.00000000E+00  0.00000000E+00
  0.00000000E+00  0.00000000E+00  0.00000000E+00
  0.00000000E+00  0.00000000E+00  0.00000000E+00
  0.00000000E+00  0.00000000E+00  0.00000000E+00
  0.00000000E+00  0.00000000E+00  0.00000000E+00
  0.00000000E+00  0.00000000E+00  0.00000000E+00
  0.00000000E+00  0.00000000E+00  0.00000000E+00
  0.00000000E+00  0.00000000E+00  0.00000000E+00
  0.00000000E+00  0.00000000E+00  0.00000000E+00
  0.00000000E+00  0.00000000E+00  0.00000000E+00
  0.00000000E+00  0.00000000E+00  0.00000000E+00
  0.00000000E+00  0.00000000E+00  0.00000000E+00
  0.00000000E+00  0.00000000E+00  0.00000000E+00
  0.00000000E+00  0.00000000E+00  0.00000000E+00
  0.00000000E+00  0.00000000E+00  0.00000000E+00
  0.00000000E+00  0.00000000E+00  0.00000000E+00
  0.00000000E+00  0.00000000E+00  0.00000000E+00
  0.00000000E+00  0.00000000E+00  0.00000000E+00
  0.00000000E+00  0.00000000E+00  0.00000000E+00
  0.00000000E+00  0.00000000E+00  0.00000000E+00
  0.00000000E+00  0.00000000E+00  0.00000000E+00
  0.00000000E+00  0.00000000E+00  0.00000000E+00
  0.00000000E+00  0.00000000E+00  0.00000000E+00
  0.00000000E+00  0.00000000E+00  0.00000000E+00
  0.00000000E+00  0.00000000E+00  0.00000000E+00
  0.00000000E+00  0.00000000E+00  0.00000000E+00
  0.00000000E+00  0.00000000E+00  0.00000000E+00
  0.00000000E+00  0.00000000E+00  0.00000000E+00
  0.00000000E+00  0.00000000E+00  0.00000000E+00
  0.00000000E+00  0.00000000E+00  0.00000000E+00
  0.00000000E+00  0.00000000E+00  0.00000000E+00
  0.00000000E+00  0.00000000E+00  0.00000000E+00
  0.00000000E+00  0.00000000E+00  0.00000000E+00
  0.00000000E+00  0.00000000E+00  0.00000000E+00
  0.00000000E+00  0.00000000E+00  0.00000000E+00
  0.00000000E+00  0.00000000E+00  0.00000000E+00
  0.00000000E+00  0.00000000E+00  0.00000000E+00
  0.00000000E+00  0.00000000E+00  0.00000000E+00
  0.00000000E+00  0.00000000E+00  0.00000000E+00
  0.00000000E+00  0.00000000E+00  0.00000000E+00
  0.00000000E+00  0.00000000E+00  0.00000000E+00
  0.00000000E+00  0.00000000E+00  0.00000000E+00
  0.00000000E+00  0.00000000E+00  0.00000000E+00
  0.00000000E+00  0.00000000E+00  0.00000000E+00
  0.00000000E+00  0.00000000E+00  0.00000000E+00
  0.00000000E+00  0.00000000E+00  0.00000000E+00
  0.00000000E+00  0.00000000E+00  0.00000000E+00
  0.00000000E+00  0.00000000E+00  0.00000000E+00
  0.00000000E+00  0.00000000E+00  0.00000000E+00
  0.00000000E+00  0.00000000E+00  0.00000000E+00
  0.00000000E+00  0.00000000E+00  0.00000000E+00
  0.00000000E+00  0.00000000E+00  0.00000000E+00
  0.00000000E+00  0.00000000E+00  0.00000000E+00
  0.00000000E+00  0.00000000E+00  0.00000000E+00
  0.00000000E+00  0.00000000E+00  0.00000000E+00
  0.00000000E+00  0.00000000E+00  0.00000000E+00
  0.00000000E+00  0.00000000E+00  0.00000000E+00
  0.00000000E+00  0.00000000E+00  0.00000000E+00
  0.00000000E+00  0.00000000E+00  0.00000000E+00
  0.00000000E+00  0.00000000E+00  0.00000000E+00
  0.00000000E+00  0.00000000E+00  0.00000000E+00
  0.00000000E+00  0.00000000E+00  0.00000000E+00
  0.00000000E+00  0.00000000E+00  0.00000000E+00
  0.00000000E+00  0.00000000E+00  0.00000000E+00
  0.00000000E+00  0.00000000E+00  0.00000000E+00
