Pb In F                                 
   1.00000000000000     
     9.6273949999999999   -9.6273949999999999    0.0000000000000000
     9.6273949999999999    9.6273949999999999    0.0000000000000000
     0.0000000000000000    0.0000000000000000   19.2547899999999998
   F    In   Pb
    96    32    32
Direct
  0.9392689270757874  0.2658789385980304  0.0038828831157228
  0.9977478848688790  0.2941685526305105  0.2574969643135107
  0.0119033607002754  0.2810401373745834  0.5071394419178927
  0.9438344680334013  0.2480251158909349  0.7536682377117632
  0.5028327533334591  0.2362024217996275  0.0120219828671167
  0.4959264457067265  0.2006877788427900  0.2629644255685529
  0.4664734593541470  0.2423443475059725  0.5115484889156995
  0.4650781130694536  0.2078101083083577  0.7613254324616203
  0.1882055975197293  0.5072037387692089  0.0050794143953403
  0.2490580374586263  0.5607805451411537  0.2532989513223668
  0.2636839749893517  0.5477605786082278  0.4991402943621228
  0.2787433435282049  0.5067238023016962  0.7536542220974148
  0.0129996110274605  0.6999639603458122  0.9822675921561147
  0.0189255534472617  0.7797561918351769  0.2324437376070462
  0.9606222069010082  0.7917635768315703  0.4805958582041735
  0.9671320420144570  0.7408119096786778  0.7310882361810283
  0.7502351225939436  0.4547455156685196  0.9894906016229396
  0.7169870852031559  0.5065039103788154  0.2431558252453538
  0.7116368257917630  0.4955888783004417  0.4936604352737308
  0.7489847149977220  0.4484107819914163  0.7445075637804063
  0.5332996018194601  0.7527638996772095  0.0051581030499580
  0.4538769605449066  0.7379365205515450  0.2554309889180678
  0.4546331395305934  0.7259077973388744  0.5015004722581398
  0.5002376574347104  0.7245213094790647  0.7536593343776106
  0.2219705226658127  0.0051971263676763  0.0032617019216988
  0.2919340329189853  0.0615919298135294  0.2546422669523669
  0.2551383491509153  0.0399113631331566  0.4939864098026960
  0.2889810431426911  0.0050122677435958  0.7456678444612582
  0.7513517430173049  0.9671605541441082  0.9918369015004370
  0.7070346016742752  0.0482545807772687  0.2422674287954700
  0.8075296391837954  0.9871329875869290  0.4850053338884687
  0.7938249648685951  0.0079169416065529  0.7359611133594187
  0.1487541688919410  0.1635266326773012  0.1032845200378169
  0.1844020981753034  0.1629142568435494  0.3663870045976664
  0.1376348679804140  0.1223232696756679  0.6369223871806142
  0.1014053390502475  0.1196922895395702  0.9056118971467131
  0.5761002168131529  0.1105700081858196  0.1292724225077208
  0.6163586859129800  0.0919378335825972  0.3934743429709774
  0.6677734205434768  0.1354455406915666  0.6052498384166431
  0.6217716256277648  0.1198319116270670  0.8892381395529254
  0.3381576758606558  0.3605430033430788  0.1017384396120695
  0.3560290610872676  0.3129920441301242  0.3718562371826397
  0.3688248775977822  0.3381132978637760  0.6575978039936200
  0.3691107834604788  0.3653947919773976  0.8406467064351235
  0.0853950669835511  0.6132096970581924  0.1131819186700400
  0.1232442610159543  0.6131184750481651  0.3889193337567435
  0.1235171795869075  0.5981639390520430  0.6595980592491463
  0.1086263572688621  0.5947724591370773  0.8417217185275757
  0.8882800863428051  0.4019439131849287  0.1485728821271676
  0.9049222248503296  0.3791966988620365  0.3974019121525993
  0.8367666475516430  0.3235165803935218  0.6251502823957698
  0.8209310124781889  0.3316688361554909  0.8770847503570388
  0.6300948633726712  0.6481213752200051  0.1383689312858162
  0.6135072107805964  0.5974293576302617  0.3575270841909337
  0.6118397740135438  0.5886455204542492  0.6099370343532705
  0.6302724611202959  0.6244969252243204  0.9087931888154825
  0.3665095614787774  0.8931772548869552  0.0955973111442345
  0.4044262598404915  0.8917057622024399  0.3923049931210433
  0.3825565414720472  0.8627725535867307  0.6586830059872224
  0.3763208204412055  0.8902653263071567  0.8823217882026979
  0.8524333137055241  0.8836687345416457  0.1506922772981066
  0.9008159580708515  0.8851819939473459  0.3323015316766282
  0.9195322831563680  0.8895147704262608  0.6094790705999741
  0.8819223828569424  0.8723455070318388  0.8358393190387204
  0.8609690683550290  0.1521696926468914  0.1586267019422444
  0.8595504504857254  0.1375315227549633  0.3438700895917856
  0.8856002036294902  0.1178935533934505  0.5938279933327184
  0.8898316010067769  0.1000892494139804  0.8666643265771543
  0.3596704689935944  0.1307565669991714  0.0907757626293550
  0.3944196143163577  0.1095830601444150  0.3980547034297086
  0.4050011194530878  0.0899311151349465  0.6357249436918203
  0.3833780216683624  0.1296179587160542  0.9083454886493965
  0.1016625134218207  0.4070372768576091  0.1492418441282123
  0.1114548273438554  0.3889184490204692  0.3945099397461921
  0.1184948462032448  0.3868454117400655  0.6599871295935866
  0.1144415469897385  0.3818590661598839  0.8396812164786369
  0.8544168448553781  0.6591825821612246  0.1435523493912122
  0.8451565664884680  0.6455975714607944  0.4064492590567229
  0.8643523646249452  0.6472600290890598  0.5913944597128499
  0.8656041593527846  0.6610979111325380  0.8532601075689052
  0.6262001635821225  0.3805814532984628  0.1237970184306479
  0.6123222995623425  0.3930748942049834  0.3526781794764949
  0.6213533939688166  0.3814811975435261  0.6016893324629111
  0.5966904250085989  0.4244262936003516  0.8771669757131763
  0.3379286271846613  0.6714360493676249  0.1119480651455548
  0.3364824436292985  0.6658471333383249  0.3783857458268361
  0.3416514610430576  0.6551720896323877  0.6386271151108208
  0.4191220188475179  0.5783510410114013  0.8772244611527780
  0.1537695131933200  0.8474966332177658  0.1025019008024183
  0.1055879353394779  0.8772338460261746  0.3550976263834698
  0.1590270267175437  0.8401702376402226  0.6481347334513524
  0.1100306683003502  0.9043549753629718  0.8944095242394063
  0.6409557244385313  0.8753090316596235  0.1363085891196814
  0.6183320933836254  0.8803645396446270  0.3972088826578057
  0.6055123279120088  0.8907111386902906  0.6428210362295683
  0.6437813725678964  0.8405674377770466  0.8840431159087073
  0.0465186043682454  0.0008508488939708  0.9843507901595656
  0.0213150593811779  0.9483844333122622  0.2601495783667024
  0.9768437148570830  0.9776962686611147  0.5104123077241053
  0.9624927197523566  0.0045830955090531  0.7684311301868861
  0.4859782282414459  0.0493750979269368  0.0148697270176896
  0.5231302677223023  0.0309879832560578  0.2373224130887498
  0.5122691548306929  0.9895789537555497  0.4700905033648100
  0.4691911687072261  0.9900292973102023  0.7312251831654152
  0.2585095279408596  0.2455319832371301  0.0224555694915787
  0.2736160975440959  0.2370249009807653  0.2710846487974014
  0.2810245215718185  0.2238194701787188  0.4803752541504914
  0.2908846932882769  0.2521377400820554  0.7505722643586201
  0.0170062353466477  0.5293226661708588  0.0139052346901145
  0.9935236200534919  0.4710805298680004  0.2355805368482947
  0.0081102060204075  0.4542673232625768  0.4822938191913614
  0.0286739573977174  0.4908863271600021  0.7442457452959806
  0.7612810805886578  0.2795947412941164  0.9914912734743159
  0.7700919493179487  0.2197725523386412  0.2531781991302197
  0.7761900760134414  0.2245879030040552  0.5287636791331991
  0.7684702294355226  0.2667432685417123  0.7445816830902791
  0.5223791820100971  0.5164849507937531  0.9708378859406634
  0.5460169308285149  0.4991795062983639  0.2665350859638196
  0.5399426413815134  0.4890586745252355  0.5210559631479538
  0.4654545835082572  0.4935643765647756  0.7705968314041323
  0.2687585315569760  0.7815557325572092  0.0236466593459481
  0.2760447881287518  0.7331322401963497  0.2607178584201537
  0.2805158467981096  0.7222089141055540  0.4963567786419401
  0.2666228869560141  0.7563641434349645  0.7262111256449706
  0.7090021901089373  0.7569260057388107  0.9853781196534074
  0.7508696619431335  0.7606931394891275  0.2138569447195297
  0.7877898510892533  0.7383531937018147  0.5020632877825810
  0.7975321019249880  0.7555105670518855  0.7624870156804243
  0.9944713869473134  0.2579996232404629  0.1260697998038264
  0.0074789764955528  0.2424481126958075  0.3762300582041408
  0.0129215488555128  0.2404237236643812  0.6307001156274732
  0.9882400536636436  0.2486502172905811  0.8777507538266710
  0.4938320372264566  0.2714862700830764  0.1303894347376785
  0.5158615910059298  0.2425282613588235  0.3840015356772805
  0.5088722318852205  0.2349985144546940  0.6287673632171498
  0.5041127984944147  0.2447619226486287  0.8794377078051181
  0.2416422930008880  0.5124247671980257  0.1261471088737413
  0.2497117575030158  0.5058480265364061  0.3775426986694388
  0.2558331949514190  0.4949574495049883  0.6300982717737245
  0.2384712564711874  0.4874727289891063  0.8753594315293460
  0.9940114879589780  0.7633940294258281  0.1121381549655860
  0.9978408666053427  0.7383697694134514  0.3652923137329067
  0.0165303626633959  0.7394071146138058  0.6158826459443768
  0.0191724666891431  0.7445299070295578  0.8639808043503574
  0.7447062538780040  0.5090073906386912  0.1220264233570502
  0.7560708804329773  0.4970237977504357  0.3738069203548104
  0.7567609331163607  0.4913196238568014  0.6219537003650907
  0.7534064061249903  0.4996375882138108  0.8689607099810267
  0.4971358156248417  0.7634771777986807  0.1286539990099642
  0.5042361204294427  0.7464237454922582  0.3787510554155705
  0.5092874585289847  0.7443163882866567  0.6313306436402234
  0.4896915325457656  0.7564366817734721  0.8748434155508700
  0.2417665013990288  0.0105352421502383  0.1294408087330307
  0.2625297934215208  0.9976392377614732  0.3739546738718520
  0.2513372360972654  0.9968619486190733  0.6208509371854414
  0.2572649397157643  0.0115073694844801  0.8730589944529926
  0.7472203246519312  0.0103313342513881  0.1156947423191002
  0.7557603061106524  0.9898459815897650  0.3659260121244859
  0.7524301643029453  0.9832906392138595  0.6192714853376488
  0.7392441317644695  0.9970599474191435  0.8739589438683208
 
  0.00000000E+00  0.00000000E+00  0.00000000E+00
  0.00000000E+00  0.00000000E+00  0.00000000E+00
  0.00000000E+00  0.00000000E+00  0.00000000E+00
  0.00000000E+00  0.00000000E+00  0.00000000E+00
  0.00000000E+00  0.00000000E+00  0.00000000E+00
  0.00000000E+00  0.00000000E+00  0.00000000E+00
  0.00000000E+00  0.00000000E+00  0.00000000E+00
  0.00000000E+00  0.00000000E+00  0.00000000E+00
  0.00000000E+00  0.00000000E+00  0.00000000E+00
  0.00000000E+00  0.00000000E+00  0.00000000E+00
  0.00000000E+00  0.00000000E+00  0.00000000E+00
  0.00000000E+00  0.00000000E+00  0.00000000E+00
  0.00000000E+00  0.00000000E+00  0.00000000E+00
  0.00000000E+00  0.00000000E+00  0.00000000E+00
  0.00000000E+00  0.00000000E+00  0.00000000E+00
  0.00000000E+00  0.00000000E+00  0.00000000E+00
  0.00000000E+00  0.00000000E+00  0.00000000E+00
  0.00000000E+00  0.00000000E+00  0.00000000E+00
  0.00000000E+00  0.00000000E+00  0.00000000E+00
  0.00000000E+00  0.00000000E+00  0.00000000E+00
  0.00000000E+00  0.00000000E+00  0.00000000E+00
  0.00000000E+00  0.00000000E+00  0.00000000E+00
  0.00000000E+00  0.00000000E+00  0.00000000E+00
  0.00000000E+00  0.00000000E+00  0.00000000E+00
  0.00000000E+00  0.00000000E+00  0.00000000E+00
  0.00000000E+00  0.00000000E+00  0.00000000E+00
  0.00000000E+00  0.00000000E+00  0.00000000E+00
  0.00000000E+00  0.00000000E+00  0.00000000E+00
  0.00000000E+00  0.00000000E+00  0.00000000E+00
  0.00000000E+00  0.00000000E+00  0.00000000E+00
  0.00000000E+00  0.00000000E+00  0.00000000E+00
  0.00000000E+00  0.00000000E+00  0.00000000E+00
  0.00000000E+00  0.00000000E+00  0.00000000E+00
  0.00000000E+00  0.00000000E+00  0.00000000E+00
  0.00000000E+00  0.00000000E+00  0.00000000E+00
  0.00000000E+00  0.00000000E+00  0.00000000E+00
  0.00000000E+00  0.00000000E+00  0.00000000E+00
  0.00000000E+00  0.00000000E+00  0.00000000E+00
  0.00000000E+00  0.00000000E+00  0.00000000E+00
  0.00000000E+00  0.00000000E+00  0.00000000E+00
  0.00000000E+00  0.00000000E+00  0.00000000E+00
  0.00000000E+00  0.00000000E+00  0.00000000E+00
  0.00000000E+00  0.00000000E+00  0.00000000E+00
  0.00000000E+00  0.00000000E+00  0.00000000E+00
  0.00000000E+00  0.00000000E+00  0.00000000E+00
  0.00000000E+00  0.00000000E+00  0.00000000E+00
  0.00000000E+00  0.00000000E+00  0.00000000E+00
  0.00000000E+00  0.00000000E+00  0.00000000E+00
  0.00000000E+00  0.00000000E+00  0.00000000E+00
  0.00000000E+00  0.00000000E+00  0.00000000E+00
  0.00000000E+00  0.00000000E+00  0.00000000E+00
  0.00000000E+00  0.00000000E+00  0.00000000E+00
  0.00000000E+00  0.00000000E+00  0.00000000E+00
  0.00000000E+00  0.00000000E+00  0.00000000E+00
  0.00000000E+00  0.00000000E+00  0.00000000E+00
  0.00000000E+00  0.00000000E+00  0.00000000E+00
  0.00000000E+00  0.00000000E+00  0.00000000E+00
  0.00000000E+00  0.00000000E+00  0.00000000E+00
  0.00000000E+00  0.00000000E+00  0.00000000E+00
  0.00000000E+00  0.00000000E+00  0.00000000E+00
  0.00000000E+00  0.00000000E+00  0.00000000E+00
  0.00000000E+00  0.00000000E+00  0.00000000E+00
  0.00000000E+00  0.00000000E+00  0.00000000E+00
  0.00000000E+00  0.00000000E+00  0.00000000E+00
  0.00000000E+00  0.00000000E+00  0.00000000E+00
  0.00000000E+00  0.00000000E+00  0.00000000E+00
  0.00000000E+00  0.00000000E+00  0.00000000E+00
  0.00000000E+00  0.00000000E+00  0.00000000E+00
  0.00000000E+00  0.00000000E+00  0.00000000E+00
  0.00000000E+00  0.00000000E+00  0.00000000E+00
  0.00000000E+00  0.00000000E+00  0.00000000E+00
  0.00000000E+00  0.00000000E+00  0.00000000E+00
  0.00000000E+00  0.00000000E+00  0.00000000E+00
  0.00000000E+00  0.00000000E+00  0.00000000E+00
  0.00000000E+00  0.00000000E+00  0.00000000E+00
  0.00000000E+00  0.00000000E+00  0.00000000E+00
  0.00000000E+00  0.00000000E+00  0.00000000E+00
  0.00000000E+00  0.00000000E+00  0.00000000E+00
  0.00000000E+00  0.00000000E+00  0.00000000E+00
  0.00000000E+00  0.00000000E+00  0.00000000E+00
  0.00000000E+00  0.00000000E+00  0.00000000E+00
  0.00000000E+00  0.00000000E+00  0.00000000E+00
  0.00000000E+00  0.00000000E+00  0.00000000E+00
  0.00000000E+00  0.00000000E+00  0.00000000E+00
  0.00000000E+00  0.00000000E+00  0.00000000E+00
  0.00000000E+00  0.00000000E+00  0.00000000E+00
  0.00000000E+00  0.00000000E+00  0.00000000E+00
  0.00000000E+00  0.00000000E+00  0.00000000E+00
  0.00000000E+00  0.00000000E+00  0.00000000E+00
  0.00000000E+00  0.00000000E+00  0.00000000E+00
  0.00000000E+00  0.00000000E+00  0.00000000E+00
  0.00000000E+00  0.00000000E+00  0.00000000E+00
  0.00000000E+00  0.00000000E+00  0.00000000E+00
  0.00000000E+00  0.00000000E+00  0.00000000E+00
  0.00000000E+00  0.00000000E+00  0.00000000E+00
  0.00000000E+00  0.00000000E+00  0.00000000E+00
  0.00000000E+00  0.00000000E+00  0.00000000E+00
  0.00000000E+00  0.00000000E+00  0.00000000E+00
  0.00000000E+00  0.00000000E+00  0.00000000E+00
  0.00000000E+00  0.00000000E+00  0.00000000E+00
  0.00000000E+00  0.00000000E+00  0.00000000E+00
  0.00000000E+00  0.00000000E+00  0.00000000E+00
  0.00000000E+00  0.00000000E+00  0.00000000E+00
  0.00000000E+00  0.00000000E+00  0.00000000E+00
  0.00000000E+00  0.00000000E+00  0.00000000E+00
  0.00000000E+00  0.00000000E+00  0.00000000E+00
  0.00000000E+00  0.00000000E+00  0.00000000E+00
  0.00000000E+00  0.00000000E+00  0.00000000E+00
  0.00000000E+00  0.00000000E+00  0.00000000E+00
  0.00000000E+00  0.00000000E+00  0.00000000E+00
  0.00000000E+00  0.00000000E+00  0.00000000E+00
  0.00000000E+00  0.00000000E+00  0.00000000E+00
  0.00000000E+00  0.00000000E+00  0.00000000E+00
  0.00000000E+00  0.00000000E+00  0.00000000E+00
  0.00000000E+00  0.00000000E+00  0.00000000E+00
  0.00000000E+00  0.00000000E+00  0.00000000E+00
  0.00000000E+00  0.00000000E+00  0.00000000E+00
  0.00000000E+00  0.00000000E+00  0.00000000E+00
  0.00000000E+00  0.00000000E+00  0.00000000E+00
  0.00000000E+00  0.00000000E+00  0.00000000E+00
  0.00000000E+00  0.00000000E+00  0.00000000E+00
  0.00000000E+00  0.00000000E+00  0.00000000E+00
  0.00000000E+00  0.00000000E+00  0.00000000E+00
  0.00000000E+00  0.00000000E+00  0.00000000E+00
  0.00000000E+00  0.00000000E+00  0.00000000E+00
  0.00000000E+00  0.00000000E+00  0.00000000E+00
  0.00000000E+00  0.00000000E+00  0.00000000E+00
  0.00000000E+00  0.00000000E+00  0.00000000E+00
  0.00000000E+00  0.00000000E+00  0.00000000E+00
  0.00000000E+00  0.00000000E+00  0.00000000E+00
  0.00000000E+00  0.00000000E+00  0.00000000E+00
  0.00000000E+00  0.00000000E+00  0.00000000E+00
  0.00000000E+00  0.00000000E+00  0.00000000E+00
  0.00000000E+00  0.00000000E+00  0.00000000E+00
  0.00000000E+00  0.00000000E+00  0.00000000E+00
  0.00000000E+00  0.00000000E+00  0.00000000E+00
  0.00000000E+00  0.00000000E+00  0.00000000E+00
  0.00000000E+00  0.00000000E+00  0.00000000E+00
  0.00000000E+00  0.00000000E+00  0.00000000E+00
  0.00000000E+00  0.00000000E+00  0.00000000E+00
  0.00000000E+00  0.00000000E+00  0.00000000E+00
  0.00000000E+00  0.00000000E+00  0.00000000E+00
  0.00000000E+00  0.00000000E+00  0.00000000E+00
  0.00000000E+00  0.00000000E+00  0.00000000E+00
  0.00000000E+00  0.00000000E+00  0.00000000E+00
  0.00000000E+00  0.00000000E+00  0.00000000E+00
  0.00000000E+00  0.00000000E+00  0.00000000E+00
  0.00000000E+00  0.00000000E+00  0.00000000E+00
  0.00000000E+00  0.00000000E+00  0.00000000E+00
  0.00000000E+00  0.00000000E+00  0.00000000E+00
  0.00000000E+00  0.00000000E+00  0.00000000E+00
  0.00000000E+00  0.00000000E+00  0.00000000E+00
  0.00000000E+00  0.00000000E+00  0.00000000E+00
  0.00000000E+00  0.00000000E+00  0.00000000E+00
  0.00000000E+00  0.00000000E+00  0.00000000E+00
  0.00000000E+00  0.00000000E+00  0.00000000E+00
  0.00000000E+00  0.00000000E+00  0.00000000E+00
  0.00000000E+00  0.00000000E+00  0.00000000E+00
  0.00000000E+00  0.00000000E+00  0.00000000E+00
  0.00000000E+00  0.00000000E+00  0.00000000E+00
