Ge In Cl                                
   1.00000000000000     
    10.5044670000000000  -10.5044670000000000    0.0000000000000000
    10.5044670000000000   10.5044670000000000    0.0000000000000000
     0.0000000000000000    0.0000000000000000   21.0089340000000000
   Cl   Ge   In
    96    32    32
Direct
  0.0695238799793910  0.1782034349026717  0.9800944503809490
  0.0005353898093202  0.2818812252137653  0.2285750105642294
  0.0016484449727247  0.2152534035300018  0.4869314744553404
  0.9463142304330809  0.2774267968196956  0.7402991279642126
  0.4710502007527041  0.2380374522266436  0.0196948202612834
  0.5798341805234402  0.2509513110720650  0.2676822775871114
  0.4310641499015943  0.2527169815877319  0.5104767260813140
  0.5424745336224127  0.2596160232742753  0.7630216332227341
  0.3246340648714565  0.4871170931482986  0.9973676084958398
  0.2029698043559371  0.5050296645760015  0.2527346511001696
  0.2897045625227633  0.4940824591871317  0.5068047602025044
  0.1878198060383627  0.5253718061997620  0.7529243810045654
  0.9470238325125089  0.7332954711970782  0.0253913520699316
  0.0706038893760108  0.7494800975903840  0.2716438860404596
  0.9333058294805184  0.7575008579692911  0.5183301908831063
  0.0532029663640762  0.7667462142492277  0.7755179303875952
  0.7545054446516917  0.5451720196177035  0.9890369594227364
  0.7705320061056407  0.4325582404638959  0.2388074061612659
  0.7433831148725015  0.5698629924053004  0.4824396116323138
  0.7346900171737376  0.4622525922009608  0.7324235224337177
  0.5510412335615104  0.7394224592248059  0.9827178336581587
  0.4816022929057326  0.7797447075510482  0.2377470886463501
  0.4991349828404710  0.7031160597029735  0.4898555953805078
  0.4546962023240603  0.8014484483577995  0.7376685214498374
  0.2752489769267942  0.0562093849756927  0.0210771093235899
  0.2601495299300800  0.9275032913648980  0.2661504712667210
  0.2346231906953538  0.0646977398374505  0.5102856309901113
  0.2657217710961964  0.9551084412257523  0.7667423886870722
  0.7691274990277737  0.9380262457001929  0.0129136843814735
  0.7089822303405575  0.0052236931339029  0.2612031380885194
  0.7679248230381398  0.9788191578375877  0.5141500980056299
  0.7701697646431631  0.0623126520423450  0.7691469532406917
  0.1730821337144769  0.1253598101572279  0.1685106634753383
  0.0823618823748509  0.1029656913405032  0.3520322095122974
  0.1172923514113662  0.1792402085613532  0.6453342024401559
  0.0947068133410705  0.1049663664522992  0.8240280138164843
  0.6788932285462443  0.1286186874743406  0.0934352035226100
  0.6054257830334652  0.0847271867604311  0.4014259467837856
  0.6200392331361416  0.1643404986369950  0.5864119884548878
  0.6061253358198112  0.1395232530350938  0.8959656483954319
  0.3891376540751379  0.3430335101017002  0.1575073331310453
  0.4175966654352185  0.3868211428651566  0.3453853754441985
  0.3265182723543948  0.3677569895298664  0.6471954440617845
  0.3663567119084973  0.3972320893818418  0.8243186112736135
  0.1697534071223358  0.6250623258814673  0.0825430149601525
  0.1059609123155302  0.5788092561695528  0.4020002458278507
  0.1222068025236773  0.6684066492893423  0.5943153558137712
  0.1092127024069268  0.6202197388483920  0.9081490863948987
  0.8864337991900904  0.3252993340214428  0.0862900677273452
  0.8836036057678713  0.4122852513591000  0.4051435766328195
  0.8219588260809912  0.3820958681901416  0.5865421375296604
  0.8804147056804881  0.3894752999212627  0.9000540883309002
  0.6779380666129409  0.6199747848216225  0.1586910672861422
  0.5850523232871918  0.6079528067943704  0.3458905960249640
  0.6175552739977229  0.6766569706837754  0.6549616816450822
  0.6094522810228257  0.6244479928783713  0.8437435049502964
  0.3757866075416448  0.8299603058789325  0.0936664439925411
  0.3860556552834534  0.9070905382797867  0.4069345546504984
  0.3219363707909901  0.8794835549752748  0.5917929610633610
  0.3891987812701105  0.9081100757886171  0.9023033205447727
  0.8817845678701437  0.8287168686798656  0.1697610410357145
  0.9131431522903148  0.8854787548196714  0.3544123066311437
  0.8222481401345805  0.8687386313078569  0.6577434842477040
  0.8797996121925651  0.9029220940643271  0.8633881344401160
  0.9262763147377485  0.0965350050695291  0.1315642341835319
  0.8285962345493788  0.1506269262025109  0.3592807576106663
  0.8919945991540986  0.0885786545139633  0.6223872637774377
  0.8524924219613856  0.1274917332627079  0.9207834407888745
  0.4279735417546829  0.1027710712409860  0.1558340947771372
  0.3502440334906073  0.1248733290021303  0.3396441393639334
  0.4015540620000438  0.1186107635405907  0.6497727979711736
  0.3502810926999351  0.1321975993562706  0.8602518527338460
  0.1406355082420258  0.3879264620222543  0.0733796030864929
  0.1490010786591348  0.3288762842509274  0.3836220076969221
  0.0661721568051994  0.4056930600242263  0.6192467458799549
  0.1355288669696448  0.3357750592816065  0.8633807658875643
  0.9401094575521887  0.5900134616592808  0.1571450897069171
  0.8489924307082216  0.6309399029782644  0.3366292114167685
  0.9019600331736348  0.6196851894436330  0.6538889242297214
  0.8748975771479454  0.6170396857886128  0.8536793486743326
  0.6337402805505578  0.4001033021130734  0.1039256686544374
  0.6343082021640843  0.3460189170485156  0.4179481352312894
  0.5873554762850975  0.4308416490060555  0.6014408015085360
  0.6046546636357173  0.3833752612516895  0.8986743552681751
  0.4243894083024253  0.6024002592581194  0.1344235309825327
  0.3224827156453251  0.6525776964263993  0.3543720018763201
  0.3754592426211250  0.6005182912575561  0.6467337445816566
  0.3483403512136417  0.6326905352667589  0.8454728272827976
  0.1225553666448631  0.9103476400096349  0.1066484887738314
  0.1295701707427026  0.8488915728696438  0.4213094325372775
  0.0904971949250540  0.9268856288699141  0.6047080616998460
  0.1360992620735606  0.8528682898277701  0.9255336554774278
  0.6009592376421191  0.9168654094730742  0.1273337069792695
  0.6424675049303704  0.8318163718644562  0.3907433454092138
  0.5759942349554423  0.9035670289394645  0.6118252171902955
  0.6315105138615427  0.8592634959953174  0.8445579591179928
  0.0159854792940050  0.2343262945200554  0.1187954627188301
  0.0086741354666872  0.2428032274836376  0.3734383974753944
  0.9805565173961958  0.2637971216707919  0.6272691955711498
  0.0151685771002288  0.2248214974067376  0.8755133088405236
  0.5100389153235825  0.2406845342799203  0.1322705180975690
  0.5125778250682403  0.2556610500818113  0.3720967336978735
  0.4905855959867073  0.2519576249563320  0.6180489589559343
  0.5001683606951872  0.2604256435056448  0.8743003237443977
  0.2602045886588519  0.4919915881711306  0.1033956954467735
  0.2428199349642351  0.5085579748571240  0.3656737555294508
  0.2484017413190334  0.5047004364618615  0.6205542949107639
  0.2507738323551069  0.5026639902573325  0.8588579054691533
  0.0045283019606613  0.7371245363818095  0.1339293794579428
  0.0074578943955101  0.7562143144149407  0.3776371169144932
  0.9912345140888343  0.7540023956513373  0.6246566669577492
  0.0186403346017728  0.7519728949004051  0.8867591907487663
  0.7692516596621044  0.4924207096408172  0.1322486867499160
  0.7549253388617759  0.5068744867238133  0.3768785717274266
  0.7294045255755365  0.5055896767906876  0.6203515087284168
  0.7654995239590460  0.4998619153382603  0.8782620906384183
  0.5069367650193175  0.7473211591177705  0.1261931976951202
  0.5048571859969768  0.7430876569189507  0.3775041843279341
  0.4868414978860776  0.7691788516930116  0.6272493187948772
  0.5134635392307998  0.7517934842710841  0.8693188802521237
  0.2585584203459295 -0.0001337317744247  0.1293023467754154
  0.2576468237146484  0.9946071160625223  0.3717462017320277
  0.2300028840219924  0.0090664910926347  0.6178959869922532
  0.2551730806334613  0.9965542289092574  0.8770549227130663
  0.7459420282273808  0.9850579132292901  0.1218979950259063
  0.7435483348581809  0.0102946679958459  0.3727905757996991
  0.7499778706460810  0.0104567725728380  0.6261062210626083
  0.7560417263996634  0.0095399572283481  0.8785653148574358
  0.9868057728019010  0.9843519442387582  0.0015470229312833
  0.0306250479116082  0.9692599726436569  0.2360110569224819
 -0.0050912817159067 -0.0046886940669209  0.4803971538937328
  0.9753919965062270  0.9782670376986881  0.7353356707426556
  0.4861176353063336  0.0240070894466593  0.0172540136939667
  0.4931616436912562  0.9931427836641687  0.2747431715005682
  0.4673308812493350  0.0325732388224624  0.5178041550639383
  0.4742436156182095  0.0038195336161259  0.7715914523261472
  0.2601177795800504  0.2628096069259414  0.9816188662227723
  0.2513117153011835  0.2706810602038157  0.2600981822657242
  0.2173799192719286  0.2754400126788855  0.5240338375459711
  0.2482626254060271  0.2411299921807835  0.7536173828349269
  0.9913084437400161  0.5188744710765953  0.0152661664740446
  0.9940481009808428  0.4907378465166452  0.2831036392852346
  0.9617875973148140  0.5297885956623078  0.5187590321719168
 -0.0153931867310339  0.4827472662813531  0.7550296092245771
  0.7341553804829904  0.2688207306888745  0.9955443145025036
  0.7850730568846006  0.2229020447681084  0.2202379284207846
  0.7688677017731397  0.2309276413744094  0.4919616106302928
  0.7477925842028118  0.2619676625000161  0.7982587742196118
  0.5358565768332656  0.5235821854343969  0.0058871909925606
  0.5342303428438129  0.4728017779223294  0.2319143609128971
  0.4967391468558174  0.4902167277965305  0.4725930729437560
  0.5117292560785985  0.4911769449561185  0.7390771524841501
  0.2830395009748952  0.7243330652659079  0.9783692339783187
  0.2690403454239411  0.7245104603074816  0.2214281314130695
  0.2673686595865851  0.7299949934999644  0.4906956124302188
  0.2519020586940104  0.7360949588612079  0.7289398553907471
  0.7614172320735926  0.7530021915960455  0.9527184670409360
  0.7318852837189367  0.7629763880531817  0.2622717238080575
  0.7167375845249248  0.7743317752536552  0.5262849473817852
  0.7546024891191738  0.7300037208690721  0.7547294880734209
 
  0.00000000E+00  0.00000000E+00  0.00000000E+00
  0.00000000E+00  0.00000000E+00  0.00000000E+00
  0.00000000E+00  0.00000000E+00  0.00000000E+00
  0.00000000E+00  0.00000000E+00  0.00000000E+00
  0.00000000E+00  0.00000000E+00  0.00000000E+00
  0.00000000E+00  0.00000000E+00  0.00000000E+00
  0.00000000E+00  0.00000000E+00  0.00000000E+00
  0.00000000E+00  0.00000000E+00  0.00000000E+00
  0.00000000E+00  0.00000000E+00  0.00000000E+00
  0.00000000E+00  0.00000000E+00  0.00000000E+00
  0.00000000E+00  0.00000000E+00  0.00000000E+00
  0.00000000E+00  0.00000000E+00  0.00000000E+00
  0.00000000E+00  0.00000000E+00  0.00000000E+00
  0.00000000E+00  0.00000000E+00  0.00000000E+00
  0.00000000E+00  0.00000000E+00  0.00000000E+00
  0.00000000E+00  0.00000000E+00  0.00000000E+00
  0.00000000E+00  0.00000000E+00  0.00000000E+00
  0.00000000E+00  0.00000000E+00  0.00000000E+00
  0.00000000E+00  0.00000000E+00  0.00000000E+00
  0.00000000E+00  0.00000000E+00  0.00000000E+00
  0.00000000E+00  0.00000000E+00  0.00000000E+00
  0.00000000E+00  0.00000000E+00  0.00000000E+00
  0.00000000E+00  0.00000000E+00  0.00000000E+00
  0.00000000E+00  0.00000000E+00  0.00000000E+00
  0.00000000E+00  0.00000000E+00  0.00000000E+00
  0.00000000E+00  0.00000000E+00  0.00000000E+00
  0.00000000E+00  0.00000000E+00  0.00000000E+00
  0.00000000E+00  0.00000000E+00  0.00000000E+00
  0.00000000E+00  0.00000000E+00  0.00000000E+00
  0.00000000E+00  0.00000000E+00  0.00000000E+00
  0.00000000E+00  0.00000000E+00  0.00000000E+00
  0.00000000E+00  0.00000000E+00  0.00000000E+00
  0.00000000E+00  0.00000000E+00  0.00000000E+00
  0.00000000E+00  0.00000000E+00  0.00000000E+00
  0.00000000E+00  0.00000000E+00  0.00000000E+00
  0.00000000E+00  0.00000000E+00  0.00000000E+00
  0.00000000E+00  0.00000000E+00  0.00000000E+00
  0.00000000E+00  0.00000000E+00  0.00000000E+00
  0.00000000E+00  0.00000000E+00  0.00000000E+00
  0.00000000E+00  0.00000000E+00  0.00000000E+00
  0.00000000E+00  0.00000000E+00  0.00000000E+00
  0.00000000E+00  0.00000000E+00  0.00000000E+00
  0.00000000E+00  0.00000000E+00  0.00000000E+00
  0.00000000E+00  0.00000000E+00  0.00000000E+00
  0.00000000E+00  0.00000000E+00  0.00000000E+00
  0.00000000E+00  0.00000000E+00  0.00000000E+00
  0.00000000E+00  0.00000000E+00  0.00000000E+00
  0.00000000E+00  0.00000000E+00  0.00000000E+00
  0.00000000E+00  0.00000000E+00  0.00000000E+00
  0.00000000E+00  0.00000000E+00  0.00000000E+00
  0.00000000E+00  0.00000000E+00  0.00000000E+00
  0.00000000E+00  0.00000000E+00  0.00000000E+00
  0.00000000E+00  0.00000000E+00  0.00000000E+00
  0.00000000E+00  0.00000000E+00  0.00000000E+00
  0.00000000E+00  0.00000000E+00  0.00000000E+00
  0.00000000E+00  0.00000000E+00  0.00000000E+00
  0.00000000E+00  0.00000000E+00  0.00000000E+00
  0.00000000E+00  0.00000000E+00  0.00000000E+00
  0.00000000E+00  0.00000000E+00  0.00000000E+00
  0.00000000E+00  0.00000000E+00  0.00000000E+00
  0.00000000E+00  0.00000000E+00  0.00000000E+00
  0.00000000E+00  0.00000000E+00  0.00000000E+00
  0.00000000E+00  0.00000000E+00  0.00000000E+00
  0.00000000E+00  0.00000000E+00  0.00000000E+00
  0.00000000E+00  0.00000000E+00  0.00000000E+00
  0.00000000E+00  0.00000000E+00  0.00000000E+00
  0.00000000E+00  0.00000000E+00  0.00000000E+00
  0.00000000E+00  0.00000000E+00  0.00000000E+00
  0.00000000E+00  0.00000000E+00  0.00000000E+00
  0.00000000E+00  0.00000000E+00  0.00000000E+00
  0.00000000E+00  0.00000000E+00  0.00000000E+00
  0.00000000E+00  0.00000000E+00  0.00000000E+00
  0.00000000E+00  0.00000000E+00  0.00000000E+00
  0.00000000E+00  0.00000000E+00  0.00000000E+00
  0.00000000E+00  0.00000000E+00  0.00000000E+00
  0.00000000E+00  0.00000000E+00  0.00000000E+00
  0.00000000E+00  0.00000000E+00  0.00000000E+00
  0.00000000E+00  0.00000000E+00  0.00000000E+00
  0.00000000E+00  0.00000000E+00  0.00000000E+00
  0.00000000E+00  0.00000000E+00  0.00000000E+00
  0.00000000E+00  0.00000000E+00  0.00000000E+00
  0.00000000E+00  0.00000000E+00  0.00000000E+00
  0.00000000E+00  0.00000000E+00  0.00000000E+00
  0.00000000E+00  0.00000000E+00  0.00000000E+00
  0.00000000E+00  0.00000000E+00  0.00000000E+00
  0.00000000E+00  0.00000000E+00  0.00000000E+00
  0.00000000E+00  0.00000000E+00  0.00000000E+00
  0.00000000E+00  0.00000000E+00  0.00000000E+00
  0.00000000E+00  0.00000000E+00  0.00000000E+00
  0.00000000E+00  0.00000000E+00  0.00000000E+00
  0.00000000E+00  0.00000000E+00  0.00000000E+00
  0.00000000E+00  0.00000000E+00  0.00000000E+00
  0.00000000E+00  0.00000000E+00  0.00000000E+00
  0.00000000E+00  0.00000000E+00  0.00000000E+00
  0.00000000E+00  0.00000000E+00  0.00000000E+00
  0.00000000E+00  0.00000000E+00  0.00000000E+00
  0.00000000E+00  0.00000000E+00  0.00000000E+00
  0.00000000E+00  0.00000000E+00  0.00000000E+00
  0.00000000E+00  0.00000000E+00  0.00000000E+00
  0.00000000E+00  0.00000000E+00  0.00000000E+00
  0.00000000E+00  0.00000000E+00  0.00000000E+00
  0.00000000E+00  0.00000000E+00  0.00000000E+00
  0.00000000E+00  0.00000000E+00  0.00000000E+00
  0.00000000E+00  0.00000000E+00  0.00000000E+00
  0.00000000E+00  0.00000000E+00  0.00000000E+00
  0.00000000E+00  0.00000000E+00  0.00000000E+00
  0.00000000E+00  0.00000000E+00  0.00000000E+00
  0.00000000E+00  0.00000000E+00  0.00000000E+00
  0.00000000E+00  0.00000000E+00  0.00000000E+00
  0.00000000E+00  0.00000000E+00  0.00000000E+00
  0.00000000E+00  0.00000000E+00  0.00000000E+00
  0.00000000E+00  0.00000000E+00  0.00000000E+00
  0.00000000E+00  0.00000000E+00  0.00000000E+00
  0.00000000E+00  0.00000000E+00  0.00000000E+00
  0.00000000E+00  0.00000000E+00  0.00000000E+00
  0.00000000E+00  0.00000000E+00  0.00000000E+00
  0.00000000E+00  0.00000000E+00  0.00000000E+00
  0.00000000E+00  0.00000000E+00  0.00000000E+00
  0.00000000E+00  0.00000000E+00  0.00000000E+00
  0.00000000E+00  0.00000000E+00  0.00000000E+00
  0.00000000E+00  0.00000000E+00  0.00000000E+00
  0.00000000E+00  0.00000000E+00  0.00000000E+00
  0.00000000E+00  0.00000000E+00  0.00000000E+00
  0.00000000E+00  0.00000000E+00  0.00000000E+00
  0.00000000E+00  0.00000000E+00  0.00000000E+00
  0.00000000E+00  0.00000000E+00  0.00000000E+00
  0.00000000E+00  0.00000000E+00  0.00000000E+00
  0.00000000E+00  0.00000000E+00  0.00000000E+00
  0.00000000E+00  0.00000000E+00  0.00000000E+00
  0.00000000E+00  0.00000000E+00  0.00000000E+00
  0.00000000E+00  0.00000000E+00  0.00000000E+00
  0.00000000E+00  0.00000000E+00  0.00000000E+00
  0.00000000E+00  0.00000000E+00  0.00000000E+00
  0.00000000E+00  0.00000000E+00  0.00000000E+00
  0.00000000E+00  0.00000000E+00  0.00000000E+00
  0.00000000E+00  0.00000000E+00  0.00000000E+00
  0.00000000E+00  0.00000000E+00  0.00000000E+00
  0.00000000E+00  0.00000000E+00  0.00000000E+00
  0.00000000E+00  0.00000000E+00  0.00000000E+00
  0.00000000E+00  0.00000000E+00  0.00000000E+00
  0.00000000E+00  0.00000000E+00  0.00000000E+00
  0.00000000E+00  0.00000000E+00  0.00000000E+00
  0.00000000E+00  0.00000000E+00  0.00000000E+00
  0.00000000E+00  0.00000000E+00  0.00000000E+00
  0.00000000E+00  0.00000000E+00  0.00000000E+00
  0.00000000E+00  0.00000000E+00  0.00000000E+00
  0.00000000E+00  0.00000000E+00  0.00000000E+00
  0.00000000E+00  0.00000000E+00  0.00000000E+00
  0.00000000E+00  0.00000000E+00  0.00000000E+00
  0.00000000E+00  0.00000000E+00  0.00000000E+00
  0.00000000E+00  0.00000000E+00  0.00000000E+00
  0.00000000E+00  0.00000000E+00  0.00000000E+00
  0.00000000E+00  0.00000000E+00  0.00000000E+00
  0.00000000E+00  0.00000000E+00  0.00000000E+00
  0.00000000E+00  0.00000000E+00  0.00000000E+00
  0.00000000E+00  0.00000000E+00  0.00000000E+00
  0.00000000E+00  0.00000000E+00  0.00000000E+00
  0.00000000E+00  0.00000000E+00  0.00000000E+00
  0.00000000E+00  0.00000000E+00  0.00000000E+00
  0.00000000E+00  0.00000000E+00  0.00000000E+00
