Ge Br In                                
   1.00000000000000     
    11.0126770000000000  -11.0126770000000000    0.0000000000000000
    11.0126770000000000   11.0126770000000000    0.0000000000000000
     0.0000000000000000    0.0000000000000000   22.0253550000000011
   Br   Ge   In
    96    32    32
Direct
  0.0060913864742439  0.3015949067015691  0.9952659626947544
  0.9476480895165219  0.2052637313175542  0.2421669570477899
  0.0475037586165877  0.2572971238339827  0.4902664429631432
  0.9639032879905918  0.2447152038496122  0.7421570795130670
  0.5417354990771733  0.2509850332490066  0.0082425310881115
  0.4666316213894501  0.2665258437013641  0.2579093885249995
  0.5118183584253942  0.1920424831029020  0.5100043197030184
  0.4611548804447954  0.3073666434181219  0.7574174523511643
  0.1944724046336662  0.4936025437997763  0.9911112395129945
  0.2901801204223654  0.4801692119211705  0.2395548740840577
  0.1957517949858109  0.4907310754701129  0.4961052260576677
  0.3127710773857588  0.5229041343201637  0.7453322860556028
  0.0355081961218891  0.7410177289575216  0.0071640982893893
  0.9689964857470653  0.7697074433191423  0.2585280698046130
  0.9909315499875700  0.6900585226984757  0.5127256234838861
  0.0212148365809898  0.8092215197957868  0.7552241659193697
  0.7708510429780435  0.5360536840332939  0.9913930946715361
  0.8040391006993106  0.4786681028197065  0.2466377223323343
  0.7416986098395030  0.5606862731252964  0.4913670813962456
  0.7390661583197847  0.4538260948918498  0.7382561661856494
  0.5069003057314543  0.7976369458484568  0.9947300330668979
  0.4501429218145533  0.7048833091260831  0.2413905047363746
  0.5532180444473581  0.7561669060193721  0.4883921583733959
  0.4670725048579195  0.7480622097764575  0.7392493374542997
  0.2629583515735406  0.0242330626582736  0.9958914123521728
  0.3017736271366738  0.9786166252924636  0.2480436318625152
  0.2416549769956529  0.0596144666956219  0.4930604832309861
  0.2400501643156973  0.9540539001385396  0.7404476703228597
  0.6891333702654170  0.9928914323663006  0.9896079700823642
  0.7956821119365721  0.9784338951492016  0.2371594959575002
  0.6985023739761156  0.9889821688371832  0.4948904641076302
  0.8160125453735331  0.0170307321469326  0.7447564711768658
  0.1402608699117606  0.1544761219099066  0.1275249109664514
  0.1449258840682160  0.1342975301171542  0.3402761278556703
  0.1107654735635973  0.0991208976273399  0.6425174888103266
  0.0887775303432584  0.1191899682154978  0.8968787950692592
  0.6522004668755748  0.1523937964733915  0.1483571847013923
  0.6410461592377479  0.1556188678720908  0.3518209707369433
  0.6277301942401775  0.1073197102850769  0.6596129424940655
  0.6092625768413110  0.1049170648725506  0.8462224471229226
  0.3352361496118544  0.3335132520251813  0.1033268819030338
  0.3199313050005823  0.3337122137015770  0.3943662623237105
  0.4080483483711662  0.3875034541765033  0.5854845407697170
  0.4152125095032542  0.4168071046520690  0.9056317348350412
  0.1527592861663231  0.6523647107210714  0.1479899081603562
  0.1406920045990541  0.6575046719871848  0.3528731742224888
  0.1233868868003347  0.6048040289856856  0.6573795062748731
  0.1056014904470728  0.5968521553297430  0.8466138781108523
  0.8262492620132770  0.3425333638570731  0.1102381473585328
  0.8496563749030631  0.3368424610688704  0.4028602831271539
  0.9166917305966941  0.4095287081257688  0.6143907364835812
  0.9024432078993563  0.4273039318658085  0.8662888019602821
  0.6423755468072269  0.6568302160589558  0.1204333056766900
  0.6449629834040871  0.6339686824412671  0.3366999409715740
  0.5965821194691896  0.5853688359926719  0.6405088925741041
  0.5910293220339433  0.6215987274065410  0.8921127534162286
  0.3286400510510592  0.8416338418363676  0.1121698126951036
  0.3495012173043360  0.8340850760450199  0.4063474785234168
  0.4156476181130690  0.9035995955002140  0.6104308117345133
  0.4025232954360314  0.9279755723246140  0.8680238901640843
  0.8352639690103355  0.8335860604178595  0.0999575216430709
  0.8152144113851824  0.8301344098136421  0.3910879781036787
  0.9079453859978034  0.8919315435960878  0.5889982966919860
  0.9165661326761541  0.9123760740348383  0.8957882157240857
  0.8928088071014487  0.0733158962844535  0.0841445592157071
  0.8851046934305554  0.0708217863954693  0.4003100106305760
  0.8633317597228644  0.1631382139631552  0.5955960397624184
  0.8496709898163748  0.1698630074176508  0.8885061570945493
  0.4205368015569959  0.1024957746195481  0.1184495539411704
  0.4093810648692294  0.0974374860550523  0.3701010193110693
  0.3632683828343257  0.1544973652752225  0.6395445306068245
  0.3592177460905550  0.1773233434067935  0.8853162311073488
  0.0847238380848861  0.3809354479967574  0.1591712489233043
  0.0740898523994760  0.3866917369941041  0.3466156528884898
  0.1710907615106887  0.3593512369381409  0.6578575834822693
  0.1642740513593206  0.3520989551713912  0.8518674465494334
  0.9220026130023156  0.5979389343790561  0.1206300558306085
  0.9107690383952505  0.5967391496761554  0.3676346919639880
  0.8529437445614739  0.6667399821195719  0.6548373362593403
  0.8529858570088150  0.6831063078370128  0.8495707018636498
  0.6062055228965435  0.4133946585581113  0.1581637101706129
  0.6029675970523909  0.4064235461485551  0.3916877725014177
  0.6608084890232393  0.3593720311997304  0.5854144033193058
  0.6669525911653289  0.3694580353721291  0.8933984231442954
  0.3935834327379263  0.5732633285208097  0.0864314270159018
  0.3830867774818971  0.5746395700415499  0.4004989940125883
  0.3620711658460381  0.6611328727182441  0.5895588835916789
  0.3487603067483914  0.6671256154792649  0.8889435465153847
  0.1068508840249726  0.9108883599385003  0.1548246475741713
  0.1006048555690450  0.9074562102951775  0.3959792092753882
  0.1530887198266609  0.8609190529660105  0.5877439192600390
  0.1726516332587550  0.8572176629966624  0.8972933023781694
  0.5864900649249190  0.8817365388735877  0.1600058768775281
  0.5714848298069746  0.8888476102027636  0.3458545667596619
  0.6666475124667333  0.8620024823925352  0.6560861155003403
  0.6528408055538141  0.8617622898718564  0.8452019474159502
  0.0000161506614688  0.2437496182750002  0.1319980079628909
  0.9903827352178037  0.2513052675540212  0.3784277403777215
  0.9914523556014941  0.2591601256875204  0.6268024661574454
  0.9920377978559149  0.2586116209877714  0.8822296768348095
  0.5109477300899716  0.2412401422946704  0.1256473980265468
  0.4969949618309150  0.2382152756716230  0.3725246167859665
  0.4970592399486574  0.2532482702285892  0.6176017287413459
  0.4902827060038841  0.2766258031801551  0.8719515646244744
  0.2646008434272879  0.4812333776546376  0.1205905774960335
  0.2466018816958724  0.4800539734618506  0.3836841120574783
  0.2518696270625017  0.5029568736648710  0.6364242480877798
  0.2354257707635155  0.4972745920405025  0.8749773909861961
  0.0104545267938385  0.7378921532519350  0.1242044754778094
  0.9957296698984933  0.7389568041926859  0.3723752188037484
  0.9931121286438489  0.7557113335581912  0.6198497973749334
  0.9920346332137062  0.7705218224649567  0.8675449369849770
  0.7525089200993772  0.4865120960543628  0.1365443107094685
  0.7357994549647431  0.5098986678084542  0.3786344049811515
  0.7399859787431077  0.4926460458472515  0.6234792214023535
  0.7555649237198440  0.5054764194005401  0.8761976665425286
  0.5015502603733644  0.7459543251714245  0.1307573606098517
  0.4907329053323803  0.7516535562782647  0.3780001458323161
  0.4900744062245309  0.7541517542561361  0.6206024830244303
  0.4871243810568666  0.7585046571675467  0.8819809446614818
  0.2527049692728275  0.9854406535782988  0.1366387555276420
  0.2345195922960351  0.0083453461070249  0.3811375904458937
  0.2423615508342565  0.9906194056238504  0.6264786542891813
  0.2529111889658104  0.9976180896194269  0.8795087023378755
  0.7642252671546701  0.9807992253412490  0.1196312561749136
  0.7465504454263684  0.9798057997184053  0.3823363949143165
  0.7549188979825719  0.0058546747592747  0.6359021180675986
  0.7334630713917545  0.0017946730539740  0.8750615289200721
  0.0453643110662889  0.9627002389905776  0.0037516271894736
  0.9974319378755060  0.0045622544573032  0.2767301901328862
  0.0300068612786464  0.0281180894679999  0.5120176268487303
  0.0242364964110214  0.0164269576812892  0.7684961809322834
  0.4789558564023947  0.0423297923480772  0.9797000969494880
  0.5130119571883460  0.0410454255843654  0.2461922064830737
  0.4867721702921375  0.9712565893803458  0.4766235442496162
  0.5168910763772753  0.9606281406700413  0.7378234694122708
  0.2113001274302363  0.2405806102999700  0.9910979707187483
  0.2431935811864524  0.2773582167087222  0.2378643005091214
  0.2537607868884113  0.2677001503881351  0.5275953262212241
  0.2535276274001333  0.2233870857722996  0.7494343078162948
  0.9864405706404926  0.5208729200114014  0.9856951243845314
  0.0201828550666933  0.5390775813258384  0.2465055204600214
  0.9846051131696757  0.4719014432219919  0.4774391588821180
  0.9586503791256185  0.5247889468767957  0.7371637601549100
  0.7498656689463908  0.2022750264875921  0.0156450883401459
  0.7484947566288408  0.2779141301959324  0.2454234755515464
  0.7278582270397814  0.2117846014072241  0.4859494327064092
  0.7555491012298041  0.2211311618984461  0.7598597508590528
  0.5534371970143048  0.4738523014819954  0.0051028731745530
  0.4933706049946774  0.5042206740569622  0.2776530536460008
  0.5272654527925311  0.5226958797999001  0.5081814232369243
  0.5123238752674880  0.5046470090394980  0.7728360531921978
  0.2498086127765641  0.7033730219040811  0.0153110461263606
  0.2528305662870257  0.7758094224839286  0.2453714174890867
  0.2200304599261106  0.7147174786977972  0.4877131556083522
  0.2298159015083232  0.7255372724530065  0.7634840955621389
  0.7102702672786633  0.7458866886830549  0.9870515070992395
  0.7466749501669427  0.7762203199389384  0.2357714264875624
  0.7618799198924958  0.7666494016362414  0.5246977213153192
  0.6982762460317328  0.7066556248718192  0.7496709726874583
 
  0.00000000E+00  0.00000000E+00  0.00000000E+00
  0.00000000E+00  0.00000000E+00  0.00000000E+00
  0.00000000E+00  0.00000000E+00  0.00000000E+00
  0.00000000E+00  0.00000000E+00  0.00000000E+00
  0.00000000E+00  0.00000000E+00  0.00000000E+00
  0.00000000E+00  0.00000000E+00  0.00000000E+00
  0.00000000E+00  0.00000000E+00  0.00000000E+00
  0.00000000E+00  0.00000000E+00  0.00000000E+00
  0.00000000E+00  0.00000000E+00  0.00000000E+00
  0.00000000E+00  0.00000000E+00  0.00000000E+00
  0.00000000E+00  0.00000000E+00  0.00000000E+00
  0.00000000E+00  0.00000000E+00  0.00000000E+00
  0.00000000E+00  0.00000000E+00  0.00000000E+00
  0.00000000E+00  0.00000000E+00  0.00000000E+00
  0.00000000E+00  0.00000000E+00  0.00000000E+00
  0.00000000E+00  0.00000000E+00  0.00000000E+00
  0.00000000E+00  0.00000000E+00  0.00000000E+00
  0.00000000E+00  0.00000000E+00  0.00000000E+00
  0.00000000E+00  0.00000000E+00  0.00000000E+00
  0.00000000E+00  0.00000000E+00  0.00000000E+00
  0.00000000E+00  0.00000000E+00  0.00000000E+00
  0.00000000E+00  0.00000000E+00  0.00000000E+00
  0.00000000E+00  0.00000000E+00  0.00000000E+00
  0.00000000E+00  0.00000000E+00  0.00000000E+00
  0.00000000E+00  0.00000000E+00  0.00000000E+00
  0.00000000E+00  0.00000000E+00  0.00000000E+00
  0.00000000E+00  0.00000000E+00  0.00000000E+00
  0.00000000E+00  0.00000000E+00  0.00000000E+00
  0.00000000E+00  0.00000000E+00  0.00000000E+00
  0.00000000E+00  0.00000000E+00  0.00000000E+00
  0.00000000E+00  0.00000000E+00  0.00000000E+00
  0.00000000E+00  0.00000000E+00  0.00000000E+00
  0.00000000E+00  0.00000000E+00  0.00000000E+00
  0.00000000E+00  0.00000000E+00  0.00000000E+00
  0.00000000E+00  0.00000000E+00  0.00000000E+00
  0.00000000E+00  0.00000000E+00  0.00000000E+00
  0.00000000E+00  0.00000000E+00  0.00000000E+00
  0.00000000E+00  0.00000000E+00  0.00000000E+00
  0.00000000E+00  0.00000000E+00  0.00000000E+00
  0.00000000E+00  0.00000000E+00  0.00000000E+00
  0.00000000E+00  0.00000000E+00  0.00000000E+00
  0.00000000E+00  0.00000000E+00  0.00000000E+00
  0.00000000E+00  0.00000000E+00  0.00000000E+00
  0.00000000E+00  0.00000000E+00  0.00000000E+00
  0.00000000E+00  0.00000000E+00  0.00000000E+00
  0.00000000E+00  0.00000000E+00  0.00000000E+00
  0.00000000E+00  0.00000000E+00  0.00000000E+00
  0.00000000E+00  0.00000000E+00  0.00000000E+00
  0.00000000E+00  0.00000000E+00  0.00000000E+00
  0.00000000E+00  0.00000000E+00  0.00000000E+00
  0.00000000E+00  0.00000000E+00  0.00000000E+00
  0.00000000E+00  0.00000000E+00  0.00000000E+00
  0.00000000E+00  0.00000000E+00  0.00000000E+00
  0.00000000E+00  0.00000000E+00  0.00000000E+00
  0.00000000E+00  0.00000000E+00  0.00000000E+00
  0.00000000E+00  0.00000000E+00  0.00000000E+00
  0.00000000E+00  0.00000000E+00  0.00000000E+00
  0.00000000E+00  0.00000000E+00  0.00000000E+00
  0.00000000E+00  0.00000000E+00  0.00000000E+00
  0.00000000E+00  0.00000000E+00  0.00000000E+00
  0.00000000E+00  0.00000000E+00  0.00000000E+00
  0.00000000E+00  0.00000000E+00  0.00000000E+00
  0.00000000E+00  0.00000000E+00  0.00000000E+00
  0.00000000E+00  0.00000000E+00  0.00000000E+00
  0.00000000E+00  0.00000000E+00  0.00000000E+00
  0.00000000E+00  0.00000000E+00  0.00000000E+00
  0.00000000E+00  0.00000000E+00  0.00000000E+00
  0.00000000E+00  0.00000000E+00  0.00000000E+00
  0.00000000E+00  0.00000000E+00  0.00000000E+00
  0.00000000E+00  0.00000000E+00  0.00000000E+00
  0.00000000E+00  0.00000000E+00  0.00000000E+00
  0.00000000E+00  0.00000000E+00  0.00000000E+00
  0.00000000E+00  0.00000000E+00  0.00000000E+00
  0.00000000E+00  0.00000000E+00  0.00000000E+00
  0.00000000E+00  0.00000000E+00  0.00000000E+00
  0.00000000E+00  0.00000000E+00  0.00000000E+00
  0.00000000E+00  0.00000000E+00  0.00000000E+00
  0.00000000E+00  0.00000000E+00  0.00000000E+00
  0.00000000E+00  0.00000000E+00  0.00000000E+00
  0.00000000E+00  0.00000000E+00  0.00000000E+00
  0.00000000E+00  0.00000000E+00  0.00000000E+00
  0.00000000E+00  0.00000000E+00  0.00000000E+00
  0.00000000E+00  0.00000000E+00  0.00000000E+00
  0.00000000E+00  0.00000000E+00  0.00000000E+00
  0.00000000E+00  0.00000000E+00  0.00000000E+00
  0.00000000E+00  0.00000000E+00  0.00000000E+00
  0.00000000E+00  0.00000000E+00  0.00000000E+00
  0.00000000E+00  0.00000000E+00  0.00000000E+00
  0.00000000E+00  0.00000000E+00  0.00000000E+00
  0.00000000E+00  0.00000000E+00  0.00000000E+00
  0.00000000E+00  0.00000000E+00  0.00000000E+00
  0.00000000E+00  0.00000000E+00  0.00000000E+00
  0.00000000E+00  0.00000000E+00  0.00000000E+00
  0.00000000E+00  0.00000000E+00  0.00000000E+00
  0.00000000E+00  0.00000000E+00  0.00000000E+00
  0.00000000E+00  0.00000000E+00  0.00000000E+00
  0.00000000E+00  0.00000000E+00  0.00000000E+00
  0.00000000E+00  0.00000000E+00  0.00000000E+00
  0.00000000E+00  0.00000000E+00  0.00000000E+00
  0.00000000E+00  0.00000000E+00  0.00000000E+00
  0.00000000E+00  0.00000000E+00  0.00000000E+00
  0.00000000E+00  0.00000000E+00  0.00000000E+00
  0.00000000E+00  0.00000000E+00  0.00000000E+00
  0.00000000E+00  0.00000000E+00  0.00000000E+00
  0.00000000E+00  0.00000000E+00  0.00000000E+00
  0.00000000E+00  0.00000000E+00  0.00000000E+00
  0.00000000E+00  0.00000000E+00  0.00000000E+00
  0.00000000E+00  0.00000000E+00  0.00000000E+00
  0.00000000E+00  0.00000000E+00  0.00000000E+00
  0.00000000E+00  0.00000000E+00  0.00000000E+00
  0.00000000E+00  0.00000000E+00  0.00000000E+00
  0.00000000E+00  0.00000000E+00  0.00000000E+00
  0.00000000E+00  0.00000000E+00  0.00000000E+00
  0.00000000E+00  0.00000000E+00  0.00000000E+00
  0.00000000E+00  0.00000000E+00  0.00000000E+00
  0.00000000E+00  0.00000000E+00  0.00000000E+00
  0.00000000E+00  0.00000000E+00  0.00000000E+00
  0.00000000E+00  0.00000000E+00  0.00000000E+00
  0.00000000E+00  0.00000000E+00  0.00000000E+00
  0.00000000E+00  0.00000000E+00  0.00000000E+00
  0.00000000E+00  0.00000000E+00  0.00000000E+00
  0.00000000E+00  0.00000000E+00  0.00000000E+00
  0.00000000E+00  0.00000000E+00  0.00000000E+00
  0.00000000E+00  0.00000000E+00  0.00000000E+00
  0.00000000E+00  0.00000000E+00  0.00000000E+00
  0.00000000E+00  0.00000000E+00  0.00000000E+00
  0.00000000E+00  0.00000000E+00  0.00000000E+00
  0.00000000E+00  0.00000000E+00  0.00000000E+00
  0.00000000E+00  0.00000000E+00  0.00000000E+00
  0.00000000E+00  0.00000000E+00  0.00000000E+00
  0.00000000E+00  0.00000000E+00  0.00000000E+00
  0.00000000E+00  0.00000000E+00  0.00000000E+00
  0.00000000E+00  0.00000000E+00  0.00000000E+00
  0.00000000E+00  0.00000000E+00  0.00000000E+00
  0.00000000E+00  0.00000000E+00  0.00000000E+00
  0.00000000E+00  0.00000000E+00  0.00000000E+00
  0.00000000E+00  0.00000000E+00  0.00000000E+00
  0.00000000E+00  0.00000000E+00  0.00000000E+00
  0.00000000E+00  0.00000000E+00  0.00000000E+00
  0.00000000E+00  0.00000000E+00  0.00000000E+00
  0.00000000E+00  0.00000000E+00  0.00000000E+00
  0.00000000E+00  0.00000000E+00  0.00000000E+00
  0.00000000E+00  0.00000000E+00  0.00000000E+00
  0.00000000E+00  0.00000000E+00  0.00000000E+00
  0.00000000E+00  0.00000000E+00  0.00000000E+00
  0.00000000E+00  0.00000000E+00  0.00000000E+00
  0.00000000E+00  0.00000000E+00  0.00000000E+00
  0.00000000E+00  0.00000000E+00  0.00000000E+00
  0.00000000E+00  0.00000000E+00  0.00000000E+00
  0.00000000E+00  0.00000000E+00  0.00000000E+00
  0.00000000E+00  0.00000000E+00  0.00000000E+00
  0.00000000E+00  0.00000000E+00  0.00000000E+00
  0.00000000E+00  0.00000000E+00  0.00000000E+00
  0.00000000E+00  0.00000000E+00  0.00000000E+00
  0.00000000E+00  0.00000000E+00  0.00000000E+00
  0.00000000E+00  0.00000000E+00  0.00000000E+00
  0.00000000E+00  0.00000000E+00  0.00000000E+00
  0.00000000E+00  0.00000000E+00  0.00000000E+00
  0.00000000E+00  0.00000000E+00  0.00000000E+00
  0.00000000E+00  0.00000000E+00  0.00000000E+00
