Ca Rb Cl                                
   1.00000000000000     
    10.8611319999999996  -10.8611319999999996    0.0000000000000000
    10.8611319999999996   10.8611319999999996    0.0000000000000000
     0.0000000000000000    0.0000000000000000   21.7222630000000017
   Ca   Cl   Rb
    32    96    32
Direct
  0.9972224207200584  0.9991010067153427  0.0001128938841716
  0.0024432279137227  0.0006175700557168  0.2504231621269110
  0.0027856490889989  0.0006743477658089  0.5000361958312329
  0.9972356728175897  0.9995006916777622  0.7504484109271173
  0.4971268228265243  0.9990639082787888  0.0001176462649925
  0.5029008121923615  0.0006193998015062  0.2504522417861798
  0.5033366581457650  0.0007776214787047  0.4999340542799128
  0.4971011929965633  0.9994519193055762  0.7498561455231880
  0.2472306278474279  0.2493176063550153  0.0000064382687086
  0.2530897427863165  0.2510544836534783  0.2503904292195890
  0.2534829241159743  0.2507979704326132  0.5003834344933711
  0.2472931831615552  0.2495364431790564  0.7503553268048201
  0.9969550929250753  0.4992837723726336  0.0003360038790320
  0.0028668435058534  0.5007297340596534  0.2507937677088665
  0.0032158702199804  0.5008183026421896  0.5002325800196826
  0.9970198572160075  0.4998456358199400  0.7503665168104083
  0.7476688324184921  0.2493275754500208  0.0000612982378084
  0.7530868028795800  0.2512071057696781  0.2505024129737310
  0.7532999772395644  0.2508484635540933  0.4999418967872229
  0.7476884945609185  0.2495066490923572  0.7502298021159236
  0.4970531972794497  0.4991933122568625  0.0001090791281058
  0.5024583326397879  0.5006876459250998  0.2505386190337837
  0.5031540015216734  0.5006829378279052  0.5001824570798856
  0.4972570743260504  0.4997489911956441  0.7504829307002566
  0.2477062179397817  0.7496170867692208  0.0001651953896346
  0.2528270268367770  0.7510815462127188  0.2507327697309788
  0.2532811638467385  0.7508217908303488  0.5000960739419104
  0.2475276894857302  0.7497137739765485  0.7504326482919187
  0.7472404892283202  0.7494704755096209  0.0000879790814762
  0.7531261719746278  0.7509888381489729  0.2502427817336308
  0.7535240550646988  0.7506756156960170  0.5003631196249620
  0.7473053552003778  0.7493981720660006  0.7505548570291221
  0.1067032268328772  0.1400927364024801  0.9806142610406429
  0.1443217512435867  0.1089765816813051  0.2688754628541190
  0.1423557147210814  0.1109916203854453  0.4810634559144359
  0.1055364355655609  0.1415516705580389  0.7695136352328610
  0.6058247428646826  0.1412365828619013  0.9821913564348578
  0.6434639009101746  0.1103367302661223  0.2691503319699389
  0.6423033352962960  0.1115222690055245  0.4803197242024346
  0.6054246111795913  0.1417691385451110  0.7683695117183311
  0.3876786637400664  0.3591600391415130  0.0193065828026324
  0.3616424563286544  0.3915562085794910  0.2318665805469045
  0.3643461723581362  0.3892706281051903  0.5188692089767776
  0.3880531807771435  0.3592581232636991  0.7312352375747790
  0.1060986901974899  0.6411853773190757  0.9824946755870306
  0.1434446037617435  0.6101165680822930  0.2698831501398276
  0.1423602366348865  0.6114527146319166  0.4806717464993092
  0.1051350583955576  0.6422881790018686  0.7687635139516947
  0.8884964722939850  0.3584953722250330  0.0179324375038284
  0.8622185344493855  0.3912817808426579  0.2314727284297413
  0.8646834045327687  0.3887846860226674  0.5192324541113222
  0.8884165071514348  0.3588925819066981  0.7320185238716231
  0.6066850910104202  0.6400564104653617  0.9806457122539114
  0.6439135308033394  0.6093397642450419  0.2689968447793660
  0.6425096460892162  0.6110533721884734  0.4810733517395698
  0.6058326381621550  0.6412115115378753  0.7699124018917336
  0.3893219032712759  0.8577352704819285  0.0174809162645101
  0.3619821189996874  0.8912238775038566  0.2316743784990412
  0.3646560056336407  0.8888037359470939  0.5192761279429498
  0.3888930122355858  0.8582983024915045  0.7317917476752429
  0.8884510038074738  0.8585628809688274  0.0192101866631466
  0.8613655505533226  0.8917428565641696  0.2317236351666037
  0.8639885176381789  0.8893163061973038  0.5189559792126401
  0.8881678499362944  0.8589610260652745  0.7314545572124025
  0.8551816292875356  0.1065439218387355  0.9835371747915316
  0.8947058202656648  0.1431897473745625  0.2669251246364399
  0.8929619618387732  0.1410204987501457  0.4828518374114427
  0.8549781851230015  0.1068211623163394  0.7666208594345350
  0.3549053580922366  0.1064958273776661  0.9861003303659581
  0.3954007724164559  0.1435605220485741  0.2643434462826503
  0.3929750945342565  0.1407452442107784  0.4844355181543602
  0.3545465712614693  0.1065255885103557  0.7646143271814682
  0.1383340611021982  0.3901449726570975  0.0130067338623972
  0.1116328869789642  0.3600404429895563  0.2374963847124445
  0.1141860304591561  0.3622527403181552  0.5144315216146955
  0.1388687861277400  0.3910088933524710  0.7368762856887392
  0.8551923345521169  0.6070907603183683  0.9860530870279665
  0.8948747972082240  0.6430596814490888  0.2649185558452257
  0.8933251928606262  0.6410759666992192  0.4848286942524357
  0.8544153226883197  0.6065861021857352  0.7653577839811100
  0.6378308370422806  0.3893080055436983  0.0157114085404104
  0.6124261070697020  0.3610053897371220  0.2339773622721694
  0.6147819769960176  0.3628517601446531  0.5169690201572522
  0.6381217827643672  0.3897927344084266  0.7343210780707931
  0.3555126592991936  0.6070512638252109  0.9834897827764115
  0.3945397316862949  0.6430019546526711  0.2671295132687092
  0.3931463309983496  0.6410258215211558  0.4829630712808144
  0.3546697694252166  0.6067365384500234  0.7669743256876107
  0.1384844033301535  0.8899260789221540  0.0160191577524352
  0.1118543741698825  0.8605151686407002  0.2344459024726256
  0.1142979438246989  0.8626144903099769  0.5163887451372277
  0.1385969000832312  0.8904932708047985  0.7343187019380381
  0.6389815921708499  0.8906390453069941  0.0130586589631985
  0.6116934729812918  0.8600255194951162  0.2371388038933119
  0.6140279539286692  0.8619076762738507  0.5139994106106839
  0.6388141948353674  0.8906471091211370  0.7362814151914402
  0.0038438753339827  0.0333637224984064  0.1251531746252357
  0.9924586761077900  0.9666246808599323  0.3751648717854564
  0.0022743649904586  0.0336721269916100  0.6253640649657153
  0.0031002900999286  0.9647941823100511  0.8751979702821235
  0.5066799477342744  0.0302678240427668  0.1251893420742073
  0.4916039067173521  0.9683037021043243  0.3751444459399376
  0.5046969695637996  0.0322916599843610  0.6250453757821745
  0.5012868464247361  0.9677389967844516  0.8749107958690636
  0.2425660478990378  0.2197228483199015  0.1253036047128399
  0.2494809603958335  0.2830071665185084  0.3753862399188469
  0.2424214065178123  0.2183281534498235  0.6252815661462895
  0.2599847244520522  0.2813205421592184  0.8751696946050540
  0.0076715210168431  0.5302909072323976  0.1254087691153873
  0.9911913424535516  0.4681477769699028  0.3754544797504211
  0.0040904973888904  0.5321380164081762  0.6254530127318091
  0.0011241357698047  0.4678427227808702  0.8752930980655929
  0.7474515028885547  0.2173231667173224  0.1253328408757521
  0.7465891766314439  0.2862568341867452  0.3751677157321168
  0.7458872895797987  0.2165726440878585  0.6250801553665202
  0.7571007276545721  0.2826523734979498  0.8751367135168949
  0.5046350516605925  0.5332573692618509  0.1251960257159382
  0.4933517926244233  0.4663370666794496  0.3752883086165614
  0.5024751570861450  0.5340009737224708  0.6254966183400147
  0.5031764581843212  0.4647833138504860  0.8751757900017634
  0.2469421541215527  0.7174011894737060  0.1255046706524499
  0.2468621480087773  0.7859368288033612  0.3754007035743717
  0.2451627804752056  0.7166297677574008  0.6252247144581032
  0.2567465713421008  0.7832753740809844  0.8752746794886510
  0.7425496319852138  0.7188462370495283  0.1253079898734645
  0.7494467203481441  0.7830568564356126  0.3753059708379187
  0.7424643742052695  0.7183242551134111  0.6253612500977003
  0.7596131913096651  0.7818883015584764  0.8752923063293842
  0.0006467244464038  0.2526272518835560  0.1279343094189888
  0.0223590132498133  0.2471069687396179  0.3756459709574483
  0.0038661796884577  0.2529527293454799  0.6238747985263173
  0.9787759183018845  0.2461233185433721  0.8757100793165095
  0.5035365794735596  0.2502641047555452  0.1257499980612337
  0.5214328652678039  0.2458623425862534  0.3750669489558853
  0.5070943598361154  0.2519857086678197  0.6260050420502816
  0.4802152503891615  0.2450945184854308  0.8753773826619645
  0.2479441965313099  0.4978449190067143  0.1233728372393364
  0.2709007919017848  0.5044799370199786  0.3757927192578078
  0.2526807711271641  0.4975190100446557  0.6277509999087800
  0.2279035310113474  0.5024094350030091  0.8754947117232245
  0.0041525249105682  0.7495662496194694  0.1253924942819910
  0.0209247757524381  0.7461497010951014  0.3754819732952493
  0.0067729132583256  0.7518517386922491  0.6256554412527378
  0.9795628593325962  0.7448199719030089  0.8760383548319968
  0.7448983204449579  0.4992613242548979  0.1256429644903704
  0.7703733200567526  0.5058337544147270  0.3754260635473701
  0.7505913780262244  0.4987799875139903  0.6261881318341905
  0.7283369781960520  0.5037402671305569  0.8758841869858164
  0.5007139387991805  0.7523267201710458  0.1278111386119165
  0.5224477756327397  0.7473400440402205  0.3756438185063988
  0.5042232319676051  0.7529790335517815  0.6235445265481599
  0.4783372564642555  0.7462049782187001  0.8757630833020471
  0.2458348335276886  0.0001074501804396  0.1255560502699776
  0.2708541444551996  0.0058196135643424  0.3756902896986850
  0.2504359713469929  0.9987534615227925  0.6258041877859178
  0.2285124238914292  0.0045621350371572  0.8753857722315529
  0.7486481974060228  0.9982998200613237  0.1229844386872644
  0.7706048745860390  0.0040728689196778  0.3750472178091510
  0.7529245425650726  0.9975738070446147  0.6274491962622931
  0.7271874334827564  0.0029090503769091  0.8747103012121630
 
  0.00000000E+00  0.00000000E+00  0.00000000E+00
  0.00000000E+00  0.00000000E+00  0.00000000E+00
  0.00000000E+00  0.00000000E+00  0.00000000E+00
  0.00000000E+00  0.00000000E+00  0.00000000E+00
  0.00000000E+00  0.00000000E+00  0.00000000E+00
  0.00000000E+00  0.00000000E+00  0.00000000E+00
  0.00000000E+00  0.00000000E+00  0.00000000E+00
  0.00000000E+00  0.00000000E+00  0.00000000E+00
  0.00000000E+00  0.00000000E+00  0.00000000E+00
  0.00000000E+00  0.00000000E+00  0.00000000E+00
  0.00000000E+00  0.00000000E+00  0.00000000E+00
  0.00000000E+00  0.00000000E+00  0.00000000E+00
  0.00000000E+00  0.00000000E+00  0.00000000E+00
  0.00000000E+00  0.00000000E+00  0.00000000E+00
  0.00000000E+00  0.00000000E+00  0.00000000E+00
  0.00000000E+00  0.00000000E+00  0.00000000E+00
  0.00000000E+00  0.00000000E+00  0.00000000E+00
  0.00000000E+00  0.00000000E+00  0.00000000E+00
  0.00000000E+00  0.00000000E+00  0.00000000E+00
  0.00000000E+00  0.00000000E+00  0.00000000E+00
  0.00000000E+00  0.00000000E+00  0.00000000E+00
  0.00000000E+00  0.00000000E+00  0.00000000E+00
  0.00000000E+00  0.00000000E+00  0.00000000E+00
  0.00000000E+00  0.00000000E+00  0.00000000E+00
  0.00000000E+00  0.00000000E+00  0.00000000E+00
  0.00000000E+00  0.00000000E+00  0.00000000E+00
  0.00000000E+00  0.00000000E+00  0.00000000E+00
  0.00000000E+00  0.00000000E+00  0.00000000E+00
  0.00000000E+00  0.00000000E+00  0.00000000E+00
  0.00000000E+00  0.00000000E+00  0.00000000E+00
  0.00000000E+00  0.00000000E+00  0.00000000E+00
  0.00000000E+00  0.00000000E+00  0.00000000E+00
  0.00000000E+00  0.00000000E+00  0.00000000E+00
  0.00000000E+00  0.00000000E+00  0.00000000E+00
  0.00000000E+00  0.00000000E+00  0.00000000E+00
  0.00000000E+00  0.00000000E+00  0.00000000E+00
  0.00000000E+00  0.00000000E+00  0.00000000E+00
  0.00000000E+00  0.00000000E+00  0.00000000E+00
  0.00000000E+00  0.00000000E+00  0.00000000E+00
  0.00000000E+00  0.00000000E+00  0.00000000E+00
  0.00000000E+00  0.00000000E+00  0.00000000E+00
  0.00000000E+00  0.00000000E+00  0.00000000E+00
  0.00000000E+00  0.00000000E+00  0.00000000E+00
  0.00000000E+00  0.00000000E+00  0.00000000E+00
  0.00000000E+00  0.00000000E+00  0.00000000E+00
  0.00000000E+00  0.00000000E+00  0.00000000E+00
  0.00000000E+00  0.00000000E+00  0.00000000E+00
  0.00000000E+00  0.00000000E+00  0.00000000E+00
  0.00000000E+00  0.00000000E+00  0.00000000E+00
  0.00000000E+00  0.00000000E+00  0.00000000E+00
  0.00000000E+00  0.00000000E+00  0.00000000E+00
  0.00000000E+00  0.00000000E+00  0.00000000E+00
  0.00000000E+00  0.00000000E+00  0.00000000E+00
  0.00000000E+00  0.00000000E+00  0.00000000E+00
  0.00000000E+00  0.00000000E+00  0.00000000E+00
  0.00000000E+00  0.00000000E+00  0.00000000E+00
  0.00000000E+00  0.00000000E+00  0.00000000E+00
  0.00000000E+00  0.00000000E+00  0.00000000E+00
  0.00000000E+00  0.00000000E+00  0.00000000E+00
  0.00000000E+00  0.00000000E+00  0.00000000E+00
  0.00000000E+00  0.00000000E+00  0.00000000E+00
  0.00000000E+00  0.00000000E+00  0.00000000E+00
  0.00000000E+00  0.00000000E+00  0.00000000E+00
  0.00000000E+00  0.00000000E+00  0.00000000E+00
  0.00000000E+00  0.00000000E+00  0.00000000E+00
  0.00000000E+00  0.00000000E+00  0.00000000E+00
  0.00000000E+00  0.00000000E+00  0.00000000E+00
  0.00000000E+00  0.00000000E+00  0.00000000E+00
  0.00000000E+00  0.00000000E+00  0.00000000E+00
  0.00000000E+00  0.00000000E+00  0.00000000E+00
  0.00000000E+00  0.00000000E+00  0.00000000E+00
  0.00000000E+00  0.00000000E+00  0.00000000E+00
  0.00000000E+00  0.00000000E+00  0.00000000E+00
  0.00000000E+00  0.00000000E+00  0.00000000E+00
  0.00000000E+00  0.00000000E+00  0.00000000E+00
  0.00000000E+00  0.00000000E+00  0.00000000E+00
  0.00000000E+00  0.00000000E+00  0.00000000E+00
  0.00000000E+00  0.00000000E+00  0.00000000E+00
  0.00000000E+00  0.00000000E+00  0.00000000E+00
  0.00000000E+00  0.00000000E+00  0.00000000E+00
  0.00000000E+00  0.00000000E+00  0.00000000E+00
  0.00000000E+00  0.00000000E+00  0.00000000E+00
  0.00000000E+00  0.00000000E+00  0.00000000E+00
  0.00000000E+00  0.00000000E+00  0.00000000E+00
  0.00000000E+00  0.00000000E+00  0.00000000E+00
  0.00000000E+00  0.00000000E+00  0.00000000E+00
  0.00000000E+00  0.00000000E+00  0.00000000E+00
  0.00000000E+00  0.00000000E+00  0.00000000E+00
  0.00000000E+00  0.00000000E+00  0.00000000E+00
  0.00000000E+00  0.00000000E+00  0.00000000E+00
  0.00000000E+00  0.00000000E+00  0.00000000E+00
  0.00000000E+00  0.00000000E+00  0.00000000E+00
  0.00000000E+00  0.00000000E+00  0.00000000E+00
  0.00000000E+00  0.00000000E+00  0.00000000E+00
  0.00000000E+00  0.00000000E+00  0.00000000E+00
  0.00000000E+00  0.00000000E+00  0.00000000E+00
  0.00000000E+00  0.00000000E+00  0.00000000E+00
  0.00000000E+00  0.00000000E+00  0.00000000E+00
  0.00000000E+00  0.00000000E+00  0.00000000E+00
  0.00000000E+00  0.00000000E+00  0.00000000E+00
  0.00000000E+00  0.00000000E+00  0.00000000E+00
  0.00000000E+00  0.00000000E+00  0.00000000E+00
  0.00000000E+00  0.00000000E+00  0.00000000E+00
  0.00000000E+00  0.00000000E+00  0.00000000E+00
  0.00000000E+00  0.00000000E+00  0.00000000E+00
  0.00000000E+00  0.00000000E+00  0.00000000E+00
  0.00000000E+00  0.00000000E+00  0.00000000E+00
  0.00000000E+00  0.00000000E+00  0.00000000E+00
  0.00000000E+00  0.00000000E+00  0.00000000E+00
  0.00000000E+00  0.00000000E+00  0.00000000E+00
  0.00000000E+00  0.00000000E+00  0.00000000E+00
  0.00000000E+00  0.00000000E+00  0.00000000E+00
  0.00000000E+00  0.00000000E+00  0.00000000E+00
  0.00000000E+00  0.00000000E+00  0.00000000E+00
  0.00000000E+00  0.00000000E+00  0.00000000E+00
  0.00000000E+00  0.00000000E+00  0.00000000E+00
  0.00000000E+00  0.00000000E+00  0.00000000E+00
  0.00000000E+00  0.00000000E+00  0.00000000E+00
  0.00000000E+00  0.00000000E+00  0.00000000E+00
  0.00000000E+00  0.00000000E+00  0.00000000E+00
  0.00000000E+00  0.00000000E+00  0.00000000E+00
  0.00000000E+00  0.00000000E+00  0.00000000E+00
  0.00000000E+00  0.00000000E+00  0.00000000E+00
  0.00000000E+00  0.00000000E+00  0.00000000E+00
  0.00000000E+00  0.00000000E+00  0.00000000E+00
  0.00000000E+00  0.00000000E+00  0.00000000E+00
  0.00000000E+00  0.00000000E+00  0.00000000E+00
  0.00000000E+00  0.00000000E+00  0.00000000E+00
  0.00000000E+00  0.00000000E+00  0.00000000E+00
  0.00000000E+00  0.00000000E+00  0.00000000E+00
  0.00000000E+00  0.00000000E+00  0.00000000E+00
  0.00000000E+00  0.00000000E+00  0.00000000E+00
  0.00000000E+00  0.00000000E+00  0.00000000E+00
  0.00000000E+00  0.00000000E+00  0.00000000E+00
  0.00000000E+00  0.00000000E+00  0.00000000E+00
  0.00000000E+00  0.00000000E+00  0.00000000E+00
  0.00000000E+00  0.00000000E+00  0.00000000E+00
  0.00000000E+00  0.00000000E+00  0.00000000E+00
  0.00000000E+00  0.00000000E+00  0.00000000E+00
  0.00000000E+00  0.00000000E+00  0.00000000E+00
  0.00000000E+00  0.00000000E+00  0.00000000E+00
  0.00000000E+00  0.00000000E+00  0.00000000E+00
  0.00000000E+00  0.00000000E+00  0.00000000E+00
  0.00000000E+00  0.00000000E+00  0.00000000E+00
  0.00000000E+00  0.00000000E+00  0.00000000E+00
  0.00000000E+00  0.00000000E+00  0.00000000E+00
  0.00000000E+00  0.00000000E+00  0.00000000E+00
  0.00000000E+00  0.00000000E+00  0.00000000E+00
  0.00000000E+00  0.00000000E+00  0.00000000E+00
  0.00000000E+00  0.00000000E+00  0.00000000E+00
  0.00000000E+00  0.00000000E+00  0.00000000E+00
  0.00000000E+00  0.00000000E+00  0.00000000E+00
  0.00000000E+00  0.00000000E+00  0.00000000E+00
  0.00000000E+00  0.00000000E+00  0.00000000E+00
  0.00000000E+00  0.00000000E+00  0.00000000E+00
  0.00000000E+00  0.00000000E+00  0.00000000E+00
  0.00000000E+00  0.00000000E+00  0.00000000E+00
  0.00000000E+00  0.00000000E+00  0.00000000E+00
  0.00000000E+00  0.00000000E+00  0.00000000E+00
  0.00000000E+00  0.00000000E+00  0.00000000E+00
