Na Ge Cl                                
   1.00000000000000     
    10.4318790000000003  -10.4318790000000003    0.0000000000000000
    10.4318790000000003   10.4318790000000003    0.0000000000000000
     0.0000000000000000    0.0000000000000000   20.8637580000000007
   Na   Ge   Cl
    32    32    96
Direct
  0.0291607497616117  0.9860798495662187  0.9907703678389205
  0.9818426909538617  0.0611576079513797  0.2817389220983056
  0.9882997416193724  0.9754264586477951  0.4941268397670461
  0.0205884831684315  0.9522384060626988  0.6932945872275590
  0.5732132396703797  0.0167906853055935  0.9618773391869089
  0.4531642742257487  0.9583992261986654  0.2525722770276311
  0.4661892406816432  0.9952702131226849  0.4779982630063279
  0.5348609175901284  0.0066828815073732  0.7379975213139370
  0.2109479372052357  0.2495747237044766  0.9935835255931258
  0.2492910147422211  0.1957078367564035  0.2590577786672467
  0.2232714422185030  0.1645890523273769  0.5066302642102355
  0.2869737081985173  0.2815890075720071  0.7502250904222558
  0.0110584612407923  0.4845159461597919  0.0219244032927106
  0.9681230080418355  0.5111547149030955  0.2670521065796262
  0.0094300801723244  0.4705166755036478  0.5108420352538953
  0.0323728980205178  0.4878946133490427  0.7477231488644993
  0.7099590629159381  0.2950895752114138  0.0049886933410477
  0.7416852191730728  0.2015695727950820  0.2455609196059426
  0.7376708204437086  0.2250588343841444  0.4587314637055845
  0.7941278543282919  0.2692302388091970  0.7572919432935863
  0.4655059853987890  0.4853786346206000  0.0055814621456440
  0.4535183258878875  0.4930384240075431  0.2549162696313216
  0.5005843106506372  0.4910127355143973  0.5132163266143352
  0.5137677236233533  0.5276543153276297  0.7593314695065869
  0.2276007169416174  0.7208439060173180  0.0199873419922445
  0.2601797555640979  0.6969820322592751  0.2667155820454399
  0.2151286350221078  0.7526851184189166  0.5171411934333529
  0.2369645153870697  0.7928412623623673  0.7772300287644429
  0.7831240244377453  0.7527922947315139  0.0194563346867192
  0.7004524958482303  0.7033690368413098  0.2297725408299003
  0.7533815871163081  0.7206333988314573  0.4675952514190880
  0.7622404739303000  0.7527711278267915  0.7441937011643920
  0.0276418456558178  0.2846950324208835  0.1340959841858933
  0.0565545026091884  0.2756745842381951  0.3897469317656675
  0.9872506053160486  0.1983441846797398  0.6046016028455887
  0.0162830045458393  0.2970343254967178  0.8724019772312512
  0.4844931108529859  0.2389279509275775  0.0834680958358371
  0.5026341870171447  0.2102255335690970  0.3354454343136041
  0.4541715760526895  0.2027849419301436  0.5994016471320868
  0.5275979430677598  0.2647476016456074  0.8148077835967039
  0.2492850378537857  0.4987676580616950  0.1260843847568267
  0.2713660054557194  0.5078810657095477  0.3940629104023756
  0.2803302022130063  0.5317149101522120  0.6290825548720111
  0.2953093688011023  0.5659607487848002  0.8772794518498743
  0.9939592729175326  0.7356715302318062  0.1226620579475738
  0.9759444432842475  0.7620993327799749  0.3645056305593540
  0.9317285599202764  0.6602503434182684  0.6176507396883024
  0.9715820625609257  0.7055231355659440  0.8420211332378420
  0.7543321748039240  0.4690026762047672  0.1546684790551393
  0.7316158009366033  0.4819586906095372  0.3635164341073698
  0.7417075604104272  0.4197883486674321  0.5730356777055581
  0.7629107900720690  0.4722483629549420  0.8753598543379841
  0.5343923585998456  0.7862129335441811  0.0984903873513886
  0.5055144214167122  0.7222621067167534  0.3765416789129881
  0.5083744613294194  0.7351577894492614  0.6158367939952069
  0.5765919169149658  0.7597719640859179  0.8807015854594404
  0.2414894281710597  0.9813728986615553  0.1440603336290323
  0.2266540228307394  0.9592019768254957  0.3792942151774310
  0.2668518161701132  0.9657449854748061  0.6637340429366053
  0.2967302475606473  0.9828714013314915  0.9076911836734375
  0.8055038015477080  0.0369899527717268  0.1028111776798854
  0.7308439310759376  0.9908708130763345  0.3670805581010442
  0.7816716966927263  0.0055208159488690  0.6221461112180602
  0.8332800603791194  0.9901935450114348  0.8741002563678050
  0.0376073264828667  0.3002529841225801  0.0172323087259286
  0.0416539857826702  0.2419148946809993  0.2762673488631824
  0.0839674413528809  0.2933692381978710  0.5376221973820474
  0.9823820401072169  0.3063295406271151  0.7587984746990601
  0.5451497268762348  0.1974264697320650  0.9798907025776440
  0.4331910013806857  0.2953113784094998  0.2508301761195466
  0.4113898307713018  0.1826140099827731  0.4908402043501808
  0.4642081398868748  0.3475803644359446  0.7255719791188560
  0.2045076451879533  0.5167678319267101  0.0141540966882440
  0.2651088480276189  0.5035479786702640  0.2790668486982571
  0.1583003188116290  0.5782507601261593  0.5594479229363238
  0.3527825628216553  0.6382596328956508  0.7826798696404391
  0.9559124384117790  0.6623732767562084  0.0220863635714166
  0.9836811483074218  0.8748409043187618  0.2868633621103870
  0.9275189210846656  0.6472219570050249  0.5038930360827998
  0.9329686900191383  0.8332235008345916  0.7770591039602625
  0.8342319260715977  0.4214078937214704  0.0600233338701897
  0.6364958952475622  0.5338632302602758  0.2755858189862902
  0.8368372965581283  0.3844412183276476  0.4824813712338167
  0.6866541786027786  0.4407136458673517  0.7769391765403527
  0.6285428680362277  0.8629204999559189  0.0219476455307948
  0.4569901320496788  0.6902189803694480  0.2691800290824730
  0.5915341723392435  0.7870659302360365  0.5256414652381405
  0.5844169169099452  0.7055933400759039  0.7728847705373223
  0.3982845161366776  0.9423619416720156  0.9894181269880777
  0.1568852604985480  0.0292573114581372  0.2355431633365659
  0.2791385571989317  0.9580601282651602  0.4897640160862784
  0.1784281045121945  0.9954539144084711  0.7567110524953323
  0.7522124501201509  0.0794068269421996  0.9506332426709402
  0.8189649174928313  0.0332363744086246  0.2171749633826776
  0.6429334598341330  0.0583012265447826  0.4518452498768892
  0.8715608023301453  0.0759655278941584  0.7039073752311457
  0.1835161172266382  0.2453550348167399  0.1353184474691702
  0.1068198242083229  0.0656506356925513  0.4059256677463947
  0.0903183956428271  0.0678643345335373  0.5936744880239320
  0.1811973465655733  0.2845665387367736  0.8616722503556404
  0.7355608658224435  0.1855833377094853  0.1120970474089670
  0.5758191184171652  0.1008016380153056  0.2680439641748958
  0.4942009411776044  0.0437608546538328  0.6094590795115306
  0.6311726509285873  0.1725420279365926  0.7552854404989552
  0.3667100560624942  0.3264031356602801  0.0346351204670809
  0.4301326895713178  0.4781803047117811  0.3915676242466679
  0.3384130817294275  0.4224285683695248  0.5582788885754821
  0.4066543922242309  0.4517430029157681  0.8750742072713846
  0.2007914892654038  0.6512372223433799  0.1439460306576711
  0.0745275415599736  0.6651570376082925  0.3050874356763785
  0.9361989120927334  0.4973686259377777  0.6310655946776473
  0.1045234542146671  0.6631810787545659  0.7839050380598952
  0.8325649691719118  0.3732627785144054  0.2307134938490395
  0.0392432619029649  0.4372949705446598  0.3807358366198346
  0.7888902055019307  0.2883731036463307  0.6286902582157096
  0.7999541765819076  0.3128310670692216  0.8878755000742820
  0.6398566596511863  0.6642984043463990  0.1019635738310450
  0.6540089236696275  0.5621727820210597  0.4487214005215191
  0.5498333794410890  0.5766299078809790  0.6262371857757705
  0.7324861704022052  0.7223857188794394  0.8923899541031045
  0.3130485120969015  0.8582604743063798  0.1993706914114422
  0.4479095544278716  0.8747914168287121  0.3732347167210165
  0.3810649635350791  0.8892556236436585  0.7271008791643927
  0.2123275751702716  0.8423242628628105  0.9079848138139212
  0.8637054880933711  0.8282748464766357  0.1241082068556204
  0.8268088530849804  0.9048100137220723  0.4373110331484983
  0.8979736505935458  0.8951170830940287  0.6016052040661627
  0.8882935163042213  0.8849633897396481  0.9521163632004173
  0.9572972461242560  0.0862549780976595  0.0893824331352795
  0.8307421061166258  0.1229155527816912  0.3634263117226609
  0.8977780956321383  0.1369778963443865  0.5206009292326358
  0.9690926922951182  0.0744898259492655  0.8783802921463183
  0.3651190159978593  0.0790683298599019  0.1666172096600326
  0.3357079585806121  0.0729742626779579  0.3473071376269958
  0.3005581529946823  0.1844541597584780  0.6362061427664901
  0.4133806041045407  0.1511422392438157  0.8088905505225259
  0.0529815127936228  0.4466977780052560  0.1530059011999793
  0.2167378312925365  0.2834353372207242  0.3860841470722589
  0.1938159637196723  0.4265226338729581  0.6941645569909570
  0.0182178846712737  0.4606612043297968  0.8837756474722996
  0.8500405987892972  0.5965849566795334  0.1785378795645015
  0.8369711574247116  0.6016445868402801  0.3481493225482481
  0.7741811377418489  0.6733064435691810  0.6231156303889935
  0.8816613644695674  0.6091179386473718  0.7768102058677874
  0.5768656450129538  0.3687710529444658  0.0933509603352551
  0.6420764841807254  0.2930224464318248  0.3430522103033368
  0.6145072859570999  0.3379607786489166  0.5275126696248423
  0.6333991631632249  0.4613834733654281  0.9412436970242511
  0.4070721076138325  0.5484886405028122  0.1229851613948143
  0.2860744024321474  0.6717201558333482  0.3982083799630051
  0.3839774798819996  0.6931007244389218  0.5506496415202325
  0.3819510941712606  0.6553748211712803  0.9522473740997580
  0.0943828897258056  0.8419946485760706  0.0681900165260968
  0.0854399617880364  0.8299569441590714  0.4413348008117735
  0.1781794993315813  0.8285276252310417  0.6449080391340907
  0.1981023030768078  0.0634987469134065  0.9791539615617941
  0.5979765791512242  0.8652990060743175  0.1853616209605163
  0.6562656368947746  0.7755400501535378  0.3487013215831101
  0.6954405523537168  0.9145041481361413  0.6940596325383733
  0.5921897257101348  0.9168231308947047  0.8508328994364603
 
  0.00000000E+00  0.00000000E+00  0.00000000E+00
  0.00000000E+00  0.00000000E+00  0.00000000E+00
  0.00000000E+00  0.00000000E+00  0.00000000E+00
  0.00000000E+00  0.00000000E+00  0.00000000E+00
  0.00000000E+00  0.00000000E+00  0.00000000E+00
  0.00000000E+00  0.00000000E+00  0.00000000E+00
  0.00000000E+00  0.00000000E+00  0.00000000E+00
  0.00000000E+00  0.00000000E+00  0.00000000E+00
  0.00000000E+00  0.00000000E+00  0.00000000E+00
  0.00000000E+00  0.00000000E+00  0.00000000E+00
  0.00000000E+00  0.00000000E+00  0.00000000E+00
  0.00000000E+00  0.00000000E+00  0.00000000E+00
  0.00000000E+00  0.00000000E+00  0.00000000E+00
  0.00000000E+00  0.00000000E+00  0.00000000E+00
  0.00000000E+00  0.00000000E+00  0.00000000E+00
  0.00000000E+00  0.00000000E+00  0.00000000E+00
  0.00000000E+00  0.00000000E+00  0.00000000E+00
  0.00000000E+00  0.00000000E+00  0.00000000E+00
  0.00000000E+00  0.00000000E+00  0.00000000E+00
  0.00000000E+00  0.00000000E+00  0.00000000E+00
  0.00000000E+00  0.00000000E+00  0.00000000E+00
  0.00000000E+00  0.00000000E+00  0.00000000E+00
  0.00000000E+00  0.00000000E+00  0.00000000E+00
  0.00000000E+00  0.00000000E+00  0.00000000E+00
  0.00000000E+00  0.00000000E+00  0.00000000E+00
  0.00000000E+00  0.00000000E+00  0.00000000E+00
  0.00000000E+00  0.00000000E+00  0.00000000E+00
  0.00000000E+00  0.00000000E+00  0.00000000E+00
  0.00000000E+00  0.00000000E+00  0.00000000E+00
  0.00000000E+00  0.00000000E+00  0.00000000E+00
  0.00000000E+00  0.00000000E+00  0.00000000E+00
  0.00000000E+00  0.00000000E+00  0.00000000E+00
  0.00000000E+00  0.00000000E+00  0.00000000E+00
  0.00000000E+00  0.00000000E+00  0.00000000E+00
  0.00000000E+00  0.00000000E+00  0.00000000E+00
  0.00000000E+00  0.00000000E+00  0.00000000E+00
  0.00000000E+00  0.00000000E+00  0.00000000E+00
  0.00000000E+00  0.00000000E+00  0.00000000E+00
  0.00000000E+00  0.00000000E+00  0.00000000E+00
  0.00000000E+00  0.00000000E+00  0.00000000E+00
  0.00000000E+00  0.00000000E+00  0.00000000E+00
  0.00000000E+00  0.00000000E+00  0.00000000E+00
  0.00000000E+00  0.00000000E+00  0.00000000E+00
  0.00000000E+00  0.00000000E+00  0.00000000E+00
  0.00000000E+00  0.00000000E+00  0.00000000E+00
  0.00000000E+00  0.00000000E+00  0.00000000E+00
  0.00000000E+00  0.00000000E+00  0.00000000E+00
  0.00000000E+00  0.00000000E+00  0.00000000E+00
  0.00000000E+00  0.00000000E+00  0.00000000E+00
  0.00000000E+00  0.00000000E+00  0.00000000E+00
  0.00000000E+00  0.00000000E+00  0.00000000E+00
  0.00000000E+00  0.00000000E+00  0.00000000E+00
  0.00000000E+00  0.00000000E+00  0.00000000E+00
  0.00000000E+00  0.00000000E+00  0.00000000E+00
  0.00000000E+00  0.00000000E+00  0.00000000E+00
  0.00000000E+00  0.00000000E+00  0.00000000E+00
  0.00000000E+00  0.00000000E+00  0.00000000E+00
  0.00000000E+00  0.00000000E+00  0.00000000E+00
  0.00000000E+00  0.00000000E+00  0.00000000E+00
  0.00000000E+00  0.00000000E+00  0.00000000E+00
  0.00000000E+00  0.00000000E+00  0.00000000E+00
  0.00000000E+00  0.00000000E+00  0.00000000E+00
  0.00000000E+00  0.00000000E+00  0.00000000E+00
  0.00000000E+00  0.00000000E+00  0.00000000E+00
  0.00000000E+00  0.00000000E+00  0.00000000E+00
  0.00000000E+00  0.00000000E+00  0.00000000E+00
  0.00000000E+00  0.00000000E+00  0.00000000E+00
  0.00000000E+00  0.00000000E+00  0.00000000E+00
  0.00000000E+00  0.00000000E+00  0.00000000E+00
  0.00000000E+00  0.00000000E+00  0.00000000E+00
  0.00000000E+00  0.00000000E+00  0.00000000E+00
  0.00000000E+00  0.00000000E+00  0.00000000E+00
  0.00000000E+00  0.00000000E+00  0.00000000E+00
  0.00000000E+00  0.00000000E+00  0.00000000E+00
  0.00000000E+00  0.00000000E+00  0.00000000E+00
  0.00000000E+00  0.00000000E+00  0.00000000E+00
  0.00000000E+00  0.00000000E+00  0.00000000E+00
  0.00000000E+00  0.00000000E+00  0.00000000E+00
  0.00000000E+00  0.00000000E+00  0.00000000E+00
  0.00000000E+00  0.00000000E+00  0.00000000E+00
  0.00000000E+00  0.00000000E+00  0.00000000E+00
  0.00000000E+00  0.00000000E+00  0.00000000E+00
  0.00000000E+00  0.00000000E+00  0.00000000E+00
  0.00000000E+00  0.00000000E+00  0.00000000E+00
  0.00000000E+00  0.00000000E+00  0.00000000E+00
  0.00000000E+00  0.00000000E+00  0.00000000E+00
  0.00000000E+00  0.00000000E+00  0.00000000E+00
  0.00000000E+00  0.00000000E+00  0.00000000E+00
  0.00000000E+00  0.00000000E+00  0.00000000E+00
  0.00000000E+00  0.00000000E+00  0.00000000E+00
  0.00000000E+00  0.00000000E+00  0.00000000E+00
  0.00000000E+00  0.00000000E+00  0.00000000E+00
  0.00000000E+00  0.00000000E+00  0.00000000E+00
  0.00000000E+00  0.00000000E+00  0.00000000E+00
  0.00000000E+00  0.00000000E+00  0.00000000E+00
  0.00000000E+00  0.00000000E+00  0.00000000E+00
  0.00000000E+00  0.00000000E+00  0.00000000E+00
  0.00000000E+00  0.00000000E+00  0.00000000E+00
  0.00000000E+00  0.00000000E+00  0.00000000E+00
  0.00000000E+00  0.00000000E+00  0.00000000E+00
  0.00000000E+00  0.00000000E+00  0.00000000E+00
  0.00000000E+00  0.00000000E+00  0.00000000E+00
  0.00000000E+00  0.00000000E+00  0.00000000E+00
  0.00000000E+00  0.00000000E+00  0.00000000E+00
  0.00000000E+00  0.00000000E+00  0.00000000E+00
  0.00000000E+00  0.00000000E+00  0.00000000E+00
  0.00000000E+00  0.00000000E+00  0.00000000E+00
  0.00000000E+00  0.00000000E+00  0.00000000E+00
  0.00000000E+00  0.00000000E+00  0.00000000E+00
  0.00000000E+00  0.00000000E+00  0.00000000E+00
  0.00000000E+00  0.00000000E+00  0.00000000E+00
  0.00000000E+00  0.00000000E+00  0.00000000E+00
  0.00000000E+00  0.00000000E+00  0.00000000E+00
  0.00000000E+00  0.00000000E+00  0.00000000E+00
  0.00000000E+00  0.00000000E+00  0.00000000E+00
  0.00000000E+00  0.00000000E+00  0.00000000E+00
  0.00000000E+00  0.00000000E+00  0.00000000E+00
  0.00000000E+00  0.00000000E+00  0.00000000E+00
  0.00000000E+00  0.00000000E+00  0.00000000E+00
  0.00000000E+00  0.00000000E+00  0.00000000E+00
  0.00000000E+00  0.00000000E+00  0.00000000E+00
  0.00000000E+00  0.00000000E+00  0.00000000E+00
  0.00000000E+00  0.00000000E+00  0.00000000E+00
  0.00000000E+00  0.00000000E+00  0.00000000E+00
  0.00000000E+00  0.00000000E+00  0.00000000E+00
  0.00000000E+00  0.00000000E+00  0.00000000E+00
  0.00000000E+00  0.00000000E+00  0.00000000E+00
  0.00000000E+00  0.00000000E+00  0.00000000E+00
  0.00000000E+00  0.00000000E+00  0.00000000E+00
  0.00000000E+00  0.00000000E+00  0.00000000E+00
  0.00000000E+00  0.00000000E+00  0.00000000E+00
  0.00000000E+00  0.00000000E+00  0.00000000E+00
  0.00000000E+00  0.00000000E+00  0.00000000E+00
  0.00000000E+00  0.00000000E+00  0.00000000E+00
  0.00000000E+00  0.00000000E+00  0.00000000E+00
  0.00000000E+00  0.00000000E+00  0.00000000E+00
  0.00000000E+00  0.00000000E+00  0.00000000E+00
  0.00000000E+00  0.00000000E+00  0.00000000E+00
  0.00000000E+00  0.00000000E+00  0.00000000E+00
  0.00000000E+00  0.00000000E+00  0.00000000E+00
  0.00000000E+00  0.00000000E+00  0.00000000E+00
  0.00000000E+00  0.00000000E+00  0.00000000E+00
  0.00000000E+00  0.00000000E+00  0.00000000E+00
  0.00000000E+00  0.00000000E+00  0.00000000E+00
  0.00000000E+00  0.00000000E+00  0.00000000E+00
  0.00000000E+00  0.00000000E+00  0.00000000E+00
  0.00000000E+00  0.00000000E+00  0.00000000E+00
  0.00000000E+00  0.00000000E+00  0.00000000E+00
  0.00000000E+00  0.00000000E+00  0.00000000E+00
  0.00000000E+00  0.00000000E+00  0.00000000E+00
  0.00000000E+00  0.00000000E+00  0.00000000E+00
  0.00000000E+00  0.00000000E+00  0.00000000E+00
  0.00000000E+00  0.00000000E+00  0.00000000E+00
  0.00000000E+00  0.00000000E+00  0.00000000E+00
  0.00000000E+00  0.00000000E+00  0.00000000E+00
  0.00000000E+00  0.00000000E+00  0.00000000E+00
  0.00000000E+00  0.00000000E+00  0.00000000E+00
  0.00000000E+00  0.00000000E+00  0.00000000E+00
  0.00000000E+00  0.00000000E+00  0.00000000E+00
  0.00000000E+00  0.00000000E+00  0.00000000E+00
