Li Ba Cl                                
   1.00000000000000     
     9.8252340000000000   -9.8252340000000000    0.0000000000000000
     9.8252340000000000    9.8252340000000000    0.0000000000000000
     0.0000000000000000    0.0000000000000000   19.6504669999999990
   Ba   Cl   Li
    32    96    32
Direct
  0.9890238926740772  0.0065257778851863  0.0088804788602909
  0.0002632150563664  0.9606436835432284  0.2495127166100486
  0.9891693826420735  0.0061336970705418  0.4899900854475673
  0.0022860082109745  0.0376566558127658  0.7493454865429302
  0.5107405583261386  0.9858198986245335  0.9953643019840097
  0.5144072122148767  0.9752660362432882  0.2492574936086192
  0.5100867626760901  0.9858697130171626  0.5031172283885823
  0.5050560855451236  0.0253704542738916  0.7493039866151180
  0.2609835904267711  0.2447445986507273  0.9898092336396673
  0.2467901494731823  0.2127637836520898  0.2493857208618773
  0.2606817041955523  0.2448611717222337  0.5087732343659027
  0.2491545741909317  0.2902261768458846  0.7492621240926054
  0.0107922650713017  0.4857905909586252  0.9952555916143911
  0.0144899846734404  0.4753476867807529  0.2492903949292061
  0.0100795141083991  0.4859475973172964  0.5031603107995527
  0.0048151698712477  0.5253281396848678  0.7493360341816219
  0.7390961399268527  0.2648314482165716  0.0033287551729295
  0.7479816802390280  0.2284026016493486  0.2495089588271580
  0.7391820763425119  0.2641832679429501  0.4954502648752255
  0.7370525412515800  0.2773807123970157  0.7492896103746777
  0.4890684623913081  0.5065366822545744  0.0089208276062693
  0.5003071960920662  0.4606318303990090  0.2495340987804874
  0.4890655350269354  0.5060583861866854  0.4899945411092659
  0.5024067622780122  0.5376817463732182  0.7493627219973186
  0.2390629195618340  0.7647650048535516  0.0034006491774002
  0.2479905398003172  0.7284243470324718  0.2495136681879886
  0.2392170423031005  0.7641803691532379  0.4953880362126270
  0.2370005904998662  0.7772983581480146  0.7493159071925853
  0.7610236748453275  0.7448511844508531  0.9897699855990881
  0.7467692301742718  0.7126917076520503  0.2493744579047099
  0.7606272963273082  0.7449509056386400  0.5088324554385624
  0.7492093063865121  0.7901638242457723  0.7492764009206003
  0.0403737337451885  0.2486839190613694  0.9999283816885511
  0.9629403491991321  0.2543217738047552  0.2493093911226862
  0.0400748689757302  0.2489281685221597  0.4987328146136590
  0.9620924723662247  0.2599721651301325  0.7492670723608412
  0.5151883530727183  0.2742206285313815  0.9992351531539904
  0.4777795475254867  0.2264581092694257  0.2494390384169676
  0.5153361977445990  0.2738061621020984  0.4995396113324341
  0.4787562978292882  0.2414028534653060  0.7493520355273472
  0.2347657350432564  0.4773114012349153  0.9994735278948710
  0.2699984254984649  0.5115972741899936  0.2494012861711961
  0.2341832647762444  0.4774879173091779  0.4993978750023965
  0.2717091289809532  0.5238859165190239  0.7493077265163955
  0.0151478978289857  0.7744134996305331  0.9992034753168256
  0.9777759533699263  0.7264185048064181  0.2494388982670002
  0.0153341684839172  0.7738747717661787  0.4995797300738559
  0.9788432647439768  0.7414077690038450  0.7493713825337271
  0.7096489098891376  0.5023100666512972  0.9987860551124083
  0.7888112434505055  0.4906576753985055  0.2494090251236502
  0.7096882162418173  0.5020465486584832  0.4999560339988208
  0.7894183612189253  0.4977012957810621  0.7493488307086154
  0.5404536209829002  0.7486284722096417 -0.0000168466294419
  0.4629657599149409  0.7542815175697444  0.2492741475331167
  0.5400944933389902  0.7487538414474949  0.4988019415835818
  0.4620215198042750  0.7598394410317442  0.7492744197248732
  0.2096199697039576  0.0022758335424344  0.9988089885288116
  0.2887401084543597  0.9905950719163145  0.2494436326271101
  0.2096239407102817  0.0020813175137685  0.4998962541377918
  0.2896711801824908  0.9975237059053175  0.7493505720919703
  0.7348558631905902  0.9773792220812896  0.9994615498164150
  0.7701187555681700  0.0115823217659790  0.2494311219070668
  0.7341321201535708  0.9777545339872473  0.4994477749441798
  0.7717730117702227  0.0238908833551765  0.7493165904395456
  0.0998245783438151  0.0968480777515450  0.1460208938441049
  0.0996437355836704  0.0968729115104777  0.3528637800107375
  0.1503280017002389  0.1539313227739305  0.6457735490181594
  0.1503289726025762  0.1539371312400545  0.8527984423436780
  0.6015338504260271  0.0977461392390711  0.1242022064411225
  0.6015250156006787  0.0978065717638799  0.3744447018327484
  0.6481792378447820  0.1537635808937896  0.6255136666115440
  0.6482750370330463  0.1536033157223984  0.8734950021590305
  0.3900355843831970  0.3870301255011963  0.1227578911377204
  0.3896291336391101  0.3866437371288077  0.3762233590680340
  0.3598364722880538  0.3643997246454639  0.6224259609619982
  0.3599942567084086  0.3644711851904093  0.8761120649085470
  0.1015541743687891  0.5978296752632485  0.1241510857702288
  0.1015925526448523  0.5978842568464491  0.3744173120209403
  0.1481262413597028  0.6537542622308604  0.6253992600549215
  0.1482570686323453  0.6536727308785031  0.8736055289766316
  0.8896033157538865  0.3879437096252966  0.1035684007995865
  0.8892011271298347  0.3874988298908310  0.3949947596901127
  0.8599075249461063  0.3630004041496616  0.6035683806653649
  0.8602838879830282  0.3630030472474349  0.8951828273346965
  0.5998268684573070  0.5967218564450638  0.1460019706579656
  0.5997243659317534  0.5968086259371440  0.3529670565093491
  0.6502472951077453  0.6539124201998842  0.6457045091623165
  0.6502883575414131  0.6539797334571061  0.8527492761319062
  0.3896605235603963  0.8879486782677500  0.1036866734098038
  0.3892549886776629  0.8874163077182816  0.3949473763687316
  0.3599772039787908  0.8627650474894931  0.6035134047198707
  0.3602618438176804  0.8629929925209768  0.8953339154324287
  0.8900063382350334  0.8870861250875777  0.1227962654020878
  0.8896320438541888  0.8867914556870484  0.3762478837968031
  0.8598826218254996  0.8644008348943384  0.6224509942372356
  0.8600786254014118  0.8645018062247054  0.8760841109719705
  0.8536649230558512  0.1409379537182602  0.1049161277597611
  0.8537221314506391  0.1405540084942467  0.3937067122031960
  0.8979532684579213  0.1124508574742443  0.6083967731829868
  0.8982448762373922  0.1123498142802123  0.8900384545049145
  0.3515454973884191  0.1390334080850407  0.1086887082205062
  0.3515923905048238  0.1384778395955457  0.3902001108772923
  0.3965704924841713  0.1103926024452833  0.6046619013416636
  0.3968150938057610  0.1105505223452307  0.8940016036025155
  0.1430760192720613  0.3492393743528293  0.1456915451023725
  0.1427442115870220  0.3492270215092012  0.3530083431188530
  0.1067437946408012  0.4019296410572805  0.6412152967817889
  0.1071195592873321  0.4018557205531204  0.8573036375066866
  0.8514772144715286  0.6390436965163387  0.1086074434507256
  0.8515619524348325  0.6386604899955113  0.3902451415740140
  0.8965730918006422  0.6105429655058481  0.6047742895774508
  0.8967562858860837  0.6105545817804225  0.8939369914950459
  0.6427339348999878  0.3491351915092799  0.1416672634384050
  0.6425403681170923  0.3491399297272946  0.3573226853532545
  0.6074215183997402  0.4022574637107594  0.6459249976865242
  0.6077105427854718  0.4022426973724719  0.8527132614938365
  0.3537813560120909  0.6409125626766881  0.1049769552901999
  0.3539169874707364  0.6405002980355867  0.3936570154686173
  0.3979306490958946  0.6123575909446658  0.6084616825963275
  0.3982150256500537  0.6123067342158547  0.8901373897450034
  0.1427613265739473  0.8491122536287754  0.1416299766106716
  0.1425936239399444  0.8490927381630771  0.3573755933152775
  0.1074810372389327  0.9022769779437522  0.6459830181034226
  0.1077229883871217  0.9022973628838346  0.8525842221736446
  0.6431246455983239  0.8492818604184219  0.1457047227162793
  0.6428038012304464  0.8491816246997632  0.3530601059147349
  0.6069290904918234  0.9018764382037631  0.6412630065257746
  0.6070579454204987  0.9017799637262200  0.8573241772661093
  0.9993949240956502  0.2459336442519729  0.1252862457439083
  0.9992287567816073  0.2457973596314632  0.3734345455559506
  0.9998654827780444  0.2552546454245933  0.6238720424155921
  0.0000709942250126  0.2551097066790592  0.8747698517081880
  0.4944914626596778  0.2402374603514345  0.1233371323019950
  0.4943825866025391  0.2400373595625361  0.3754856700802615
  0.5022632576154639  0.2595086620975529  0.6246915034497432
  0.5024798577707063  0.2596178446804266  0.8739834164315262
  0.2476436583019616  0.4923927295955046  0.1246406090911444
  0.2473746864992591  0.4922105044725968  0.3741631793228165
  0.2551488244223240  0.5109535997376700  0.6231882619682662
  0.2555514030447493  0.5108978979894433  0.8755123271560494
  0.9944286746096258  0.7402820347778599  0.1233027229600628
  0.9944912899568270  0.7401190772652184  0.3754980544706816
  0.0023657213366713  0.7595491189264794  0.6247245518259144
  0.0024468467441648  0.7596005338937550  0.8739644016717103
  0.7501275570932859  0.4958257794323584  0.1237870770628738
  0.7499272780248546  0.4955922735304962  0.3750629441138280
  0.7511372420506941  0.5054837258553823  0.6254218767834923
  0.7512877106933097  0.5055620140597337  0.8732632253041249
  0.4994968134446833  0.7458991712217036  0.1252617285261149
  0.4993202910854740  0.7457364443422146  0.3734184663910667
  0.4998696059341447  0.7552282695819340  0.6239018377681987
  0.4999255660572304  0.7551245421729699  0.8747446440234323
  0.2500947882511094  0.9958364763643729  0.1237422563707775
  0.2499111347893431  0.9955649174433848  0.3750337610409665
  0.2513124699473455  0.0054700966727385  0.6255024113854827
  0.2513940928642246  0.0055419282457927  0.8731611977021556
  0.7476310020218134  0.9922818512042952  0.1246593291466231
  0.7474084126126288  0.9922196437751341  0.3742618645538497
  0.7551500919357796  0.0108680509811580  0.6232480774015429
  0.7554932297487943  0.0107612049479140  0.8754668682633215
 
  0.00000000E+00  0.00000000E+00  0.00000000E+00
  0.00000000E+00  0.00000000E+00  0.00000000E+00
  0.00000000E+00  0.00000000E+00  0.00000000E+00
  0.00000000E+00  0.00000000E+00  0.00000000E+00
  0.00000000E+00  0.00000000E+00  0.00000000E+00
  0.00000000E+00  0.00000000E+00  0.00000000E+00
  0.00000000E+00  0.00000000E+00  0.00000000E+00
  0.00000000E+00  0.00000000E+00  0.00000000E+00
  0.00000000E+00  0.00000000E+00  0.00000000E+00
  0.00000000E+00  0.00000000E+00  0.00000000E+00
  0.00000000E+00  0.00000000E+00  0.00000000E+00
  0.00000000E+00  0.00000000E+00  0.00000000E+00
  0.00000000E+00  0.00000000E+00  0.00000000E+00
  0.00000000E+00  0.00000000E+00  0.00000000E+00
  0.00000000E+00  0.00000000E+00  0.00000000E+00
  0.00000000E+00  0.00000000E+00  0.00000000E+00
  0.00000000E+00  0.00000000E+00  0.00000000E+00
  0.00000000E+00  0.00000000E+00  0.00000000E+00
  0.00000000E+00  0.00000000E+00  0.00000000E+00
  0.00000000E+00  0.00000000E+00  0.00000000E+00
  0.00000000E+00  0.00000000E+00  0.00000000E+00
  0.00000000E+00  0.00000000E+00  0.00000000E+00
  0.00000000E+00  0.00000000E+00  0.00000000E+00
  0.00000000E+00  0.00000000E+00  0.00000000E+00
  0.00000000E+00  0.00000000E+00  0.00000000E+00
  0.00000000E+00  0.00000000E+00  0.00000000E+00
  0.00000000E+00  0.00000000E+00  0.00000000E+00
  0.00000000E+00  0.00000000E+00  0.00000000E+00
  0.00000000E+00  0.00000000E+00  0.00000000E+00
  0.00000000E+00  0.00000000E+00  0.00000000E+00
  0.00000000E+00  0.00000000E+00  0.00000000E+00
  0.00000000E+00  0.00000000E+00  0.00000000E+00
  0.00000000E+00  0.00000000E+00  0.00000000E+00
  0.00000000E+00  0.00000000E+00  0.00000000E+00
  0.00000000E+00  0.00000000E+00  0.00000000E+00
  0.00000000E+00  0.00000000E+00  0.00000000E+00
  0.00000000E+00  0.00000000E+00  0.00000000E+00
  0.00000000E+00  0.00000000E+00  0.00000000E+00
  0.00000000E+00  0.00000000E+00  0.00000000E+00
  0.00000000E+00  0.00000000E+00  0.00000000E+00
  0.00000000E+00  0.00000000E+00  0.00000000E+00
  0.00000000E+00  0.00000000E+00  0.00000000E+00
  0.00000000E+00  0.00000000E+00  0.00000000E+00
  0.00000000E+00  0.00000000E+00  0.00000000E+00
  0.00000000E+00  0.00000000E+00  0.00000000E+00
  0.00000000E+00  0.00000000E+00  0.00000000E+00
  0.00000000E+00  0.00000000E+00  0.00000000E+00
  0.00000000E+00  0.00000000E+00  0.00000000E+00
  0.00000000E+00  0.00000000E+00  0.00000000E+00
  0.00000000E+00  0.00000000E+00  0.00000000E+00
  0.00000000E+00  0.00000000E+00  0.00000000E+00
  0.00000000E+00  0.00000000E+00  0.00000000E+00
  0.00000000E+00  0.00000000E+00  0.00000000E+00
  0.00000000E+00  0.00000000E+00  0.00000000E+00
  0.00000000E+00  0.00000000E+00  0.00000000E+00
  0.00000000E+00  0.00000000E+00  0.00000000E+00
  0.00000000E+00  0.00000000E+00  0.00000000E+00
  0.00000000E+00  0.00000000E+00  0.00000000E+00
  0.00000000E+00  0.00000000E+00  0.00000000E+00
  0.00000000E+00  0.00000000E+00  0.00000000E+00
  0.00000000E+00  0.00000000E+00  0.00000000E+00
  0.00000000E+00  0.00000000E+00  0.00000000E+00
  0.00000000E+00  0.00000000E+00  0.00000000E+00
  0.00000000E+00  0.00000000E+00  0.00000000E+00
  0.00000000E+00  0.00000000E+00  0.00000000E+00
  0.00000000E+00  0.00000000E+00  0.00000000E+00
  0.00000000E+00  0.00000000E+00  0.00000000E+00
  0.00000000E+00  0.00000000E+00  0.00000000E+00
  0.00000000E+00  0.00000000E+00  0.00000000E+00
  0.00000000E+00  0.00000000E+00  0.00000000E+00
  0.00000000E+00  0.00000000E+00  0.00000000E+00
  0.00000000E+00  0.00000000E+00  0.00000000E+00
  0.00000000E+00  0.00000000E+00  0.00000000E+00
  0.00000000E+00  0.00000000E+00  0.00000000E+00
  0.00000000E+00  0.00000000E+00  0.00000000E+00
  0.00000000E+00  0.00000000E+00  0.00000000E+00
  0.00000000E+00  0.00000000E+00  0.00000000E+00
  0.00000000E+00  0.00000000E+00  0.00000000E+00
  0.00000000E+00  0.00000000E+00  0.00000000E+00
  0.00000000E+00  0.00000000E+00  0.00000000E+00
  0.00000000E+00  0.00000000E+00  0.00000000E+00
  0.00000000E+00  0.00000000E+00  0.00000000E+00
  0.00000000E+00  0.00000000E+00  0.00000000E+00
  0.00000000E+00  0.00000000E+00  0.00000000E+00
  0.00000000E+00  0.00000000E+00  0.00000000E+00
  0.00000000E+00  0.00000000E+00  0.00000000E+00
  0.00000000E+00  0.00000000E+00  0.00000000E+00
  0.00000000E+00  0.00000000E+00  0.00000000E+00
  0.00000000E+00  0.00000000E+00  0.00000000E+00
  0.00000000E+00  0.00000000E+00  0.00000000E+00
  0.00000000E+00  0.00000000E+00  0.00000000E+00
  0.00000000E+00  0.00000000E+00  0.00000000E+00
  0.00000000E+00  0.00000000E+00  0.00000000E+00
  0.00000000E+00  0.00000000E+00  0.00000000E+00
  0.00000000E+00  0.00000000E+00  0.00000000E+00
  0.00000000E+00  0.00000000E+00  0.00000000E+00
  0.00000000E+00  0.00000000E+00  0.00000000E+00
  0.00000000E+00  0.00000000E+00  0.00000000E+00
  0.00000000E+00  0.00000000E+00  0.00000000E+00
  0.00000000E+00  0.00000000E+00  0.00000000E+00
  0.00000000E+00  0.00000000E+00  0.00000000E+00
  0.00000000E+00  0.00000000E+00  0.00000000E+00
  0.00000000E+00  0.00000000E+00  0.00000000E+00
  0.00000000E+00  0.00000000E+00  0.00000000E+00
  0.00000000E+00  0.00000000E+00  0.00000000E+00
  0.00000000E+00  0.00000000E+00  0.00000000E+00
  0.00000000E+00  0.00000000E+00  0.00000000E+00
  0.00000000E+00  0.00000000E+00  0.00000000E+00
  0.00000000E+00  0.00000000E+00  0.00000000E+00
  0.00000000E+00  0.00000000E+00  0.00000000E+00
  0.00000000E+00  0.00000000E+00  0.00000000E+00
  0.00000000E+00  0.00000000E+00  0.00000000E+00
  0.00000000E+00  0.00000000E+00  0.00000000E+00
  0.00000000E+00  0.00000000E+00  0.00000000E+00
  0.00000000E+00  0.00000000E+00  0.00000000E+00
  0.00000000E+00  0.00000000E+00  0.00000000E+00
  0.00000000E+00  0.00000000E+00  0.00000000E+00
  0.00000000E+00  0.00000000E+00  0.00000000E+00
  0.00000000E+00  0.00000000E+00  0.00000000E+00
  0.00000000E+00  0.00000000E+00  0.00000000E+00
  0.00000000E+00  0.00000000E+00  0.00000000E+00
  0.00000000E+00  0.00000000E+00  0.00000000E+00
  0.00000000E+00  0.00000000E+00  0.00000000E+00
  0.00000000E+00  0.00000000E+00  0.00000000E+00
  0.00000000E+00  0.00000000E+00  0.00000000E+00
  0.00000000E+00  0.00000000E+00  0.00000000E+00
  0.00000000E+00  0.00000000E+00  0.00000000E+00
  0.00000000E+00  0.00000000E+00  0.00000000E+00
  0.00000000E+00  0.00000000E+00  0.00000000E+00
  0.00000000E+00  0.00000000E+00  0.00000000E+00
  0.00000000E+00  0.00000000E+00  0.00000000E+00
  0.00000000E+00  0.00000000E+00  0.00000000E+00
  0.00000000E+00  0.00000000E+00  0.00000000E+00
  0.00000000E+00  0.00000000E+00  0.00000000E+00
  0.00000000E+00  0.00000000E+00  0.00000000E+00
  0.00000000E+00  0.00000000E+00  0.00000000E+00
  0.00000000E+00  0.00000000E+00  0.00000000E+00
  0.00000000E+00  0.00000000E+00  0.00000000E+00
  0.00000000E+00  0.00000000E+00  0.00000000E+00
  0.00000000E+00  0.00000000E+00  0.00000000E+00
  0.00000000E+00  0.00000000E+00  0.00000000E+00
  0.00000000E+00  0.00000000E+00  0.00000000E+00
  0.00000000E+00  0.00000000E+00  0.00000000E+00
  0.00000000E+00  0.00000000E+00  0.00000000E+00
  0.00000000E+00  0.00000000E+00  0.00000000E+00
  0.00000000E+00  0.00000000E+00  0.00000000E+00
  0.00000000E+00  0.00000000E+00  0.00000000E+00
  0.00000000E+00  0.00000000E+00  0.00000000E+00
  0.00000000E+00  0.00000000E+00  0.00000000E+00
  0.00000000E+00  0.00000000E+00  0.00000000E+00
  0.00000000E+00  0.00000000E+00  0.00000000E+00
  0.00000000E+00  0.00000000E+00  0.00000000E+00
  0.00000000E+00  0.00000000E+00  0.00000000E+00
  0.00000000E+00  0.00000000E+00  0.00000000E+00
  0.00000000E+00  0.00000000E+00  0.00000000E+00
  0.00000000E+00  0.00000000E+00  0.00000000E+00
  0.00000000E+00  0.00000000E+00  0.00000000E+00
  0.00000000E+00  0.00000000E+00  0.00000000E+00
  0.00000000E+00  0.00000000E+00  0.00000000E+00
  0.00000000E+00  0.00000000E+00  0.00000000E+00
