Cs Mg Br                                
   1.00000000000000     
    10.8904110000000003  -10.8904110000000003    0.0000000000000000
    10.8904110000000003   10.8904110000000003    0.0000000000000000
     0.0000000000000000    0.0000000000000000   21.7808220000000006
   Br   Cs   Mg
    96    32    32
Direct
 -0.0000790694247948  0.2499948553108625 -0.0003435172746067
  0.9992981341656015  0.2498538183760871  0.2496543233289990
  0.0000409371574228  0.2498485020469692  0.4996874639006615
  0.9994675210685128  0.2497935953706751  0.7496813597502652
  0.4998581128053099  0.2500246480194939 -0.0003109166307284
  0.4994999439741710  0.2497271397631275  0.2497018086573623
  0.4998929177072057  0.2499430349420976  0.4997439602970363
  0.4994031883611684  0.2503416605897242  0.7497038810020622
  0.2487715792827861  0.4999480937793759 -0.0002927040900944
  0.2501205217917704  0.4996946514438934  0.2496759664549957
  0.2491570059956382  0.5001599398391101  0.4995879131767835
  0.2500779754695184  0.5000753041409123  0.7496828842310570
 -0.0001452723118815  0.7497715453073572 -0.0002498424333564
 -0.0007305520416415  0.7502610629195119  0.2497519877929114
  0.9995617759903453  0.7497128859130182  0.4996474363272954
  0.9991242016179703  0.7501134960792384  0.7496642244148821
  0.7495300508337821  0.5000197052113234  0.9997400937844696
  0.7496404563571031  0.5000632224367828  0.2497420881270363
  0.7494732968604844  0.5001956566632819  0.4997024186853809
  0.7498185123153659  0.4999662881863525  0.7496446290940776
  0.4997835040253703  0.7499982171706766 -0.0003170987609361
  0.4991066118159571  0.7499003895444357  0.2496272920698190
  0.4996270381511643  0.7502657072303773  0.4996828566805396
  0.4990643655587784  0.7499999301448765  0.7495842489290010
  0.2493170015223932  0.9998437935860097  0.9995931417216302
  0.2499718533106885 -0.0001759745213303  0.2496979362017147
  0.2492636872036677  0.0003553659565333  0.4997676438053202
  0.2495897079535089 -0.0001425748550293  0.7496467073934259
  0.7492996641569570  0.9997366761156945  0.9997092900199465
  0.7498138226099655  0.0000421677727812  0.2496714437127855
  0.7486660001284996  0.0000201940027028  0.4996929533412186
  0.7498218735036416 -0.0000482065829853  0.7498723680836036
  0.1248988932999416  0.1249338217972698  0.1249122600425641
  0.1249292591713222  0.1250767668124239  0.3748126242716553
  0.1247759766653034  0.1250044138158885  0.6249101560599806
  0.1248209899535917  0.1249911992847744  0.8748796351170610
  0.6249056944877106  0.1250466668122653  0.1248807353262086
  0.6248547627252812  0.1250878212639814  0.3747860433532244
  0.6247570513444006  0.1249864691118556  0.6249963143193882
  0.6247359063820906  0.1250115283664143  0.8748351278928704
  0.3748314604928039  0.3749186718773847  0.1247593126476552
  0.3748429022209664  0.3749982868023418  0.3749678775097656
  0.3748712413635415  0.3750816920852131  0.6247014186102632
  0.3748784332928882  0.3750463167077588  0.8749542282374446
  0.1248469330224764  0.6250767001856942  0.1249413966374961
  0.1248218461431854  0.6250582269866096  0.3747291178088167
  0.1247890602171867  0.6250179433713291  0.6249194229471972
  0.1247587046313910  0.6250332843255126  0.8746998673987465
  0.8748131225684486  0.3750105911771915  0.1248306923231205
  0.8747778692707902  0.3749909887155524  0.3749453347980464
  0.8748541658469873  0.3749872660581581  0.6248018737585448
  0.8749096563294479  0.3750302054381296  0.8749042498370884
  0.6248270485165710  0.6249955663533605  0.1248878034708749
  0.6248705317968785  0.6250956019998082  0.3748782492544763
  0.6248462508228180  0.6250479424370853  0.6248654165214673
  0.6247944072392174  0.6250050651231994  0.8747979671867450
  0.3747742713750534  0.8749609993369630  0.1247866313379154
  0.3747597468369636  0.8750597260652563  0.3749425681742237
  0.3747802289098824  0.8751070032380139  0.6248020376682982
  0.3748895331222580  0.8750658503891405  0.8748924748395969
  0.8748447092462283  0.8750186609830110  0.1248102432805293
  0.8747855361258604  0.8749536785084275  0.3749722703530482
  0.8748255034284828  0.8750825487802606  0.6247902814707352
  0.8749269037777657  0.8749992739887948  0.8749620818867831
  0.8748747912357048  0.1249454077142971  0.1247816101272162
  0.8748879911656157  0.1248586764047360  0.3749445006015940
  0.8747667912929220  0.1249291698220630  0.6247895927071031
  0.8748164437680965  0.1249605922458868  0.8749073535014417
  0.3748718565138051  0.1249046463940958  0.1247597902591740
  0.3748613821756886  0.1249205320476988  0.3749041332206259
  0.3748140046323358  0.1249919919553669  0.6248772799917323
  0.3747997680676682  0.1249662729909851  0.8748683162992862
  0.1248307053718278  0.3748971827858677  0.1249816307661429
  0.1247690353912465  0.3749681410147838  0.3747830011770985
  0.1249120395882579  0.3750093304947003  0.6249177897218123
  0.1248717914657034  0.3749273235552694  0.8747419377108079
  0.8748040840946661  0.6249798478960331  0.1249113734579476
  0.8748653460437747  0.6249316023853788  0.3748609012917289
  0.8748192201031306  0.6249823070510099  0.6248133295787072
  0.8748055731766937  0.6250214176909732  0.8748987869862016
  0.6248160134295465  0.3749606314122335  0.1248947965353426
  0.6247457627009513  0.3750670680828395  0.3748506570529869
  0.6248965431246088  0.3749181843580877  0.6249004771234641
  0.6248711387936691  0.3749671034114781  0.8748316521246193
  0.3748161713600376  0.6248670963430835  0.1248337160517530
  0.3748403103296977  0.6249261619783109  0.3749231937542033
  0.3748577607243818  0.6248910742014387  0.6247835670039362
  0.3748037947392937  0.6249586388296066  0.8749841072029196
  0.1248401887659234  0.8749975517167151  0.1249427071100953
  0.1247602129657010  0.8749341593210856  0.3748625397750649
  0.1248827009758071  0.8748967524826343  0.6248401853531758
  0.1248216232972966  0.8748802284884181  0.8748187649989685
  0.6248273247984952  0.8749289983067121  0.1249041693826748
  0.6247319313017383  0.8749536764509799  0.3747003072039470
  0.6249020979945449  0.8748512453492311  0.6249535508342590
  0.6248370145519399  0.8748405835871612  0.8748147951681109
 -0.0004043937477500  0.9998093102790422 -0.0001715028839625
 -0.0002411703892996 -0.0000241481367347  0.2497607755827491
 -0.0006914476913192 -0.0000918654101962  0.4997973946095020
  0.9995741332893703  0.9999128722555947  0.7496906578474035
  0.4995264162607981 -0.0000984431815538 -0.0003757295692813
  0.4996598284888237 -0.0001079377058731  0.2496548040631865
  0.4993356705465314 -0.0000338324016214  0.4997742623094446
  0.4994791875384956  0.0000927071417481  0.7498358407492332
  0.2497064184591865  0.2498352339255608 -0.0001628401256032
  0.2494900154724799  0.2498140037579829  0.2498649632121462
  0.2499711465846903  0.2501200461871658  0.4997811866464177
  0.2495802902209117  0.2499896500157629  0.7498282469298033
 -0.0005709656309836  0.4997398767726030 -0.0001341594201111
 -0.0004116099834722  0.4999525431809753  0.2497958311787116
  0.9993908893463418  0.4997351188962275  0.4998279607675017
 -0.0000696272769770  0.5000551632256667  0.7498430204564435
  0.7496525578866915  0.2498204277107160 -0.0002346087070543
  0.7494600525933487  0.2497828767309889  0.2497532025359985
  0.7498779731287021  0.2500029178727285  0.4998941019085226
  0.7495247919008076  0.2498577152221693  0.7498628720131758
  0.4994530047626383  0.5001337713772582  0.9998318536264512
  0.4997433962141238  0.4998293197178112  0.2498168671686142
  0.4994067592947465  0.5000972189718714  0.4997853639324951
  0.4998555681443153  0.4999895816487649  0.7495580598358000
  0.2495334015285106  0.7497421096784130 -0.0001402014491878
  0.2493986053616579  0.7496967316119992  0.2498339707418334
  0.2494291333331230  0.7501806839468362  0.4998499758984004
  0.2493370528995323  0.7499754268968115  0.7498894499501253
  0.7496260849498013  0.7499315221305385 -0.0001050745553302
  0.7493449895309682  0.7500646721493075  0.2498244513062054
  0.7494894450186274  0.7501250818789325  0.4998121719017171
  0.7493673500123380  0.7499091557895688  0.7498339463299835
  0.9998276954726264  0.2499313023647030  0.1246788437925982
 -0.0002233797826002  0.2499032476323544  0.3747193002010583
 -0.0002183699277260  0.2500095535149386  0.6247214910056292
 -0.0002034018236930  0.2498926387729810  0.8747026635132936
  0.4998057431244984  0.2499640013112251  0.1247634963964233
  0.4997620661200907  0.2498958521802697  0.3747494342219581
  0.4998002805112932  0.2500373538784813  0.6247563294180698
  0.4997419634034501  0.2500011137670992  0.8747621132306289
  0.2497921826838323  0.4999159071638163  0.1247613696767334
  0.2497412660846092  0.4999403029069911  0.3747271697631695
  0.2497773100513750  0.5000121857483321  0.6247368443543834
  0.2497845516795158  0.4999268778957832  0.8747676812018801
 -0.0002390740905705  0.7500061634373207  0.1248072265261440
 -0.0003073899979842  0.7499302745352686  0.3747517154102598
 -0.0003071314429415  0.7499560511063442  0.6247450804830450
 -0.0002828288042997  0.7499809533145085  0.8747720295278701
  0.7497579980767445  0.4999926872511639  0.1247462635745861
  0.7497339044778899  0.4999897899734337  0.3747278043398976
  0.7498025400270860  0.5000611652324638  0.6247319529704680
  0.7498092617083247  0.4999354963758753  0.8747106641578372
  0.4997159711496729  0.7499627292196900  0.1246937818436373
  0.4996824012166465  0.7500294268238389  0.3746722615261148
  0.4997489916566280  0.7500022657693597  0.6246615932466176
  0.4997073327937773  0.7499430550132959  0.8746949524934882
  0.2498286855949052 -0.0000575363906092  0.1246711620241681
  0.2497526940747481 -0.0000189521343166  0.3746970092390066
  0.2497281544987096  0.0000320209998182  0.6246823111931434
  0.2497191643216547 -0.0000847262050595  0.8746980889778303
  0.7497858958999347 -0.0000699435415940  0.1247298178954269
  0.7496758038396973 -0.0000747221203879  0.3747161091444802
  0.7496653358386501 -0.0000424242311001  0.6247699460672830
  0.7497860510307939 -0.0000917905754955  0.8747789075809912
 
  0.00000000E+00  0.00000000E+00  0.00000000E+00
  0.00000000E+00  0.00000000E+00  0.00000000E+00
  0.00000000E+00  0.00000000E+00  0.00000000E+00
  0.00000000E+00  0.00000000E+00  0.00000000E+00
  0.00000000E+00  0.00000000E+00  0.00000000E+00
  0.00000000E+00  0.00000000E+00  0.00000000E+00
  0.00000000E+00  0.00000000E+00  0.00000000E+00
  0.00000000E+00  0.00000000E+00  0.00000000E+00
  0.00000000E+00  0.00000000E+00  0.00000000E+00
  0.00000000E+00  0.00000000E+00  0.00000000E+00
  0.00000000E+00  0.00000000E+00  0.00000000E+00
  0.00000000E+00  0.00000000E+00  0.00000000E+00
  0.00000000E+00  0.00000000E+00  0.00000000E+00
  0.00000000E+00  0.00000000E+00  0.00000000E+00
  0.00000000E+00  0.00000000E+00  0.00000000E+00
  0.00000000E+00  0.00000000E+00  0.00000000E+00
  0.00000000E+00  0.00000000E+00  0.00000000E+00
  0.00000000E+00  0.00000000E+00  0.00000000E+00
  0.00000000E+00  0.00000000E+00  0.00000000E+00
  0.00000000E+00  0.00000000E+00  0.00000000E+00
  0.00000000E+00  0.00000000E+00  0.00000000E+00
  0.00000000E+00  0.00000000E+00  0.00000000E+00
  0.00000000E+00  0.00000000E+00  0.00000000E+00
  0.00000000E+00  0.00000000E+00  0.00000000E+00
  0.00000000E+00  0.00000000E+00  0.00000000E+00
  0.00000000E+00  0.00000000E+00  0.00000000E+00
  0.00000000E+00  0.00000000E+00  0.00000000E+00
  0.00000000E+00  0.00000000E+00  0.00000000E+00
  0.00000000E+00  0.00000000E+00  0.00000000E+00
  0.00000000E+00  0.00000000E+00  0.00000000E+00
  0.00000000E+00  0.00000000E+00  0.00000000E+00
  0.00000000E+00  0.00000000E+00  0.00000000E+00
  0.00000000E+00  0.00000000E+00  0.00000000E+00
  0.00000000E+00  0.00000000E+00  0.00000000E+00
  0.00000000E+00  0.00000000E+00  0.00000000E+00
  0.00000000E+00  0.00000000E+00  0.00000000E+00
  0.00000000E+00  0.00000000E+00  0.00000000E+00
  0.00000000E+00  0.00000000E+00  0.00000000E+00
  0.00000000E+00  0.00000000E+00  0.00000000E+00
  0.00000000E+00  0.00000000E+00  0.00000000E+00
  0.00000000E+00  0.00000000E+00  0.00000000E+00
  0.00000000E+00  0.00000000E+00  0.00000000E+00
  0.00000000E+00  0.00000000E+00  0.00000000E+00
  0.00000000E+00  0.00000000E+00  0.00000000E+00
  0.00000000E+00  0.00000000E+00  0.00000000E+00
  0.00000000E+00  0.00000000E+00  0.00000000E+00
  0.00000000E+00  0.00000000E+00  0.00000000E+00
  0.00000000E+00  0.00000000E+00  0.00000000E+00
  0.00000000E+00  0.00000000E+00  0.00000000E+00
  0.00000000E+00  0.00000000E+00  0.00000000E+00
  0.00000000E+00  0.00000000E+00  0.00000000E+00
  0.00000000E+00  0.00000000E+00  0.00000000E+00
  0.00000000E+00  0.00000000E+00  0.00000000E+00
  0.00000000E+00  0.00000000E+00  0.00000000E+00
  0.00000000E+00  0.00000000E+00  0.00000000E+00
  0.00000000E+00  0.00000000E+00  0.00000000E+00
  0.00000000E+00  0.00000000E+00  0.00000000E+00
  0.00000000E+00  0.00000000E+00  0.00000000E+00
  0.00000000E+00  0.00000000E+00  0.00000000E+00
  0.00000000E+00  0.00000000E+00  0.00000000E+00
  0.00000000E+00  0.00000000E+00  0.00000000E+00
  0.00000000E+00  0.00000000E+00  0.00000000E+00
  0.00000000E+00  0.00000000E+00  0.00000000E+00
  0.00000000E+00  0.00000000E+00  0.00000000E+00
  0.00000000E+00  0.00000000E+00  0.00000000E+00
  0.00000000E+00  0.00000000E+00  0.00000000E+00
  0.00000000E+00  0.00000000E+00  0.00000000E+00
  0.00000000E+00  0.00000000E+00  0.00000000E+00
  0.00000000E+00  0.00000000E+00  0.00000000E+00
  0.00000000E+00  0.00000000E+00  0.00000000E+00
  0.00000000E+00  0.00000000E+00  0.00000000E+00
  0.00000000E+00  0.00000000E+00  0.00000000E+00
  0.00000000E+00  0.00000000E+00  0.00000000E+00
  0.00000000E+00  0.00000000E+00  0.00000000E+00
  0.00000000E+00  0.00000000E+00  0.00000000E+00
  0.00000000E+00  0.00000000E+00  0.00000000E+00
  0.00000000E+00  0.00000000E+00  0.00000000E+00
  0.00000000E+00  0.00000000E+00  0.00000000E+00
  0.00000000E+00  0.00000000E+00  0.00000000E+00
  0.00000000E+00  0.00000000E+00  0.00000000E+00
  0.00000000E+00  0.00000000E+00  0.00000000E+00
  0.00000000E+00  0.00000000E+00  0.00000000E+00
  0.00000000E+00  0.00000000E+00  0.00000000E+00
  0.00000000E+00  0.00000000E+00  0.00000000E+00
  0.00000000E+00  0.00000000E+00  0.00000000E+00
  0.00000000E+00  0.00000000E+00  0.00000000E+00
  0.00000000E+00  0.00000000E+00  0.00000000E+00
  0.00000000E+00  0.00000000E+00  0.00000000E+00
  0.00000000E+00  0.00000000E+00  0.00000000E+00
  0.00000000E+00  0.00000000E+00  0.00000000E+00
  0.00000000E+00  0.00000000E+00  0.00000000E+00
  0.00000000E+00  0.00000000E+00  0.00000000E+00
  0.00000000E+00  0.00000000E+00  0.00000000E+00
  0.00000000E+00  0.00000000E+00  0.00000000E+00
  0.00000000E+00  0.00000000E+00  0.00000000E+00
  0.00000000E+00  0.00000000E+00  0.00000000E+00
  0.00000000E+00  0.00000000E+00  0.00000000E+00
  0.00000000E+00  0.00000000E+00  0.00000000E+00
  0.00000000E+00  0.00000000E+00  0.00000000E+00
  0.00000000E+00  0.00000000E+00  0.00000000E+00
  0.00000000E+00  0.00000000E+00  0.00000000E+00
  0.00000000E+00  0.00000000E+00  0.00000000E+00
  0.00000000E+00  0.00000000E+00  0.00000000E+00
  0.00000000E+00  0.00000000E+00  0.00000000E+00
  0.00000000E+00  0.00000000E+00  0.00000000E+00
  0.00000000E+00  0.00000000E+00  0.00000000E+00
  0.00000000E+00  0.00000000E+00  0.00000000E+00
  0.00000000E+00  0.00000000E+00  0.00000000E+00
  0.00000000E+00  0.00000000E+00  0.00000000E+00
  0.00000000E+00  0.00000000E+00  0.00000000E+00
  0.00000000E+00  0.00000000E+00  0.00000000E+00
  0.00000000E+00  0.00000000E+00  0.00000000E+00
  0.00000000E+00  0.00000000E+00  0.00000000E+00
  0.00000000E+00  0.00000000E+00  0.00000000E+00
  0.00000000E+00  0.00000000E+00  0.00000000E+00
  0.00000000E+00  0.00000000E+00  0.00000000E+00
  0.00000000E+00  0.00000000E+00  0.00000000E+00
  0.00000000E+00  0.00000000E+00  0.00000000E+00
  0.00000000E+00  0.00000000E+00  0.00000000E+00
  0.00000000E+00  0.00000000E+00  0.00000000E+00
  0.00000000E+00  0.00000000E+00  0.00000000E+00
  0.00000000E+00  0.00000000E+00  0.00000000E+00
  0.00000000E+00  0.00000000E+00  0.00000000E+00
  0.00000000E+00  0.00000000E+00  0.00000000E+00
  0.00000000E+00  0.00000000E+00  0.00000000E+00
  0.00000000E+00  0.00000000E+00  0.00000000E+00
  0.00000000E+00  0.00000000E+00  0.00000000E+00
  0.00000000E+00  0.00000000E+00  0.00000000E+00
  0.00000000E+00  0.00000000E+00  0.00000000E+00
  0.00000000E+00  0.00000000E+00  0.00000000E+00
  0.00000000E+00  0.00000000E+00  0.00000000E+00
  0.00000000E+00  0.00000000E+00  0.00000000E+00
  0.00000000E+00  0.00000000E+00  0.00000000E+00
  0.00000000E+00  0.00000000E+00  0.00000000E+00
  0.00000000E+00  0.00000000E+00  0.00000000E+00
  0.00000000E+00  0.00000000E+00  0.00000000E+00
  0.00000000E+00  0.00000000E+00  0.00000000E+00
  0.00000000E+00  0.00000000E+00  0.00000000E+00
  0.00000000E+00  0.00000000E+00  0.00000000E+00
  0.00000000E+00  0.00000000E+00  0.00000000E+00
  0.00000000E+00  0.00000000E+00  0.00000000E+00
  0.00000000E+00  0.00000000E+00  0.00000000E+00
  0.00000000E+00  0.00000000E+00  0.00000000E+00
  0.00000000E+00  0.00000000E+00  0.00000000E+00
  0.00000000E+00  0.00000000E+00  0.00000000E+00
  0.00000000E+00  0.00000000E+00  0.00000000E+00
  0.00000000E+00  0.00000000E+00  0.00000000E+00
  0.00000000E+00  0.00000000E+00  0.00000000E+00
  0.00000000E+00  0.00000000E+00  0.00000000E+00
  0.00000000E+00  0.00000000E+00  0.00000000E+00
  0.00000000E+00  0.00000000E+00  0.00000000E+00
  0.00000000E+00  0.00000000E+00  0.00000000E+00
  0.00000000E+00  0.00000000E+00  0.00000000E+00
  0.00000000E+00  0.00000000E+00  0.00000000E+00
  0.00000000E+00  0.00000000E+00  0.00000000E+00
  0.00000000E+00  0.00000000E+00  0.00000000E+00
  0.00000000E+00  0.00000000E+00  0.00000000E+00
  0.00000000E+00  0.00000000E+00  0.00000000E+00
  0.00000000E+00  0.00000000E+00  0.00000000E+00
  0.00000000E+00  0.00000000E+00  0.00000000E+00
