Cs I Zn                                 
   1.00000000000000     
    11.6553799999999992  -11.6553799999999992    0.0000000000000000
    11.6553799999999992   11.6553799999999992    0.0000000000000000
     0.0000000000000000    0.0000000000000000   23.3107599999999984
   Cs   I    Zn
    32    96    32
Direct
  0.0236397118292067  0.0275598546212008  0.0177126909893856
  0.9712271369274330  0.0292334921546225  0.2364395035874746
  0.0087528341802066  0.0082211969310449  0.4826434705180880
  0.0206199128516081  0.9875751237608312  0.7394727561072635
  0.4780468182435332  0.9652232371261421  0.9868117402929503
  0.5080274175863925  0.9944569729801385  0.2819747762031947
  0.5273993972634723  0.9939297997172933  0.4855564267922723
  0.5120869199147048  0.0233110122775282  0.7211240803042634
  0.2746920157699955  0.2174661106178231  0.9974540148328505
  0.2822753563414696  0.2412188887426108  0.2502811598254484
  0.2490902191097309  0.2455665153856399  0.5170269721671940
  0.2374255662854435  0.2344584992023548  0.7501905722586276
  0.0187886080256643  0.5296721438899100  0.9983675740657061
  0.0237792412112087  0.4931852661174657  0.2304229089315210
  0.9636564141327918  0.4863030359791394  0.5160072515028624
  0.9888096044010147  0.5047349213332616  0.7550512207464176
  0.7243428293720470  0.2802100022821805  0.9848779634617579
  0.7630662053901165  0.2545642092342838  0.2453728403756218
  0.7676169970576755  0.2448688808251152  0.4991133663345206
  0.7679511048504783  0.2523492391657441  0.7730337374263025
  0.4755932336825096  0.4541759281144598  0.9867421168616302
  0.5031934490706673  0.4696440360460787  0.2326647101742435
  0.4555182398576838  0.4920129704718990  0.5159179736419574
  0.4525380042543607  0.4875454735552545  0.7481693779796839
  0.2681094523913311  0.7037007831223149  0.9954668096915833
  0.2564315622782991  0.7282646286227633  0.2634158691650760
  0.2443662386051504  0.7529344370135985  0.5026717034629883
  0.2437039807360862  0.7502699070004635  0.7476926284796805
  0.7207918642011768  0.7596686306094473  0.0304714645050560
  0.7552909351683991  0.7447064330755194  0.2508404262489646
  0.7711796983004185  0.7691026696696132  0.5005627467857826
  0.7375791588245080  0.7697528800157466  0.7462654596123138
  0.0507944236170515  0.2877453106147835  0.0174820384135805
  0.9974542328897991  0.2622634142487357  0.2130753016980803
  0.0167037933044915  0.2456012031219412  0.5020451721209088
  0.9920040827245964  0.2137293543335672  0.7625774978349228
  0.5060174538687985  0.2044741896827100  0.9866883474918527
  0.5138851167961863  0.2306297526878449  0.2482685109592107
  0.5292606286352778  0.2785293447777920  0.5276880496445037
  0.4712332687605168  0.2489601566405509  0.7210788690701001
  0.2354751955744046  0.4568650721079511  0.9919684288467726
  0.2713178094558883  0.5001901556997140  0.2547833690677702
  0.1933084503334531  0.5196514681320350  0.5246540347405154
  0.2213531028518410  0.5226169985780559  0.7317922667929168
  0.0524907753507523  0.7829676104085505  0.9865577616714281
  0.9813373168263196  0.7119266134936112  0.2673920816137312
  0.9940095595888069  0.7297654639262506  0.4847654874864628
  0.9632490776952103  0.7711190388262454  0.7861242476291546
  0.6962627572032659  0.5141342251850034  0.9855120532261287
  0.7999026721471943  0.4953390493194709  0.2491324251262300
  0.6857811294512757  0.4759039451649947  0.5104394496181515
  0.7673401409729045  0.5450533808375559  0.7821033804824360
  0.4932772026868499  0.7344276025511175  0.0250596180558053
  0.4829679825519343  0.7329023966956455  0.2292888701765617
  0.5570145453488571  0.6952789639279869  0.5006746773504712
  0.4909838635751229  0.8033925687597804  0.7367613470541469
  0.2446791542285134  0.9626862098932647  0.9986968555647607
  0.2754359681144474  0.9921512352742482  0.2765218662132108
  0.2356535046033167  0.0000797956270712  0.4769304463226811
  0.2812509447923884  0.9790184172443128  0.7301559455156997
  0.6911540189761066  0.0449112890287467  0.9790508939067808
  0.7360702291382683  0.0138479619638684  0.2631066897634292
  0.7619488669769023  0.0056412454289944  0.4821888089479913
  0.7766795675414137  0.0032903385343145  0.7795293096227724
  0.1622846986927235  0.1065397261853835  0.1381384519329956
  0.1129505299785330  0.1438313855287908  0.3475276885566960
  0.1336738818970767  0.1233335736512375  0.6237077192790701
  0.1261893570686408  0.1371699431682815  0.8868471265052335
  0.6389583672296465  0.1344265582899526  0.1322819879460118
  0.6228841707772558  0.1508656398071474  0.3914583359097999
  0.6730610690819833  0.1511589253459096  0.6420896137997890
  0.5983015340842115  0.1345282134226478  0.8457520925268397
  0.3980993447701752  0.3195803916025419  0.1183123851105232
  0.4388934049776169  0.3835620339229495  0.3786857074198561
  0.3490744439281639  0.3738511203417419  0.6250375858259749
  0.3737374387700186  0.3234037051627641  0.8664478003630163
  0.1404299030419316  0.6335538228862835  0.1245906203752898
  0.0893992055131073  0.5688967514872270  0.3814820549439598
  0.0701116539578386  0.6519128233798005  0.6471276064690861
  0.1078581682260897  0.6272686848685527  0.8681112838387760
  0.8713456992767398  0.4221846262936120  0.0875597781523924
  0.9416556668262619  0.3766614896198019  0.3614558317257404
  0.8517088312686338  0.3492690582584749  0.6325267466108018
  0.8858815252395420  0.4005220082387857  0.8902777195446415
  0.6485907977464026  0.6117643926949579  0.1380476210443566
  0.5832852267882757  0.6099712786952068  0.3470146914336540
  0.5920389073598531  0.6407411828728923  0.6584311941440779
  0.5638305910045623  0.6251982402247582  0.8656616026756183
  0.3142797329638907  0.8477182937255789  0.1338540728231302
  0.4025039363143226  0.8361598950494143  0.3874331729435686
  0.4142255735067885  0.8692819714100909  0.5894733049168378
  0.3734587273968432  0.8238935906436762  0.8848021725988839
  0.8357316892923655  0.9237078998727232  0.1140150113408560
  0.9002172495389991  0.8857799549043777  0.3636002815874051
  0.8892996195202810  0.8449825768040885  0.6290736159013998
  0.8729857381418356  0.9049859066586005  0.9359793983291574
  0.8612683518703159  0.1560040668156254  0.0893556574307102
  0.8781816120611728  0.1528942247845551  0.3694165727703133
  0.8959062499486872  0.0897960040018743  0.6201955205667933
  0.8833496878838550  0.1455692731293284  0.9056993382364505
  0.4139250067842777  0.0630055149525699  0.1330230705126063
  0.3824158202145709  0.1467365505097806  0.3998425354748750
  0.3959021283672551  0.1101807739223184  0.5912849568912857
  0.3712709245485791  0.0751272809012424  0.8667819986359931
  0.1677796498517398  0.3737132441162151  0.1393200350522956
  0.2031728243294481  0.3544082003893503  0.3856200244617860
  0.1042579159205370  0.3664614148683161  0.6374518962027634
  0.1312869080891219  0.3744338194093193  0.8528828175171829
  0.8915037547780685  0.6658601216196079  0.1141208955493245
  0.8335839529687553  0.6093909944311929  0.3958762760467971
  0.8354674390870778  0.6037491985905622  0.6272362732251486
  0.8548518769475582  0.6532669259870338  0.9285172554253777
  0.6365296932979698  0.3661664723583015  0.1227417409952925
  0.6828266887448746  0.3751978979709471  0.3678309994973994
  0.6396086522352601  0.4092497252209012  0.6756607328864754
  0.6151632459734516  0.3835834003047207  0.8541401112017563
  0.3784455764587892  0.5696900527940413  0.1130144380134353
  0.3454817414257022  0.6069853758485204  0.4024913048652017
  0.3547606448773262  0.6382881926038950  0.6247317055373852
  0.3473634085028574  0.5767250404286173  0.8703763728415571
  0.0768049803240955  0.8726569247827117  0.1480991670797868
  0.1451374385545918  0.8450131288877739  0.3721403880217398
  0.1371576738210997  0.8855810552285555  0.6083422659332517
  0.1462615375718965  0.8914292559067877  0.8558256126605348
  0.5977845638781000  0.8932204671635189  0.1380973744392792
  0.6496600389724653  0.8538363930542713  0.3733956802945357
  0.6604829213518874  0.9066110615522287  0.6216342659394644
  0.6384675697352603  0.8453507955028454  0.8900096869938403
  0.9460171420435536  0.2829201858136081  0.1099167245368488
  0.0548945677971318  0.2846587262944006  0.3979088459794728
  0.9813701926592198  0.2859090361650291  0.6678607243987874
  0.9581028957318047  0.2756817785125039  0.9282528351447510
  0.4922547829774211  0.1974442782221407  0.0960441857149179
  0.5067113287932892  0.2463918968293694  0.3589286719232834
  0.5751308738078532  0.2720306002792521  0.6320841124646217
  0.5137291385755102  0.2663563716632038  0.8333790338245766
  0.2395901630169563  0.5016870548311040  0.1038269484050393
  0.2377148123429281  0.5103655951910786  0.3625346570501569
  0.2466948899766983  0.4928890279161209  0.6251146689396149
  0.2079846540683609  0.5060768006463559  0.8788161489977292
  0.0179103266254631  0.7496752380677362  0.0964611588298267
  0.0503361700870626  0.7247352277095778  0.3655141165684586
  0.0266077528635129  0.7776093253850626  0.5916502498221496
  0.9457085188438353  0.7735004159636162  0.8946307447831695
  0.7362099494498383  0.4818257564025182  0.1498447598148782
  0.7052908701934563  0.5239837071063121  0.3942568888101374
  0.6969417008886246  0.5359042228771561  0.6130006819883067
  0.7200847384986827  0.5683591825245567  0.8842365681067448
  0.4688552745718503  0.7878160032992034  0.1269803441273749
  0.5335988179934986  0.7526340197302740  0.3938031998155630
  0.4799639272553876  0.7290655016811375  0.5980024452139823
  0.5058249923047240  0.7703482737244618  0.8431803768597409
  0.2693559902012667  0.0020758277326502  0.1067411902238257
  0.2507247168226955  0.0573894504214919  0.3748791240493545
  0.2687109599079170  0.0498596653887078  0.6345548946908648
  0.2291346392080882  0.0181131568654183  0.8817909001880139
  0.7039273226208201  0.9994013789816887  0.0892511486559262
  0.8111475450796637  0.0131012221109863  0.3611020473771450
  0.7945648273440657  0.9782804834278486  0.5943678472615970
  0.7454773891945836  0.9669831228014298  0.8835020922952898
 
  0.00000000E+00  0.00000000E+00  0.00000000E+00
  0.00000000E+00  0.00000000E+00  0.00000000E+00
  0.00000000E+00  0.00000000E+00  0.00000000E+00
  0.00000000E+00  0.00000000E+00  0.00000000E+00
  0.00000000E+00  0.00000000E+00  0.00000000E+00
  0.00000000E+00  0.00000000E+00  0.00000000E+00
  0.00000000E+00  0.00000000E+00  0.00000000E+00
  0.00000000E+00  0.00000000E+00  0.00000000E+00
  0.00000000E+00  0.00000000E+00  0.00000000E+00
  0.00000000E+00  0.00000000E+00  0.00000000E+00
  0.00000000E+00  0.00000000E+00  0.00000000E+00
  0.00000000E+00  0.00000000E+00  0.00000000E+00
  0.00000000E+00  0.00000000E+00  0.00000000E+00
  0.00000000E+00  0.00000000E+00  0.00000000E+00
  0.00000000E+00  0.00000000E+00  0.00000000E+00
  0.00000000E+00  0.00000000E+00  0.00000000E+00
  0.00000000E+00  0.00000000E+00  0.00000000E+00
  0.00000000E+00  0.00000000E+00  0.00000000E+00
  0.00000000E+00  0.00000000E+00  0.00000000E+00
  0.00000000E+00  0.00000000E+00  0.00000000E+00
  0.00000000E+00  0.00000000E+00  0.00000000E+00
  0.00000000E+00  0.00000000E+00  0.00000000E+00
  0.00000000E+00  0.00000000E+00  0.00000000E+00
  0.00000000E+00  0.00000000E+00  0.00000000E+00
  0.00000000E+00  0.00000000E+00  0.00000000E+00
  0.00000000E+00  0.00000000E+00  0.00000000E+00
  0.00000000E+00  0.00000000E+00  0.00000000E+00
  0.00000000E+00  0.00000000E+00  0.00000000E+00
  0.00000000E+00  0.00000000E+00  0.00000000E+00
  0.00000000E+00  0.00000000E+00  0.00000000E+00
  0.00000000E+00  0.00000000E+00  0.00000000E+00
  0.00000000E+00  0.00000000E+00  0.00000000E+00
  0.00000000E+00  0.00000000E+00  0.00000000E+00
  0.00000000E+00  0.00000000E+00  0.00000000E+00
  0.00000000E+00  0.00000000E+00  0.00000000E+00
  0.00000000E+00  0.00000000E+00  0.00000000E+00
  0.00000000E+00  0.00000000E+00  0.00000000E+00
  0.00000000E+00  0.00000000E+00  0.00000000E+00
  0.00000000E+00  0.00000000E+00  0.00000000E+00
  0.00000000E+00  0.00000000E+00  0.00000000E+00
  0.00000000E+00  0.00000000E+00  0.00000000E+00
  0.00000000E+00  0.00000000E+00  0.00000000E+00
  0.00000000E+00  0.00000000E+00  0.00000000E+00
  0.00000000E+00  0.00000000E+00  0.00000000E+00
  0.00000000E+00  0.00000000E+00  0.00000000E+00
  0.00000000E+00  0.00000000E+00  0.00000000E+00
  0.00000000E+00  0.00000000E+00  0.00000000E+00
  0.00000000E+00  0.00000000E+00  0.00000000E+00
  0.00000000E+00  0.00000000E+00  0.00000000E+00
  0.00000000E+00  0.00000000E+00  0.00000000E+00
  0.00000000E+00  0.00000000E+00  0.00000000E+00
  0.00000000E+00  0.00000000E+00  0.00000000E+00
  0.00000000E+00  0.00000000E+00  0.00000000E+00
  0.00000000E+00  0.00000000E+00  0.00000000E+00
  0.00000000E+00  0.00000000E+00  0.00000000E+00
  0.00000000E+00  0.00000000E+00  0.00000000E+00
  0.00000000E+00  0.00000000E+00  0.00000000E+00
  0.00000000E+00  0.00000000E+00  0.00000000E+00
  0.00000000E+00  0.00000000E+00  0.00000000E+00
  0.00000000E+00  0.00000000E+00  0.00000000E+00
  0.00000000E+00  0.00000000E+00  0.00000000E+00
  0.00000000E+00  0.00000000E+00  0.00000000E+00
  0.00000000E+00  0.00000000E+00  0.00000000E+00
  0.00000000E+00  0.00000000E+00  0.00000000E+00
  0.00000000E+00  0.00000000E+00  0.00000000E+00
  0.00000000E+00  0.00000000E+00  0.00000000E+00
  0.00000000E+00  0.00000000E+00  0.00000000E+00
  0.00000000E+00  0.00000000E+00  0.00000000E+00
  0.00000000E+00  0.00000000E+00  0.00000000E+00
  0.00000000E+00  0.00000000E+00  0.00000000E+00
  0.00000000E+00  0.00000000E+00  0.00000000E+00
  0.00000000E+00  0.00000000E+00  0.00000000E+00
  0.00000000E+00  0.00000000E+00  0.00000000E+00
  0.00000000E+00  0.00000000E+00  0.00000000E+00
  0.00000000E+00  0.00000000E+00  0.00000000E+00
  0.00000000E+00  0.00000000E+00  0.00000000E+00
  0.00000000E+00  0.00000000E+00  0.00000000E+00
  0.00000000E+00  0.00000000E+00  0.00000000E+00
  0.00000000E+00  0.00000000E+00  0.00000000E+00
  0.00000000E+00  0.00000000E+00  0.00000000E+00
  0.00000000E+00  0.00000000E+00  0.00000000E+00
  0.00000000E+00  0.00000000E+00  0.00000000E+00
  0.00000000E+00  0.00000000E+00  0.00000000E+00
  0.00000000E+00  0.00000000E+00  0.00000000E+00
  0.00000000E+00  0.00000000E+00  0.00000000E+00
  0.00000000E+00  0.00000000E+00  0.00000000E+00
  0.00000000E+00  0.00000000E+00  0.00000000E+00
  0.00000000E+00  0.00000000E+00  0.00000000E+00
  0.00000000E+00  0.00000000E+00  0.00000000E+00
  0.00000000E+00  0.00000000E+00  0.00000000E+00
  0.00000000E+00  0.00000000E+00  0.00000000E+00
  0.00000000E+00  0.00000000E+00  0.00000000E+00
  0.00000000E+00  0.00000000E+00  0.00000000E+00
  0.00000000E+00  0.00000000E+00  0.00000000E+00
  0.00000000E+00  0.00000000E+00  0.00000000E+00
  0.00000000E+00  0.00000000E+00  0.00000000E+00
  0.00000000E+00  0.00000000E+00  0.00000000E+00
  0.00000000E+00  0.00000000E+00  0.00000000E+00
  0.00000000E+00  0.00000000E+00  0.00000000E+00
  0.00000000E+00  0.00000000E+00  0.00000000E+00
  0.00000000E+00  0.00000000E+00  0.00000000E+00
  0.00000000E+00  0.00000000E+00  0.00000000E+00
  0.00000000E+00  0.00000000E+00  0.00000000E+00
  0.00000000E+00  0.00000000E+00  0.00000000E+00
  0.00000000E+00  0.00000000E+00  0.00000000E+00
  0.00000000E+00  0.00000000E+00  0.00000000E+00
  0.00000000E+00  0.00000000E+00  0.00000000E+00
  0.00000000E+00  0.00000000E+00  0.00000000E+00
  0.00000000E+00  0.00000000E+00  0.00000000E+00
  0.00000000E+00  0.00000000E+00  0.00000000E+00
  0.00000000E+00  0.00000000E+00  0.00000000E+00
  0.00000000E+00  0.00000000E+00  0.00000000E+00
  0.00000000E+00  0.00000000E+00  0.00000000E+00
  0.00000000E+00  0.00000000E+00  0.00000000E+00
  0.00000000E+00  0.00000000E+00  0.00000000E+00
  0.00000000E+00  0.00000000E+00  0.00000000E+00
  0.00000000E+00  0.00000000E+00  0.00000000E+00
  0.00000000E+00  0.00000000E+00  0.00000000E+00
  0.00000000E+00  0.00000000E+00  0.00000000E+00
  0.00000000E+00  0.00000000E+00  0.00000000E+00
  0.00000000E+00  0.00000000E+00  0.00000000E+00
  0.00000000E+00  0.00000000E+00  0.00000000E+00
  0.00000000E+00  0.00000000E+00  0.00000000E+00
  0.00000000E+00  0.00000000E+00  0.00000000E+00
  0.00000000E+00  0.00000000E+00  0.00000000E+00
  0.00000000E+00  0.00000000E+00  0.00000000E+00
  0.00000000E+00  0.00000000E+00  0.00000000E+00
  0.00000000E+00  0.00000000E+00  0.00000000E+00
  0.00000000E+00  0.00000000E+00  0.00000000E+00
  0.00000000E+00  0.00000000E+00  0.00000000E+00
  0.00000000E+00  0.00000000E+00  0.00000000E+00
  0.00000000E+00  0.00000000E+00  0.00000000E+00
  0.00000000E+00  0.00000000E+00  0.00000000E+00
  0.00000000E+00  0.00000000E+00  0.00000000E+00
  0.00000000E+00  0.00000000E+00  0.00000000E+00
  0.00000000E+00  0.00000000E+00  0.00000000E+00
  0.00000000E+00  0.00000000E+00  0.00000000E+00
  0.00000000E+00  0.00000000E+00  0.00000000E+00
  0.00000000E+00  0.00000000E+00  0.00000000E+00
  0.00000000E+00  0.00000000E+00  0.00000000E+00
  0.00000000E+00  0.00000000E+00  0.00000000E+00
  0.00000000E+00  0.00000000E+00  0.00000000E+00
  0.00000000E+00  0.00000000E+00  0.00000000E+00
  0.00000000E+00  0.00000000E+00  0.00000000E+00
  0.00000000E+00  0.00000000E+00  0.00000000E+00
  0.00000000E+00  0.00000000E+00  0.00000000E+00
  0.00000000E+00  0.00000000E+00  0.00000000E+00
  0.00000000E+00  0.00000000E+00  0.00000000E+00
  0.00000000E+00  0.00000000E+00  0.00000000E+00
  0.00000000E+00  0.00000000E+00  0.00000000E+00
  0.00000000E+00  0.00000000E+00  0.00000000E+00
  0.00000000E+00  0.00000000E+00  0.00000000E+00
  0.00000000E+00  0.00000000E+00  0.00000000E+00
  0.00000000E+00  0.00000000E+00  0.00000000E+00
  0.00000000E+00  0.00000000E+00  0.00000000E+00
  0.00000000E+00  0.00000000E+00  0.00000000E+00
  0.00000000E+00  0.00000000E+00  0.00000000E+00
  0.00000000E+00  0.00000000E+00  0.00000000E+00
  0.00000000E+00  0.00000000E+00  0.00000000E+00
  0.00000000E+00  0.00000000E+00  0.00000000E+00
