Tl Sn Br                                
   1.00000000000000     
    11.6373409999999993  -11.6373409999999993    0.0000000000000000
    11.6373409999999993   11.6373409999999993    0.0000000000000000
     0.0000000000000000    0.0000000000000000   23.2746819999999985
   Br   Sn   Tl
    96    32    32
Direct
  0.9427697065286887  0.2786008374758218  0.9991533528792638
  0.0439796864035794  0.2456296594114272  0.2445991765175193
  0.9482037860317775  0.2232913660099752  0.4958897346416410
  0.0575648133613084  0.2720535003868392  0.7519909597494723
  0.5533229198269801  0.2589578679047201  0.9857661194244984
  0.4339063541302586  0.2647972342151224  0.2365239237544203
  0.5514591975654090  0.2469275332992792  0.4888644089059045
  0.4326498190312074  0.2265282095803289  0.7409071184627510
  0.2333075183728402  0.5469661810132663  0.0103770146966396
  0.2379547984796092  0.4367649609845163  0.2578447562306966
  0.2392028852963934  0.5533901342840511  0.5053339161165991
  0.2311451320038789  0.4496037473776369  0.7575424839792584
  0.0518771977521068  0.7259658079414840  0.9904642055902301
  0.9261069060763236  0.7603344441598090  0.2398645240310345
  0.0471764681857179  0.7307159494842153  0.4904803021672242
  0.9446363217851267  0.7608105009214583  0.7411182045742356
  0.7228190655142078  0.4435283357558340 -0.0005060820879680
  0.7469325624555385  0.5402539910395069  0.2524953988938042
  0.7446639504415663  0.4412646697529691  0.5013190168444643
  0.7394510925965944  0.5539732259335722  0.7496376714922729
  0.4343017755593045  0.7480183753651234  0.0048456219423076
  0.5312535435953399  0.7526108602778914  0.2573228447894588
  0.4481057171526099  0.7896509433523169  0.5105145545077395
  0.5573633874951941  0.7408848699810685  0.7602424666393753
  0.2142848536958295  0.9450967912829671  0.0081620641835375
  0.2661513292515210  0.0258388346630987  0.2604392901939626
  0.2013358563426188  0.9445445780754412  0.5145265159886450
  0.2543536790856171  0.0574743826636681  0.7617307757249496
  0.7174661122733113  0.0497074251614745  0.9934297992083103
  0.7355500210713330  0.9378697628290328  0.2398065014569093
  0.7429525979107798  0.0452072980819383  0.4885790151248507
  0.7687364213873228  0.9486967228029838  0.7411745487714975
  0.0844940014440167  0.0792422060417406  0.1164305857029296
  0.0997760554271724  0.0843658873743071  0.3748668691480724
  0.0891150805712936  0.0860399424855427  0.6276730374880407
  0.1386354658514118  0.1649652734432605  0.9170714604004053
  0.5950383873722497  0.0836778720139960  0.1412022426628571
  0.6040580352693686  0.0812199708029019  0.3559124735252377
  0.5891407256416850  0.0933918602247920  0.6572483855632866
  0.6509651819880206  0.1564304318313625  0.8392448057173961
  0.3970398681629522  0.3880092198964731  0.0853237984392642
  0.4067937168911743  0.3888508989971015  0.4023720354699185
  0.3855059476515478  0.3963913176904104  0.5982604794883152
  0.3578198547092879  0.3685626357063536  0.8963861144484648
  0.0977290512098074  0.5857362823647201  0.1472641754890026
  0.0946148321408044  0.5739578300012358  0.3634745847116080
  0.0782011161433521  0.5926291373142291  0.6442936184227702
  0.1369559551888117  0.6466521675876474  0.8301954866491968
  0.9063522825270510  0.3929474199247305  0.1492501885874296
  0.9005219367145642  0.3857936359893988  0.3599094747339617
  0.8909642439929351  0.3878270130453416  0.6654751011680169
  0.8451555436661631  0.3653863155132409  0.8455094657175555
  0.5966737476914845  0.5815986443001049  0.1183647785428441
  0.5909006143892497  0.5737993365322717  0.3878953502979295
  0.6142900757261840  0.6063989842658024  0.6020283355222461
  0.6194026638506535  0.6352026745047229  0.9153716453957889
  0.4037648789044706  0.8928062723840083  0.1370377001396413
  0.4170106431029075  0.8982168510863978  0.3656262498889158
  0.3879635836314945  0.8827653387822447  0.6654059332046391
  0.3472176580261599  0.8709653479322371  0.8470938804601581
  0.9029025765363681  0.8980308798535476  0.0957966433787580
  0.9164386968371983  0.8939638735778125  0.4044689843678624
  0.9004379544012370  0.9140592509078205  0.6009728330768005
  0.8620980304702069  0.8727812072832630  0.9146287187698756
  0.8476043748518658  0.1365584063611328  0.1610266622538463
  0.8610243945898981  0.1489653473555674  0.3432559897347358
  0.8721847594169297  0.1485082419461443  0.6815250105244605
  0.8900937168575699  0.1027556914818378  0.8807959568742101
  0.3636120992363410  0.1428329215032505  0.0850036738506558
  0.3572375880888697  0.1556317205418701  0.3989046775286535
  0.3657655057571613  0.1309715795595823  0.5863074290072047
  0.4235524424894476  0.0972142280548974  0.8974675823652278
  0.1353922708403652  0.3552381411635337  0.0975696426035685
  0.1581940865715854  0.3496599703592995  0.4027018591816616
  0.1421295355663061  0.3712476459028720  0.5877853623080598
  0.0955680005505642  0.4041590638865501  0.8979232891506613
  0.8452524474450787  0.6601731031630452  0.0931934473592696
  0.8538004569035714  0.6579449896338201  0.4045916336357729
  0.8555584235849725  0.6612457038841802  0.5972641380780773
  0.9171604943585588  0.5943493793068357  0.8870875035986354
  0.6502156783287133  0.3574196321931574  0.1580162060647680
  0.6572590738605892  0.3573641634258325  0.3448676852034437
  0.6298811406292176  0.3808141866507666  0.6462633141933624
  0.6055086236972378  0.4091642244219670  0.8457125757955650
  0.3357163841116176  0.6528609869631063  0.1558707609052869
  0.3492077802205069  0.6651945175453432  0.3563081396078241
  0.3790393243085084  0.6411366626446759  0.6476349933887450
  0.3911395853265565  0.6000303312800944  0.8323356933330992
  0.1539815723899982  0.8521504429028494  0.1587664036503191
  0.1663924221393663  0.8466276548407048  0.3539174019685452
  0.1428687602060728  0.8615192624680689  0.6753667290298428
  0.0978940954753612  0.9209410741288691  0.8560880058425476
  0.6340053169865817  0.8476772717921169  0.0940094603203082
  0.6562207158603502  0.8553685762563115  0.4032658157629854
  0.6588093981904652  0.8711915390251946  0.5976145544660675
  0.6064770839382267  0.8774573813175491  0.9083719401320143
  0.9995185978655459  0.2549187521502980  0.1208831813542961
  0.9963505191789647  0.2458536994910590  0.3811684894035750
  0.9931621046263638  0.2548076448266269  0.6418729991691210
  0.0022702270960103  0.2596887868728262  0.8862970872934575
  0.4847376710785773  0.2498494516323847  0.1223796325901759
  0.4964923691077435  0.2496900307322992  0.3745686651212406
  0.4903685243357030  0.2247368669361570  0.6276852494666127
  0.5075217246191221  0.2401170557228560  0.8700546169500978
  0.2457806705021216  0.5056405668231586  0.1279752425226591
  0.2440510277646342  0.4917754820834445  0.3728038912630142
  0.2481471208503418  0.4951126965060133  0.6199941413745529
  0.2580317033417461  0.5076749667098871  0.8686997038662320
  0.9805424051903210  0.7562604608577659  0.1276227706653240
  0.9922615119432263  0.7458631730378840  0.3754285694840298
  0.0000854331244455  0.7430823979024300  0.6278148139045197
  0.0057077399236905  0.7362699484389169  0.8740058751824465
  0.7397687212976406  0.4908027193968057  0.1166732856577440
  0.7456706980061687  0.5045298388839035  0.3752826968224078
  0.7467709449888750  0.4988472194343977  0.6203243539860944
  0.7446072993684264  0.5039911284591978  0.8671724115284647
  0.4870966909912147  0.7453324343292721  0.1177635108110150
  0.4978638333335987  0.7438830170853096  0.3760062319879020
  0.4936945168296459  0.7623264488409345  0.6251824641028200
  0.5030191084469118  0.7473726370722560  0.8771446262674558
  0.2318996253241663  0.9946069793233324  0.1229563693272314
  0.2460180799427196  0.9941878983111343  0.3771844676717373
  0.2324875239119710  0.9920155118012143  0.6295767347153990
  0.2446549518320873  0.0005556001099978  0.8763892225014143
  0.7460127002773559  0.0018911693204329  0.1268438871746515
  0.7500278825068577  0.9944925570571681  0.3727299677451624
  0.7533130355295972  0.0065101851720392  0.6291278021845429
  0.7537312574886034  0.9976801898999019  0.8803145377804880
  0.0096448715137940 -0.0093118191234855  0.9734173952323374
  0.9902074372953260  0.0540598967627603  0.2412109947124627
  0.0118735250734605  0.0209346698540547  0.5019671153808601
  0.9824052934094323  0.9700404691418866  0.7280144306062251
  0.5229475777776702  0.9940921004587520  0.0218118361076313
  0.5341142907679467  0.9623859234975833  0.2478268490587869
  0.5415346341508326  0.9752778311392081  0.4759015095177171
  0.4523266348273775  0.0207514142851464  0.7642868885125813
  0.2673288310706333  0.2765414969938739  0.0070417345729030
  0.2493474127551760  0.2322541329900914  0.2889992690148857
  0.2903643364869087  0.2823221319386254  0.5043732647658974
  0.2468218288219417  0.2553953607335842  0.7994756840973460
  0.0355543919658957  0.5231404237409170  0.0136229194390273
  0.0375170627414694  0.4582756608639317  0.2525914898085377
  0.0445186685811864  0.5304553512960947  0.5068639467082072
  0.0248587530034332  0.4828632448273422  0.7725473192433614
  0.7521717247779742  0.2446485638878439  0.9501320743771692
  0.7977955187861643  0.2932251105148933  0.2477359193243628
  0.7545977449950868  0.2468900622802237  0.4516284006000194
  0.7455184904395020  0.2802523026592243  0.7400462861824074
  0.5250360058300049  0.4587986021732778  0.9761756021080934
  0.5601558664834634  0.4808436245599159  0.2489692010236899
  0.5417406407481694  0.4530215508671075  0.5099227075181548
  0.5333746310574536  0.5427801004860663  0.7284118632867254
  0.2378319106033081  0.7496067549420553  0.0462394540775486
  0.3043803280505877  0.8060537235970860  0.2535234804385599
  0.2513634135597926  0.7564618600774256  0.4683684285833912
  0.2786746536136541  0.7480769072045045  0.7478605270598038
  0.7374762400957494  0.7625805608000605  0.9904614745569760
  0.7349379109054327  0.7345983893965858  0.2039432601958553
  0.7984640088714157  0.7997051692861512  0.5008217870237121
  0.7464657047457903  0.7526298895570276  0.7027912072947453
 
  0.00000000E+00  0.00000000E+00  0.00000000E+00
  0.00000000E+00  0.00000000E+00  0.00000000E+00
  0.00000000E+00  0.00000000E+00  0.00000000E+00
  0.00000000E+00  0.00000000E+00  0.00000000E+00
  0.00000000E+00  0.00000000E+00  0.00000000E+00
  0.00000000E+00  0.00000000E+00  0.00000000E+00
  0.00000000E+00  0.00000000E+00  0.00000000E+00
  0.00000000E+00  0.00000000E+00  0.00000000E+00
  0.00000000E+00  0.00000000E+00  0.00000000E+00
  0.00000000E+00  0.00000000E+00  0.00000000E+00
  0.00000000E+00  0.00000000E+00  0.00000000E+00
  0.00000000E+00  0.00000000E+00  0.00000000E+00
  0.00000000E+00  0.00000000E+00  0.00000000E+00
  0.00000000E+00  0.00000000E+00  0.00000000E+00
  0.00000000E+00  0.00000000E+00  0.00000000E+00
  0.00000000E+00  0.00000000E+00  0.00000000E+00
  0.00000000E+00  0.00000000E+00  0.00000000E+00
  0.00000000E+00  0.00000000E+00  0.00000000E+00
  0.00000000E+00  0.00000000E+00  0.00000000E+00
  0.00000000E+00  0.00000000E+00  0.00000000E+00
  0.00000000E+00  0.00000000E+00  0.00000000E+00
  0.00000000E+00  0.00000000E+00  0.00000000E+00
  0.00000000E+00  0.00000000E+00  0.00000000E+00
  0.00000000E+00  0.00000000E+00  0.00000000E+00
  0.00000000E+00  0.00000000E+00  0.00000000E+00
  0.00000000E+00  0.00000000E+00  0.00000000E+00
  0.00000000E+00  0.00000000E+00  0.00000000E+00
  0.00000000E+00  0.00000000E+00  0.00000000E+00
  0.00000000E+00  0.00000000E+00  0.00000000E+00
  0.00000000E+00  0.00000000E+00  0.00000000E+00
  0.00000000E+00  0.00000000E+00  0.00000000E+00
  0.00000000E+00  0.00000000E+00  0.00000000E+00
  0.00000000E+00  0.00000000E+00  0.00000000E+00
  0.00000000E+00  0.00000000E+00  0.00000000E+00
  0.00000000E+00  0.00000000E+00  0.00000000E+00
  0.00000000E+00  0.00000000E+00  0.00000000E+00
  0.00000000E+00  0.00000000E+00  0.00000000E+00
  0.00000000E+00  0.00000000E+00  0.00000000E+00
  0.00000000E+00  0.00000000E+00  0.00000000E+00
  0.00000000E+00  0.00000000E+00  0.00000000E+00
  0.00000000E+00  0.00000000E+00  0.00000000E+00
  0.00000000E+00  0.00000000E+00  0.00000000E+00
  0.00000000E+00  0.00000000E+00  0.00000000E+00
  0.00000000E+00  0.00000000E+00  0.00000000E+00
  0.00000000E+00  0.00000000E+00  0.00000000E+00
  0.00000000E+00  0.00000000E+00  0.00000000E+00
  0.00000000E+00  0.00000000E+00  0.00000000E+00
  0.00000000E+00  0.00000000E+00  0.00000000E+00
  0.00000000E+00  0.00000000E+00  0.00000000E+00
  0.00000000E+00  0.00000000E+00  0.00000000E+00
  0.00000000E+00  0.00000000E+00  0.00000000E+00
  0.00000000E+00  0.00000000E+00  0.00000000E+00
  0.00000000E+00  0.00000000E+00  0.00000000E+00
  0.00000000E+00  0.00000000E+00  0.00000000E+00
  0.00000000E+00  0.00000000E+00  0.00000000E+00
  0.00000000E+00  0.00000000E+00  0.00000000E+00
  0.00000000E+00  0.00000000E+00  0.00000000E+00
  0.00000000E+00  0.00000000E+00  0.00000000E+00
  0.00000000E+00  0.00000000E+00  0.00000000E+00
  0.00000000E+00  0.00000000E+00  0.00000000E+00
  0.00000000E+00  0.00000000E+00  0.00000000E+00
  0.00000000E+00  0.00000000E+00  0.00000000E+00
  0.00000000E+00  0.00000000E+00  0.00000000E+00
  0.00000000E+00  0.00000000E+00  0.00000000E+00
  0.00000000E+00  0.00000000E+00  0.00000000E+00
  0.00000000E+00  0.00000000E+00  0.00000000E+00
  0.00000000E+00  0.00000000E+00  0.00000000E+00
  0.00000000E+00  0.00000000E+00  0.00000000E+00
  0.00000000E+00  0.00000000E+00  0.00000000E+00
  0.00000000E+00  0.00000000E+00  0.00000000E+00
  0.00000000E+00  0.00000000E+00  0.00000000E+00
  0.00000000E+00  0.00000000E+00  0.00000000E+00
  0.00000000E+00  0.00000000E+00  0.00000000E+00
  0.00000000E+00  0.00000000E+00  0.00000000E+00
  0.00000000E+00  0.00000000E+00  0.00000000E+00
  0.00000000E+00  0.00000000E+00  0.00000000E+00
  0.00000000E+00  0.00000000E+00  0.00000000E+00
  0.00000000E+00  0.00000000E+00  0.00000000E+00
  0.00000000E+00  0.00000000E+00  0.00000000E+00
  0.00000000E+00  0.00000000E+00  0.00000000E+00
  0.00000000E+00  0.00000000E+00  0.00000000E+00
  0.00000000E+00  0.00000000E+00  0.00000000E+00
  0.00000000E+00  0.00000000E+00  0.00000000E+00
  0.00000000E+00  0.00000000E+00  0.00000000E+00
  0.00000000E+00  0.00000000E+00  0.00000000E+00
  0.00000000E+00  0.00000000E+00  0.00000000E+00
  0.00000000E+00  0.00000000E+00  0.00000000E+00
  0.00000000E+00  0.00000000E+00  0.00000000E+00
  0.00000000E+00  0.00000000E+00  0.00000000E+00
  0.00000000E+00  0.00000000E+00  0.00000000E+00
  0.00000000E+00  0.00000000E+00  0.00000000E+00
  0.00000000E+00  0.00000000E+00  0.00000000E+00
  0.00000000E+00  0.00000000E+00  0.00000000E+00
  0.00000000E+00  0.00000000E+00  0.00000000E+00
  0.00000000E+00  0.00000000E+00  0.00000000E+00
  0.00000000E+00  0.00000000E+00  0.00000000E+00
  0.00000000E+00  0.00000000E+00  0.00000000E+00
  0.00000000E+00  0.00000000E+00  0.00000000E+00
  0.00000000E+00  0.00000000E+00  0.00000000E+00
  0.00000000E+00  0.00000000E+00  0.00000000E+00
  0.00000000E+00  0.00000000E+00  0.00000000E+00
  0.00000000E+00  0.00000000E+00  0.00000000E+00
  0.00000000E+00  0.00000000E+00  0.00000000E+00
  0.00000000E+00  0.00000000E+00  0.00000000E+00
  0.00000000E+00  0.00000000E+00  0.00000000E+00
  0.00000000E+00  0.00000000E+00  0.00000000E+00
  0.00000000E+00  0.00000000E+00  0.00000000E+00
  0.00000000E+00  0.00000000E+00  0.00000000E+00
  0.00000000E+00  0.00000000E+00  0.00000000E+00
  0.00000000E+00  0.00000000E+00  0.00000000E+00
  0.00000000E+00  0.00000000E+00  0.00000000E+00
  0.00000000E+00  0.00000000E+00  0.00000000E+00
  0.00000000E+00  0.00000000E+00  0.00000000E+00
  0.00000000E+00  0.00000000E+00  0.00000000E+00
  0.00000000E+00  0.00000000E+00  0.00000000E+00
  0.00000000E+00  0.00000000E+00  0.00000000E+00
  0.00000000E+00  0.00000000E+00  0.00000000E+00
  0.00000000E+00  0.00000000E+00  0.00000000E+00
  0.00000000E+00  0.00000000E+00  0.00000000E+00
  0.00000000E+00  0.00000000E+00  0.00000000E+00
  0.00000000E+00  0.00000000E+00  0.00000000E+00
  0.00000000E+00  0.00000000E+00  0.00000000E+00
  0.00000000E+00  0.00000000E+00  0.00000000E+00
  0.00000000E+00  0.00000000E+00  0.00000000E+00
  0.00000000E+00  0.00000000E+00  0.00000000E+00
  0.00000000E+00  0.00000000E+00  0.00000000E+00
  0.00000000E+00  0.00000000E+00  0.00000000E+00
  0.00000000E+00  0.00000000E+00  0.00000000E+00
  0.00000000E+00  0.00000000E+00  0.00000000E+00
  0.00000000E+00  0.00000000E+00  0.00000000E+00
  0.00000000E+00  0.00000000E+00  0.00000000E+00
  0.00000000E+00  0.00000000E+00  0.00000000E+00
  0.00000000E+00  0.00000000E+00  0.00000000E+00
  0.00000000E+00  0.00000000E+00  0.00000000E+00
  0.00000000E+00  0.00000000E+00  0.00000000E+00
  0.00000000E+00  0.00000000E+00  0.00000000E+00
  0.00000000E+00  0.00000000E+00  0.00000000E+00
  0.00000000E+00  0.00000000E+00  0.00000000E+00
  0.00000000E+00  0.00000000E+00  0.00000000E+00
  0.00000000E+00  0.00000000E+00  0.00000000E+00
  0.00000000E+00  0.00000000E+00  0.00000000E+00
  0.00000000E+00  0.00000000E+00  0.00000000E+00
  0.00000000E+00  0.00000000E+00  0.00000000E+00
  0.00000000E+00  0.00000000E+00  0.00000000E+00
  0.00000000E+00  0.00000000E+00  0.00000000E+00
  0.00000000E+00  0.00000000E+00  0.00000000E+00
  0.00000000E+00  0.00000000E+00  0.00000000E+00
  0.00000000E+00  0.00000000E+00  0.00000000E+00
  0.00000000E+00  0.00000000E+00  0.00000000E+00
  0.00000000E+00  0.00000000E+00  0.00000000E+00
  0.00000000E+00  0.00000000E+00  0.00000000E+00
  0.00000000E+00  0.00000000E+00  0.00000000E+00
  0.00000000E+00  0.00000000E+00  0.00000000E+00
  0.00000000E+00  0.00000000E+00  0.00000000E+00
  0.00000000E+00  0.00000000E+00  0.00000000E+00
  0.00000000E+00  0.00000000E+00  0.00000000E+00
  0.00000000E+00  0.00000000E+00  0.00000000E+00
  0.00000000E+00  0.00000000E+00  0.00000000E+00
  0.00000000E+00  0.00000000E+00  0.00000000E+00
  0.00000000E+00  0.00000000E+00  0.00000000E+00
