I Ca Tl                                 
   1.00000000000000     
    12.2815460000000005  -12.2815460000000005    0.0000000000000000
    12.2815460000000005   12.2815460000000005    0.0000000000000000
     0.0000000000000000    0.0000000000000000   24.5630920000000010
   Ca   I    Tl
    32    96    32
Direct
  0.9938582021810103  0.0021887054824697 -0.0004258667817852
 -0.0001574708224499 -0.0005074708697544  0.2478964043285861
  0.0004189003981728  0.0001309363795044  0.4958526821642595
  0.0037373709274092  0.0016303343300823  0.7514936757012737
  0.4992239575249147 -0.0006924278611760 -0.0004902760415830
  0.4968155906688261  0.0000906087120847  0.2487053192887623
  0.4996199834120863  0.0040181324080070  0.5005746239939700
  0.5021805593991147  0.0093380182503708  0.7502330204795731
  0.2508704991081884  0.2502273517280257  0.0024218523833452
  0.2491535641354513  0.2549691673905345  0.2461166250780620
  0.2530269807039435  0.2518935099540508  0.5008302922471689
  0.2485022062350521  0.2489848326570359  0.7499891338924355
  0.9952972756602135  0.5015405425184387  0.0000577396022097
 -0.0015030563260547  0.5023789291229304  0.2485104180214762
  0.0022672383402232  0.5013852865285977  0.5031510947132728
  0.0018978573553850  0.4992825002513445  0.7493064600364526
  0.7475264865627482  0.2528112634770505  0.0002837435698798
  0.7488027305644583  0.2555684033581891  0.2507787073987024
  0.7517725161565689  0.2519511190196971  0.4967777571598156
  0.7535517107145639  0.2484676948450935  0.7510815968330566
  0.4994239672305994  0.4973114111749767  0.9983316684718091
  0.4992017581511540  0.4985966023938479  0.2481566930431051
  0.4974904687975779  0.5017562811320093  0.4973777698993069
  0.5014781411961985  0.5060667718211829  0.7503651650264322
  0.2497618894053527  0.7478445563414333  0.9981492415743511
  0.2523828942002920  0.7515826396894052  0.2489956409131966
  0.2557135119353302  0.7495564481144110  0.4981501799749385
  0.2514888048426560  0.7557622956703486  0.7496166354719210
  0.7465617414485022  0.7535485443417934  0.0010744694846033
  0.7551254232523054  0.7487360222904476  0.2458446323001688
  0.7519723623157526  0.7501582880943943  0.4984952888755487
  0.7480570275855279  0.7543911424937452  0.7498111118238809
  0.1036693461012157  0.1447243492453862  0.0208895294484922
  0.1331714135486201  0.1184782348039253  0.2167274479571409
  0.1495938502214583  0.1005039714846341  0.5219332521011192
  0.1395128530612536  0.1114475833590284  0.7130460782159087
  0.5988483863221525  0.1493250738203867  0.9753726911854572
  0.6443705438944749  0.1058212711816117  0.2774102126126262
  0.6534807258768049  0.0996156509992149  0.4770542919040507
  0.6455918124223450  0.1100026924037747  0.7876218293150467
  0.3924669060183226  0.3540681912105632  0.9749696801992428
  0.3619127978442678  0.3891297080691148  0.2837774369206321
  0.3560789917261611  0.3948162947650764  0.4724342489260651
  0.3539105645928929  0.4020962698783477  0.7726810508236026
  0.1046814780819861  0.6440616416918006  0.9758077895025087
  0.1457655697743763  0.6074250975322457  0.2792851737592030
  0.1496829428300891  0.6033750358750639  0.4728561759634661
  0.1510387556556098  0.6064082028200377  0.7739850755209323
  0.8827102149992810  0.3667358853135067  0.0307686687791425
  0.8591920229611663  0.3924297606750199  0.2155580659225911
  0.8489431497241354  0.4046100406826456  0.5230575840648974
  0.8509145852596781  0.4003303882063472  0.7243972129329410
  0.6149119971231585  0.6331622382277262  0.0248661052137895
  0.6484016104337058  0.6013743425980476  0.2171988591568064
  0.6518333428051883  0.5999058906209744  0.5212304974938129
  0.6499673821648064  0.6046701615557908  0.7215084823150073
  0.3951145382417735  0.8520466247076284  0.0199959521347965
  0.3606455430714636  0.8904177638681668  0.2168703647946485
  0.3483837310469131  0.9038281037017896  0.5212038660124340
  0.3550056881524516  0.9033382128562618  0.7212575424908423
  0.8823334503398530  0.8668159796357694  0.9672281823569687
  0.8504895287516536  0.9008468463531000  0.2747343962786276
  0.8479634630496197  0.9039145535853371  0.4753299164006581
  0.8618545147270592  0.8912102368409214  0.7816934511518387
  0.8656847392096206  0.1233808533569886  0.9629902268359574
  0.8986819725792873  0.1523805030295849  0.2700996604267916
  0.9099828569665713  0.1587819982139996  0.4867730679287250
  0.9072066513780678  0.1550873148885411  0.7677290106844920
  0.3547855861980315  0.1043953586603970  0.0329107353957464
  0.3995192557534148  0.1520101257809527  0.2249436534366596
  0.3999935320306648  0.1515050140316982  0.5245243608727789
  0.4073913730814468  0.1627927418930387  0.7350119005989640
  0.1333532530602578  0.3865866534549667  0.9729839320748724
  0.1030102147325695  0.3560584166286674  0.2770322837248426
  0.1027231919376238  0.3521422264863522  0.4742602085761386
  0.1099860300404748  0.3603286666774708  0.7836154996695441
  0.8708969481412988  0.6264940779053592  0.0344350622572515
  0.9071510241194476  0.6554810827364786  0.2248172968031737
  0.9076417832971515  0.6585656098473565  0.5157756603926589
  0.9035171399238365  0.6553743384554850  0.7330095526187299
  0.6269281605060030  0.3780950887481819  0.0379238487781229
  0.5932207269230472  0.3440102305802969  0.2243680119016035
  0.6030244632688528  0.3528129284670605  0.5254201163388531
  0.6031271648454011  0.3518299956681408  0.7267244065274774
  0.3556349956679878  0.6045295140540780  0.9660481779412525
  0.4075409787347239  0.6547261209736076  0.2665262006850026
  0.4060919661424197  0.6546094061858180  0.4752134918503579
  0.4067199766419889  0.6610582261406150  0.7695998638829858
  0.1362731857799221  0.8899968447188823  0.0250380461063424
  0.1093137415752852  0.8604405668864017  0.2155865036101045
  0.1010938766494067  0.8511995234936077  0.5245547797860135
  0.1029317330710239  0.8543454440120114  0.7221300921358336
  0.6286925267450588  0.8829600612679417  0.9623914255140539
  0.6036713820764235  0.8535849492165342  0.2705316977806305
  0.6023222945802184  0.8524856863364796  0.4751578294419886
  0.5939375756666868  0.8500531174518193  0.7707943312864726
  0.9428017817561164  0.0144126733342101  0.1240438781532470
  0.0507431572592718  0.0050906161979557  0.3722959031930495
  0.9508606512940122  0.9995150846502502  0.6243055559100616
  0.0534906168991759  0.0095082443970310  0.8753981439518236
  0.5502504631100691  0.0167704660277918  0.1233305607557210
  0.4554569645386089  0.0156263054553624  0.3744877398302078
  0.5481251258271341  0.9857719400151997  0.6254184360107046
  0.4436980526581623  0.9957029609975057  0.8752819930459969
  0.2589231347687022  0.3075608682748944  0.1237493242015424
  0.2477709916793792  0.2034105365742855  0.3735778991793483
  0.2532230003660650  0.3051185149934585  0.6260364142594323
  0.2412200529500508  0.1964407681517306  0.8763702291874249
  0.0558444414750078  0.5067829210279781  0.1239886897211656
  0.9564594859472060  0.5153254836868990  0.3754947504606622
  0.0519665771450475  0.4960839503179086  0.6265287886053815
  0.9473956014168999  0.5146157635708783  0.8744238343819838
  0.7548842728530568  0.1966536175028542  0.1253614230434150
  0.7371754103031003  0.3028973922920950  0.3744665143582381
  0.7630019615613575  0.2037821113742384  0.6247692884161806
  0.7393403095759626  0.3054821721359476  0.8745790229485020
  0.4472282867423439  0.5162090503225690  0.1233439958366968
  0.5533787750473080  0.5047082605126699  0.3727768620931210
  0.4551968788172378  0.4986467152001424  0.6250692823682880
  0.5518746620653334  0.4850989899954050  0.8733252157047053
  0.2435646750867070  0.6965916383705276  0.1226032298315775
  0.2321473302967628  0.8000381009769169  0.3739199152325985
  0.2701707811101062  0.7087900114732647  0.6251260601679306
  0.2566099116338696  0.8059477301917054  0.8746707428360406
  0.7307955378143162  0.8042901536353864  0.1242352377958540
  0.7475568786812684  0.7048073835846452  0.3725223487881670
  0.7554844315233176  0.8006429087100898  0.6242189229526099
  0.7540150675708298  0.6991063978806407  0.8742927140694218
  0.9548925033412197  0.2181588674661413  0.1428257819359302
  0.0424344804897515  0.2124660107428852  0.3747165465136740
  0.9630369338897811  0.1961124508669287  0.6308617455692545
  0.0421521851352837  0.2111673597670039  0.8903672963959990
  0.5046931855796150  0.2150084697464990  0.0970288556903410
  0.4980423513064098  0.2460877553564403  0.3253789089320442
  0.4548443817135391  0.2873097908406295  0.6236461337413353
  0.5436533424518190  0.2724272850474697  0.8554390944735253
  0.2530637358846170  0.4994946127674380  0.0741701300353755
  0.2156783228555703  0.4570159044198129  0.3779062570896120
  0.2498255673982314  0.5075706167392348  0.6629148972527216
  0.2359487914062344  0.4849908016001785  0.8710806258880790
  0.0368762245462541  0.7042118919363812  0.1126329899946434
  0.0431168489501297  0.6993612284111423  0.3786842514792055
  0.9597602223917485  0.7809306788155164  0.6233743205699201
  0.9493702310026289  0.7200683717648843  0.8649837922477325
  0.7582416291297426  0.4941575957727179  0.1084576944755698
  0.7533148035181493  0.5015777139048605  0.4125413468262042
  0.7085520396700086  0.4610586283246597  0.6202232595331814
  0.7494287353331951  0.5013900932145309  0.8289675073837779
  0.5212157484797802  0.7057263400973335  0.1417190600601937
  0.5365575475223731  0.7089356691071492  0.3735340686894849
  0.4791233266795960  0.7780495373886148  0.6638987556539888
  0.4620278847987548  0.7984025366186343  0.8883019770905863
  0.2278952411069834  0.9835246972468852  0.1369570637859398
  0.2559512612214099  0.0004153768502722  0.4119132712472502
  0.2096850412185455  0.9628639399249431  0.6222070698279428
  0.2472044808161079  0.0000315631010247  0.9260088528873336
  0.7461642382242792  0.9971655330969890  0.1703222018400345
  0.7050821361507666  0.9579139138124348  0.3749771586279286
  0.7433592272130650  0.0008315458508990  0.5840021498114104
  0.7606489853913165 -0.0095779384916413  0.8855024685108192
 
  0.00000000E+00  0.00000000E+00  0.00000000E+00
  0.00000000E+00  0.00000000E+00  0.00000000E+00
  0.00000000E+00  0.00000000E+00  0.00000000E+00
  0.00000000E+00  0.00000000E+00  0.00000000E+00
  0.00000000E+00  0.00000000E+00  0.00000000E+00
  0.00000000E+00  0.00000000E+00  0.00000000E+00
  0.00000000E+00  0.00000000E+00  0.00000000E+00
  0.00000000E+00  0.00000000E+00  0.00000000E+00
  0.00000000E+00  0.00000000E+00  0.00000000E+00
  0.00000000E+00  0.00000000E+00  0.00000000E+00
  0.00000000E+00  0.00000000E+00  0.00000000E+00
  0.00000000E+00  0.00000000E+00  0.00000000E+00
  0.00000000E+00  0.00000000E+00  0.00000000E+00
  0.00000000E+00  0.00000000E+00  0.00000000E+00
  0.00000000E+00  0.00000000E+00  0.00000000E+00
  0.00000000E+00  0.00000000E+00  0.00000000E+00
  0.00000000E+00  0.00000000E+00  0.00000000E+00
  0.00000000E+00  0.00000000E+00  0.00000000E+00
  0.00000000E+00  0.00000000E+00  0.00000000E+00
  0.00000000E+00  0.00000000E+00  0.00000000E+00
  0.00000000E+00  0.00000000E+00  0.00000000E+00
  0.00000000E+00  0.00000000E+00  0.00000000E+00
  0.00000000E+00  0.00000000E+00  0.00000000E+00
  0.00000000E+00  0.00000000E+00  0.00000000E+00
  0.00000000E+00  0.00000000E+00  0.00000000E+00
  0.00000000E+00  0.00000000E+00  0.00000000E+00
  0.00000000E+00  0.00000000E+00  0.00000000E+00
  0.00000000E+00  0.00000000E+00  0.00000000E+00
  0.00000000E+00  0.00000000E+00  0.00000000E+00
  0.00000000E+00  0.00000000E+00  0.00000000E+00
  0.00000000E+00  0.00000000E+00  0.00000000E+00
  0.00000000E+00  0.00000000E+00  0.00000000E+00
  0.00000000E+00  0.00000000E+00  0.00000000E+00
  0.00000000E+00  0.00000000E+00  0.00000000E+00
  0.00000000E+00  0.00000000E+00  0.00000000E+00
  0.00000000E+00  0.00000000E+00  0.00000000E+00
  0.00000000E+00  0.00000000E+00  0.00000000E+00
  0.00000000E+00  0.00000000E+00  0.00000000E+00
  0.00000000E+00  0.00000000E+00  0.00000000E+00
  0.00000000E+00  0.00000000E+00  0.00000000E+00
  0.00000000E+00  0.00000000E+00  0.00000000E+00
  0.00000000E+00  0.00000000E+00  0.00000000E+00
  0.00000000E+00  0.00000000E+00  0.00000000E+00
  0.00000000E+00  0.00000000E+00  0.00000000E+00
  0.00000000E+00  0.00000000E+00  0.00000000E+00
  0.00000000E+00  0.00000000E+00  0.00000000E+00
  0.00000000E+00  0.00000000E+00  0.00000000E+00
  0.00000000E+00  0.00000000E+00  0.00000000E+00
  0.00000000E+00  0.00000000E+00  0.00000000E+00
  0.00000000E+00  0.00000000E+00  0.00000000E+00
  0.00000000E+00  0.00000000E+00  0.00000000E+00
  0.00000000E+00  0.00000000E+00  0.00000000E+00
  0.00000000E+00  0.00000000E+00  0.00000000E+00
  0.00000000E+00  0.00000000E+00  0.00000000E+00
  0.00000000E+00  0.00000000E+00  0.00000000E+00
  0.00000000E+00  0.00000000E+00  0.00000000E+00
  0.00000000E+00  0.00000000E+00  0.00000000E+00
  0.00000000E+00  0.00000000E+00  0.00000000E+00
  0.00000000E+00  0.00000000E+00  0.00000000E+00
  0.00000000E+00  0.00000000E+00  0.00000000E+00
  0.00000000E+00  0.00000000E+00  0.00000000E+00
  0.00000000E+00  0.00000000E+00  0.00000000E+00
  0.00000000E+00  0.00000000E+00  0.00000000E+00
  0.00000000E+00  0.00000000E+00  0.00000000E+00
  0.00000000E+00  0.00000000E+00  0.00000000E+00
  0.00000000E+00  0.00000000E+00  0.00000000E+00
  0.00000000E+00  0.00000000E+00  0.00000000E+00
  0.00000000E+00  0.00000000E+00  0.00000000E+00
  0.00000000E+00  0.00000000E+00  0.00000000E+00
  0.00000000E+00  0.00000000E+00  0.00000000E+00
  0.00000000E+00  0.00000000E+00  0.00000000E+00
  0.00000000E+00  0.00000000E+00  0.00000000E+00
  0.00000000E+00  0.00000000E+00  0.00000000E+00
  0.00000000E+00  0.00000000E+00  0.00000000E+00
  0.00000000E+00  0.00000000E+00  0.00000000E+00
  0.00000000E+00  0.00000000E+00  0.00000000E+00
  0.00000000E+00  0.00000000E+00  0.00000000E+00
  0.00000000E+00  0.00000000E+00  0.00000000E+00
  0.00000000E+00  0.00000000E+00  0.00000000E+00
  0.00000000E+00  0.00000000E+00  0.00000000E+00
  0.00000000E+00  0.00000000E+00  0.00000000E+00
  0.00000000E+00  0.00000000E+00  0.00000000E+00
  0.00000000E+00  0.00000000E+00  0.00000000E+00
  0.00000000E+00  0.00000000E+00  0.00000000E+00
  0.00000000E+00  0.00000000E+00  0.00000000E+00
  0.00000000E+00  0.00000000E+00  0.00000000E+00
  0.00000000E+00  0.00000000E+00  0.00000000E+00
  0.00000000E+00  0.00000000E+00  0.00000000E+00
  0.00000000E+00  0.00000000E+00  0.00000000E+00
  0.00000000E+00  0.00000000E+00  0.00000000E+00
  0.00000000E+00  0.00000000E+00  0.00000000E+00
  0.00000000E+00  0.00000000E+00  0.00000000E+00
  0.00000000E+00  0.00000000E+00  0.00000000E+00
  0.00000000E+00  0.00000000E+00  0.00000000E+00
  0.00000000E+00  0.00000000E+00  0.00000000E+00
  0.00000000E+00  0.00000000E+00  0.00000000E+00
  0.00000000E+00  0.00000000E+00  0.00000000E+00
  0.00000000E+00  0.00000000E+00  0.00000000E+00
  0.00000000E+00  0.00000000E+00  0.00000000E+00
  0.00000000E+00  0.00000000E+00  0.00000000E+00
  0.00000000E+00  0.00000000E+00  0.00000000E+00
  0.00000000E+00  0.00000000E+00  0.00000000E+00
  0.00000000E+00  0.00000000E+00  0.00000000E+00
  0.00000000E+00  0.00000000E+00  0.00000000E+00
  0.00000000E+00  0.00000000E+00  0.00000000E+00
  0.00000000E+00  0.00000000E+00  0.00000000E+00
  0.00000000E+00  0.00000000E+00  0.00000000E+00
  0.00000000E+00  0.00000000E+00  0.00000000E+00
  0.00000000E+00  0.00000000E+00  0.00000000E+00
  0.00000000E+00  0.00000000E+00  0.00000000E+00
  0.00000000E+00  0.00000000E+00  0.00000000E+00
  0.00000000E+00  0.00000000E+00  0.00000000E+00
  0.00000000E+00  0.00000000E+00  0.00000000E+00
  0.00000000E+00  0.00000000E+00  0.00000000E+00
  0.00000000E+00  0.00000000E+00  0.00000000E+00
  0.00000000E+00  0.00000000E+00  0.00000000E+00
  0.00000000E+00  0.00000000E+00  0.00000000E+00
  0.00000000E+00  0.00000000E+00  0.00000000E+00
  0.00000000E+00  0.00000000E+00  0.00000000E+00
  0.00000000E+00  0.00000000E+00  0.00000000E+00
  0.00000000E+00  0.00000000E+00  0.00000000E+00
  0.00000000E+00  0.00000000E+00  0.00000000E+00
  0.00000000E+00  0.00000000E+00  0.00000000E+00
  0.00000000E+00  0.00000000E+00  0.00000000E+00
  0.00000000E+00  0.00000000E+00  0.00000000E+00
  0.00000000E+00  0.00000000E+00  0.00000000E+00
  0.00000000E+00  0.00000000E+00  0.00000000E+00
  0.00000000E+00  0.00000000E+00  0.00000000E+00
  0.00000000E+00  0.00000000E+00  0.00000000E+00
  0.00000000E+00  0.00000000E+00  0.00000000E+00
  0.00000000E+00  0.00000000E+00  0.00000000E+00
  0.00000000E+00  0.00000000E+00  0.00000000E+00
  0.00000000E+00  0.00000000E+00  0.00000000E+00
  0.00000000E+00  0.00000000E+00  0.00000000E+00
  0.00000000E+00  0.00000000E+00  0.00000000E+00
  0.00000000E+00  0.00000000E+00  0.00000000E+00
  0.00000000E+00  0.00000000E+00  0.00000000E+00
  0.00000000E+00  0.00000000E+00  0.00000000E+00
  0.00000000E+00  0.00000000E+00  0.00000000E+00
  0.00000000E+00  0.00000000E+00  0.00000000E+00
  0.00000000E+00  0.00000000E+00  0.00000000E+00
  0.00000000E+00  0.00000000E+00  0.00000000E+00
  0.00000000E+00  0.00000000E+00  0.00000000E+00
  0.00000000E+00  0.00000000E+00  0.00000000E+00
  0.00000000E+00  0.00000000E+00  0.00000000E+00
  0.00000000E+00  0.00000000E+00  0.00000000E+00
  0.00000000E+00  0.00000000E+00  0.00000000E+00
  0.00000000E+00  0.00000000E+00  0.00000000E+00
  0.00000000E+00  0.00000000E+00  0.00000000E+00
  0.00000000E+00  0.00000000E+00  0.00000000E+00
  0.00000000E+00  0.00000000E+00  0.00000000E+00
  0.00000000E+00  0.00000000E+00  0.00000000E+00
  0.00000000E+00  0.00000000E+00  0.00000000E+00
  0.00000000E+00  0.00000000E+00  0.00000000E+00
  0.00000000E+00  0.00000000E+00  0.00000000E+00
  0.00000000E+00  0.00000000E+00  0.00000000E+00
  0.00000000E+00  0.00000000E+00  0.00000000E+00
  0.00000000E+00  0.00000000E+00  0.00000000E+00
  0.00000000E+00  0.00000000E+00  0.00000000E+00
  0.00000000E+00  0.00000000E+00  0.00000000E+00
