Ca Rb Br                                
   1.00000000000000     
    11.4805440000000001  -11.4805440000000001    0.0000000000000000
    11.4805440000000001   11.4805440000000001    0.0000000000000000
     0.0000000000000000    0.0000000000000000   22.9610869999999991
   Br   Ca   Rb
    96    32    32
Direct
  0.1048874786185650  0.1448636578845728  0.9804321583948378
  0.1059583616214028  0.1440860368414657  0.2708591477780488
  0.1052085400414809  0.1450201982549343  0.4804809203023514
  0.1056261914497551  0.1440233859512863  0.7712900537850159
  0.6050135637193480  0.1447690061098329  0.9804330908561072
  0.6058022497580392  0.1443738764713001  0.2709073396676541
  0.6051291649699415  0.1451665568457620  0.4804221430135045
  0.6056702412833453  0.1440971309353665  0.7712885333013751
  0.3946282075582536  0.3553364314858143  0.0211377227384692
  0.3966132313638358  0.3535966709649023  0.2306305873262472
  0.3946216728084269  0.3555970090843845  0.5210127296511913
  0.3948488410777179  0.3548517845454753  0.7302808008729065
  0.1052441119343154  0.6447134330564750  0.9805785980883798
  0.1061055785337135  0.6440768921144714  0.2708090681812272
  0.1051189069735197  0.6451421718777933  0.4804521871527438
  0.1057367093799905  0.6441636945804800  0.7712255785342618
  0.8951977928202509  0.3547272101383462  0.0201335107090358
  0.8965853248616469  0.3536936281242971  0.2304355242322696
  0.8946825674934169  0.3557156113470817  0.5210664775695202
  0.8950285003387348  0.3550183490868916  0.7305605047969832
  0.6051213856207203  0.6444271318048591  0.9801049095945368
  0.6060451447048910  0.6441217884423425  0.2708802085120330
  0.6052830860446325  0.6450008771276455  0.4804168747131083
  0.6058298663885762  0.6438568348575605  0.7712934750630068
  0.3947354050369288  0.8553116722002175  0.0206759009904556
  0.3968048050197893  0.8537046821690509  0.2304820047035115
  0.3946831817028308  0.8556907888134617  0.5210869611595583
  0.3950492805981072  0.8549447897491674  0.7304825111240235
  0.8950947535010405  0.8546214121592793  0.0203931574556483
  0.8967875953747680  0.8534610370495563  0.2304652380503486
  0.8946850375873893  0.8555300385103252  0.5210021163556576
  0.8948412225558732  0.8548963816010403  0.7303066678475835
  0.8553532437865659  0.1045635476931400  0.0204332959706989
  0.8555413393943391  0.1043658053693129  0.2302632157428820
  0.8555105319679708  0.1056343127833383  0.5209478238887443
  0.8556187078532214  0.1052185393393148  0.7292084389822364
  0.3554408198369195  0.1051230882517561  0.0211778474633291
  0.3554854368388765  0.1043679939536529  0.2302743808765939
  0.3555379557022136  0.1054858739950782  0.5209774830465060
  0.3554001503153545  0.1047728381103532  0.7302182825170880
  0.1452467253932334  0.3945747035038735  0.9801620676199720
  0.1455733130329871  0.3942701148012983  0.2706274611766074
  0.1448479757538086  0.3949196644235378  0.4804372772130946
  0.1446418954556391  0.3940276161403958  0.7711570657185439
  0.8556447800185584  0.6049973603582575  0.0210612773913341
  0.8555230217852869  0.6043858578272712  0.2303484616391362
  0.8553929170083238  0.6055104760854089  0.5210277429582391
  0.8555684801202665  0.6053695840257824  0.7292693534961726
  0.6450865785975924  0.3940916112346373  0.9792033877500743
  0.6456312984310146  0.3942087533882087  0.2706086711182341
  0.6448953268009940  0.3948007715791907  0.4799671130222575
  0.6448641795806735  0.3941401675162542  0.7710388993597761
  0.3557730655209224  0.6051216383644460  0.0209993152349463
  0.3558195563584952  0.6044697345899432  0.2295976672578370
  0.3555559156152895  0.6056082653289649  0.5210143185254951
  0.3556089940523318  0.6049714653236351  0.7299974534774381
  0.1452421780281852  0.8944773562712444  0.9801263869781888
  0.1459925895281094  0.8945909297083839  0.2703043806149487
  0.1449082127015281  0.8947605636573804  0.4799993101612151
  0.1446787676673832  0.8940876657637826  0.7711924096052124
  0.6451421206672846  0.8943872484922883  0.9802921461595538
  0.6459093466007534  0.8946946975513523  0.2702791857078231
  0.6449664507404687  0.8949162281287468  0.4804046566751202
  0.6445872159024094  0.8941522491325024  0.7713015232874656
  0.0384449419878447  0.0077555852407780  0.1252117677085767
  0.9618005402402390  0.9914580404118000  0.3753293093834727
  0.0387173130129881  0.0081345148198076  0.6254569293920158
  0.9610896234163249  0.9905151066271684  0.8753267524296025
  0.5386937956320060  0.0080519487118954  0.1253918511591513
  0.4620251304411470  0.9914035758516853  0.3755356244485393
  0.5389816086506213  0.0083976603390101  0.6255748865489020
  0.4614112415902554  0.9915013887620114  0.8755582659820552
  0.2118034479223480  0.2581950708588245  0.1254096750868714
  0.2887362956361441  0.2414883177705030  0.3755689007209969
  0.2112426429613023  0.2582750392480799  0.6255788698779172
  0.2892099852390147  0.2405319105486165  0.8756249976770591
  0.0384670730697139  0.5077551942585992  0.1252305964015407
  0.9617390283599165  0.4916535969291791  0.3753680741254275
  0.0391608360131049  0.5086365241503363  0.6255746941331981
  0.9616409995894423  0.4917685880047625  0.8753513773204701
  0.7123322713725505  0.2578857847551227  0.1252535129253108
  0.7889295701322226  0.2415337327355432  0.3754867999280631
  0.7111004556052979  0.2589198513949620  0.6256437550518693
  0.7891413449194866  0.2400711933420694  0.8752392628994354
  0.5394812872584723  0.5078159054424952  0.1253600376208726
  0.4617679282560983  0.4917175869137739  0.3753061691042271
  0.5386259253587617  0.5081193390240385  0.6254421838625284
  0.4608120522779079  0.4905851484621145  0.8754380945468082
  0.2120445578150208  0.7579413431208231  0.1252914978857406
  0.2888377379869226  0.7414737369425441  0.3754890410953651
  0.2113196662632184  0.7586967806094409  0.6256478392832809
  0.2891864141836002  0.7404501149565694  0.8754926836106093
  0.7120692186401557  0.7579677991743172  0.1252660777692802
  0.7885656296803097  0.7415744686073603  0.3755174351057863
  0.7109337275189563  0.7588017222375256  0.6256635208963167
  0.7890573664806154  0.7404907434706685  0.8754226253831722
  0.0002368760945091  0.9995944715376006  0.0000904969234388
  0.0006434751805415  0.9994631788209531  0.2502986888177243
  0.0002534986831260  0.0000569784390508  0.5003514550233098
  0.0001864125562076 -0.0004186672496580  0.7503515071981953
  0.5001975821364424  0.9997354688218010  0.0003959683380002
  0.5005735278742911  0.9995902791605651  0.2504355165330329
  0.5003301376401489  0.0001865906217210  0.5006133689104864
  0.5001905255695243 -0.0002207222894095  0.7505877043806923
  0.2502952217862685  0.2497008290803410  0.0004199426777241
  0.2506726132394722  0.2495173034181433  0.2503404185115377
  0.2501082713034716  0.2500161625595491  0.5005983063406007
  0.2500527836077920  0.2496042296435749  0.7506253572908590
  0.0002161205620770  0.4996762027733732  0.0002299687949572
  0.0006588177252814  0.4995108195567285  0.2503177223926860
  0.0000973138842423  0.5001508438106647  0.5005027827110523
  0.0002636151801002  0.4998571703819318  0.7503410045784270
  0.7503048692236277  0.2494996004418442  0.0000797607365525
  0.7507859712851296  0.2494657741793998  0.2503834293167653
  0.7501967133235147  0.2501424755712910  0.5004785944526192
  0.7502201585572550  0.2495203131181468  0.7503734169734386
  0.5003123499504115  0.4994334108269101  0.0002618210524105
  0.5006679300013689  0.4994201334323368  0.2502159846623312
  0.5001764594703941  0.5000099739114002  0.5003450301460609
  0.5002878827428432  0.4995455125224807  0.7505293579705624
  0.2503858538834602  0.7495619971545893  0.0003249999640298
  0.2508956687457728  0.7495250246905349  0.2502770699755587
  0.2501866109439073  0.7501745745828796  0.5005541962074312
  0.2503114247309529  0.7497307962644834  0.7505344053724752
  0.7502604182649925  0.7494880807597785  0.0003199131723236
  0.7507678447532761  0.7495379737023741  0.2502959145565192
  0.7501689372454057  0.7501139607328698  0.5006285460865630
  0.7501467929077786  0.7497302843347423  0.7504411025745515
  0.9941267715867289  0.2240034827918126  0.1249362502974149
  0.0071128751514598  0.2753230359179666  0.3750267505008208
  0.9931928134193697  0.2244856912026292  0.6252870473175168
  0.0064196451403410  0.2750235532003387  0.8752872897114183
  0.4941239162600697  0.2242468098653390  0.1248778028783451
  0.5068183688882497  0.2752443972448859  0.3750048635272710
  0.4935049780727377  0.2247130441284649  0.6253769969711400
  0.5067249042723276  0.2745909040383207  0.8751931349590402
  0.2566302615657143  0.4745632496825191  0.1250494737055604
  0.2436638209319051  0.5253086459890943  0.3754064004259506
  0.2569336516711670  0.4744966861837889  0.6251755225985177
  0.2433012752828088  0.5247773514594922  0.8751995384672074
  0.9940938731634966  0.7241189963216130  0.1247840139369195
  0.0068267669886500  0.7750509631198155  0.3748683289736209
  0.9935261397064772  0.7249055509001117  0.6252879658242504
  0.0066579674390607  0.7744637848762862  0.8753060088470278
  0.7572737541089040  0.4740820978675746  0.1254353339170757
  0.7437248093076083  0.5253853781991189  0.3752805440054349
  0.7566299228307516  0.4749354357016038  0.6252640530882938
  0.7438391067776100  0.5247827171408952  0.8750050713492046
  0.4940476579697305  0.7239196663226216  0.1246760499773298
  0.5071979675233427  0.7750914652035072  0.3749807741367480
  0.4931639484616509  0.7245114195935352  0.6252764121147483
  0.5065906527643136  0.7748400695703234  0.8753151973732515
  0.2567557137156892  0.9741763957288094  0.1253821656449121
  0.2439914512817705  0.0254123485029485  0.3752979106139260
  0.2567667114076605  0.9749595332121547  0.6252649927715148
  0.2437212485751471  0.0245531620569087  0.8753509975453362
  0.7567681038213330  0.9742303595417418  0.1252341593366073
  0.7437817399035886  0.0253007193155526  0.3755065442111282
  0.7567660997775818  0.9748788909149542  0.6252609269040521
  0.7436696538689442  0.0242399622917697  0.8754446129026684
 
  0.00000000E+00  0.00000000E+00  0.00000000E+00
  0.00000000E+00  0.00000000E+00  0.00000000E+00
  0.00000000E+00  0.00000000E+00  0.00000000E+00
  0.00000000E+00  0.00000000E+00  0.00000000E+00
  0.00000000E+00  0.00000000E+00  0.00000000E+00
  0.00000000E+00  0.00000000E+00  0.00000000E+00
  0.00000000E+00  0.00000000E+00  0.00000000E+00
  0.00000000E+00  0.00000000E+00  0.00000000E+00
  0.00000000E+00  0.00000000E+00  0.00000000E+00
  0.00000000E+00  0.00000000E+00  0.00000000E+00
  0.00000000E+00  0.00000000E+00  0.00000000E+00
  0.00000000E+00  0.00000000E+00  0.00000000E+00
  0.00000000E+00  0.00000000E+00  0.00000000E+00
  0.00000000E+00  0.00000000E+00  0.00000000E+00
  0.00000000E+00  0.00000000E+00  0.00000000E+00
  0.00000000E+00  0.00000000E+00  0.00000000E+00
  0.00000000E+00  0.00000000E+00  0.00000000E+00
  0.00000000E+00  0.00000000E+00  0.00000000E+00
  0.00000000E+00  0.00000000E+00  0.00000000E+00
  0.00000000E+00  0.00000000E+00  0.00000000E+00
  0.00000000E+00  0.00000000E+00  0.00000000E+00
  0.00000000E+00  0.00000000E+00  0.00000000E+00
  0.00000000E+00  0.00000000E+00  0.00000000E+00
  0.00000000E+00  0.00000000E+00  0.00000000E+00
  0.00000000E+00  0.00000000E+00  0.00000000E+00
  0.00000000E+00  0.00000000E+00  0.00000000E+00
  0.00000000E+00  0.00000000E+00  0.00000000E+00
  0.00000000E+00  0.00000000E+00  0.00000000E+00
  0.00000000E+00  0.00000000E+00  0.00000000E+00
  0.00000000E+00  0.00000000E+00  0.00000000E+00
  0.00000000E+00  0.00000000E+00  0.00000000E+00
  0.00000000E+00  0.00000000E+00  0.00000000E+00
  0.00000000E+00  0.00000000E+00  0.00000000E+00
  0.00000000E+00  0.00000000E+00  0.00000000E+00
  0.00000000E+00  0.00000000E+00  0.00000000E+00
  0.00000000E+00  0.00000000E+00  0.00000000E+00
  0.00000000E+00  0.00000000E+00  0.00000000E+00
  0.00000000E+00  0.00000000E+00  0.00000000E+00
  0.00000000E+00  0.00000000E+00  0.00000000E+00
  0.00000000E+00  0.00000000E+00  0.00000000E+00
  0.00000000E+00  0.00000000E+00  0.00000000E+00
  0.00000000E+00  0.00000000E+00  0.00000000E+00
  0.00000000E+00  0.00000000E+00  0.00000000E+00
  0.00000000E+00  0.00000000E+00  0.00000000E+00
  0.00000000E+00  0.00000000E+00  0.00000000E+00
  0.00000000E+00  0.00000000E+00  0.00000000E+00
  0.00000000E+00  0.00000000E+00  0.00000000E+00
  0.00000000E+00  0.00000000E+00  0.00000000E+00
  0.00000000E+00  0.00000000E+00  0.00000000E+00
  0.00000000E+00  0.00000000E+00  0.00000000E+00
  0.00000000E+00  0.00000000E+00  0.00000000E+00
  0.00000000E+00  0.00000000E+00  0.00000000E+00
  0.00000000E+00  0.00000000E+00  0.00000000E+00
  0.00000000E+00  0.00000000E+00  0.00000000E+00
  0.00000000E+00  0.00000000E+00  0.00000000E+00
  0.00000000E+00  0.00000000E+00  0.00000000E+00
  0.00000000E+00  0.00000000E+00  0.00000000E+00
  0.00000000E+00  0.00000000E+00  0.00000000E+00
  0.00000000E+00  0.00000000E+00  0.00000000E+00
  0.00000000E+00  0.00000000E+00  0.00000000E+00
  0.00000000E+00  0.00000000E+00  0.00000000E+00
  0.00000000E+00  0.00000000E+00  0.00000000E+00
  0.00000000E+00  0.00000000E+00  0.00000000E+00
  0.00000000E+00  0.00000000E+00  0.00000000E+00
  0.00000000E+00  0.00000000E+00  0.00000000E+00
  0.00000000E+00  0.00000000E+00  0.00000000E+00
  0.00000000E+00  0.00000000E+00  0.00000000E+00
  0.00000000E+00  0.00000000E+00  0.00000000E+00
  0.00000000E+00  0.00000000E+00  0.00000000E+00
  0.00000000E+00  0.00000000E+00  0.00000000E+00
  0.00000000E+00  0.00000000E+00  0.00000000E+00
  0.00000000E+00  0.00000000E+00  0.00000000E+00
  0.00000000E+00  0.00000000E+00  0.00000000E+00
  0.00000000E+00  0.00000000E+00  0.00000000E+00
  0.00000000E+00  0.00000000E+00  0.00000000E+00
  0.00000000E+00  0.00000000E+00  0.00000000E+00
  0.00000000E+00  0.00000000E+00  0.00000000E+00
  0.00000000E+00  0.00000000E+00  0.00000000E+00
  0.00000000E+00  0.00000000E+00  0.00000000E+00
  0.00000000E+00  0.00000000E+00  0.00000000E+00
  0.00000000E+00  0.00000000E+00  0.00000000E+00
  0.00000000E+00  0.00000000E+00  0.00000000E+00
  0.00000000E+00  0.00000000E+00  0.00000000E+00
  0.00000000E+00  0.00000000E+00  0.00000000E+00
  0.00000000E+00  0.00000000E+00  0.00000000E+00
  0.00000000E+00  0.00000000E+00  0.00000000E+00
  0.00000000E+00  0.00000000E+00  0.00000000E+00
  0.00000000E+00  0.00000000E+00  0.00000000E+00
  0.00000000E+00  0.00000000E+00  0.00000000E+00
  0.00000000E+00  0.00000000E+00  0.00000000E+00
  0.00000000E+00  0.00000000E+00  0.00000000E+00
  0.00000000E+00  0.00000000E+00  0.00000000E+00
  0.00000000E+00  0.00000000E+00  0.00000000E+00
  0.00000000E+00  0.00000000E+00  0.00000000E+00
  0.00000000E+00  0.00000000E+00  0.00000000E+00
  0.00000000E+00  0.00000000E+00  0.00000000E+00
  0.00000000E+00  0.00000000E+00  0.00000000E+00
  0.00000000E+00  0.00000000E+00  0.00000000E+00
  0.00000000E+00  0.00000000E+00  0.00000000E+00
  0.00000000E+00  0.00000000E+00  0.00000000E+00
  0.00000000E+00  0.00000000E+00  0.00000000E+00
  0.00000000E+00  0.00000000E+00  0.00000000E+00
  0.00000000E+00  0.00000000E+00  0.00000000E+00
  0.00000000E+00  0.00000000E+00  0.00000000E+00
  0.00000000E+00  0.00000000E+00  0.00000000E+00
  0.00000000E+00  0.00000000E+00  0.00000000E+00
  0.00000000E+00  0.00000000E+00  0.00000000E+00
  0.00000000E+00  0.00000000E+00  0.00000000E+00
  0.00000000E+00  0.00000000E+00  0.00000000E+00
  0.00000000E+00  0.00000000E+00  0.00000000E+00
  0.00000000E+00  0.00000000E+00  0.00000000E+00
  0.00000000E+00  0.00000000E+00  0.00000000E+00
  0.00000000E+00  0.00000000E+00  0.00000000E+00
  0.00000000E+00  0.00000000E+00  0.00000000E+00
  0.00000000E+00  0.00000000E+00  0.00000000E+00
  0.00000000E+00  0.00000000E+00  0.00000000E+00
  0.00000000E+00  0.00000000E+00  0.00000000E+00
  0.00000000E+00  0.00000000E+00  0.00000000E+00
  0.00000000E+00  0.00000000E+00  0.00000000E+00
  0.00000000E+00  0.00000000E+00  0.00000000E+00
  0.00000000E+00  0.00000000E+00  0.00000000E+00
  0.00000000E+00  0.00000000E+00  0.00000000E+00
  0.00000000E+00  0.00000000E+00  0.00000000E+00
  0.00000000E+00  0.00000000E+00  0.00000000E+00
  0.00000000E+00  0.00000000E+00  0.00000000E+00
  0.00000000E+00  0.00000000E+00  0.00000000E+00
  0.00000000E+00  0.00000000E+00  0.00000000E+00
  0.00000000E+00  0.00000000E+00  0.00000000E+00
  0.00000000E+00  0.00000000E+00  0.00000000E+00
  0.00000000E+00  0.00000000E+00  0.00000000E+00
  0.00000000E+00  0.00000000E+00  0.00000000E+00
  0.00000000E+00  0.00000000E+00  0.00000000E+00
  0.00000000E+00  0.00000000E+00  0.00000000E+00
  0.00000000E+00  0.00000000E+00  0.00000000E+00
  0.00000000E+00  0.00000000E+00  0.00000000E+00
  0.00000000E+00  0.00000000E+00  0.00000000E+00
  0.00000000E+00  0.00000000E+00  0.00000000E+00
  0.00000000E+00  0.00000000E+00  0.00000000E+00
  0.00000000E+00  0.00000000E+00  0.00000000E+00
  0.00000000E+00  0.00000000E+00  0.00000000E+00
  0.00000000E+00  0.00000000E+00  0.00000000E+00
  0.00000000E+00  0.00000000E+00  0.00000000E+00
  0.00000000E+00  0.00000000E+00  0.00000000E+00
  0.00000000E+00  0.00000000E+00  0.00000000E+00
  0.00000000E+00  0.00000000E+00  0.00000000E+00
  0.00000000E+00  0.00000000E+00  0.00000000E+00
  0.00000000E+00  0.00000000E+00  0.00000000E+00
  0.00000000E+00  0.00000000E+00  0.00000000E+00
  0.00000000E+00  0.00000000E+00  0.00000000E+00
  0.00000000E+00  0.00000000E+00  0.00000000E+00
  0.00000000E+00  0.00000000E+00  0.00000000E+00
  0.00000000E+00  0.00000000E+00  0.00000000E+00
  0.00000000E+00  0.00000000E+00  0.00000000E+00
  0.00000000E+00  0.00000000E+00  0.00000000E+00
  0.00000000E+00  0.00000000E+00  0.00000000E+00
  0.00000000E+00  0.00000000E+00  0.00000000E+00
  0.00000000E+00  0.00000000E+00  0.00000000E+00
  0.00000000E+00  0.00000000E+00  0.00000000E+00
  0.00000000E+00  0.00000000E+00  0.00000000E+00
  0.00000000E+00  0.00000000E+00  0.00000000E+00
