Rb Sr Cl                                
   1.00000000000000     
    11.4048710000000000  -11.4048710000000000    0.0000000000000000
    11.4048710000000000   11.4048710000000000    0.0000000000000000
     0.0000000000000000    0.0000000000000000   22.8097420000000000
   Cl   Rb   Sr
    96    32    32
Direct
  0.9930778114710475  0.2907752352501758  0.9974780548398424
  0.0077132320275802  0.2094575194313243  0.2485976847467908
  0.0087529460977980  0.2926184371239468  0.4995489257347009
  0.0028406609736539  0.2054794151544281  0.7477578453926950
  0.4907556852573948  0.2060623162281683  0.0001900170357886
  0.5238422289062888  0.2885039092872989  0.2503545886299802
  0.5079962053528825  0.2073366732236123  0.5003608232145889
  0.5081967326579470  0.2954261556946536  0.7488872943378534
  0.2074049851754050  0.5076465402952229  0.0002077188515296
  0.2931198025926107  0.5129625783030015  0.2500506298617212
  0.2095748646942462  0.5068531218727744  0.5012859813957954
  0.2961942237132314  0.4808061241305046  0.7495009147162520
  0.0087576189891566  0.7063099072113493  0.9995142168491813
  0.0166796866375534  0.7891901804508320  0.2495934757195539
  0.0095662510351810  0.7041726715746185  0.5009035101106649
  0.0102329319826999  0.7947551043590778  0.7493768199203530
  0.7977824969301336  0.4957885689343420  0.9973317016772082
  0.7117978854248350  0.5051282497453173  0.2482777461398468
  0.7924434024390522  0.5147271714997890  0.4991019997022564
  0.7058878225471977  0.4912666181063517  0.7479255584290222
  0.5059022321781305  0.7955507861196109 -0.0000770389443755
  0.5055518607403522  0.7061636165195129  0.2497392646549790
  0.5159538140106936  0.7877778595389006  0.5005461391932567
  0.5105741299013005  0.7070796668661046  0.7495715840936860
  0.2944426415373396  0.0239959091155297 -0.0008527038989086
  0.2132659612672669  0.0066153902695755  0.2487967794754941
  0.2914406752029945  0.0192414173604613  0.4998141458208899
  0.2061818233043941  0.9910111913970703  0.7488630349164865
  0.7122995491707522  0.9816059652572757  0.0001277511240916
  0.7949810169606372  0.0163272645679707  0.2503566455011234
  0.7057717393321274  0.0012315056555857  0.5004674775424008
  0.7933113572391796  0.9887779390607738  0.7494388837353865
  0.1035003963786245  0.1019749802681159  0.1060099464072992
  0.1142153359586217  0.1141567848019099  0.3976788800432164
  0.1501185409293793  0.1525972445843163  0.6104118458169145
  0.1061593111288976  0.1083968402007406  0.8926504620987959
  0.6014643184193107  0.0997703539207534  0.1424829512632441
  0.6125586620394928  0.1089127469071861  0.3487152934666573
  0.6500595300782329  0.1509589820367331  0.6393387096514865
  0.6209092392608849  0.1235540876254471  0.8464223877933547
  0.3969471715598678  0.3932283436872079  0.0991799661238140
  0.3994602319006897  0.3962659965130998  0.3920966161143043
  0.3430725065453621  0.3432378748237577  0.6075848049451804
  0.3741153841852300  0.3728492440103301  0.9089550079127062
  0.1042693317400518  0.6021258445492260  0.1455977504137319
  0.1152218413530364  0.6146294467240888  0.3448452660580845
  0.1482855950812608  0.6473018892965010  0.6426069344285400
  0.1277819194968489  0.6245403956924430  0.8482721380063346
  0.9003215654841533  0.4004425070778286  0.1417363551833849
  0.8877264919788086  0.3860948453152280  0.3421952539914686
  0.8424135234742112  0.3452191768428764  0.6316921961739379
  0.8729431805146730  0.3764712214762540  0.8457581369865997
  0.6109752143121616  0.6132523683927831  0.0957648439663510
  0.6086925448378138  0.6058330644824742  0.3911237207168759
  0.6504780838210660  0.6522332002978097  0.6127198416441985
  0.6259062056452495  0.6271674143776371  0.9054139424099341
  0.4034865388003194  0.9041654012653331  0.1425887198420780
  0.3921669224854905  0.8925216381415365  0.3492424823619084
  0.3471572293279592  0.8487728822607132  0.6319249204010490
  0.3776333905194149  0.8782780910993389  0.8452008446065161
  0.9034915583346884  0.9021250709928020  0.1079847806864168
  0.8865140825935643  0.8838976966359340  0.4057864146986026
  0.8422141988231781  0.8422301029573468  0.6095320074197377
  0.8910859692040651  0.8912750145212903  0.8955825523430773
  0.8571208482603637  0.1445082798634254  0.0992722084557477
  0.8536029903820821  0.1469188583815955  0.3943203764131508
  0.8913366855265697  0.1049026783873045  0.5910291920895564
  0.8626768434614773  0.1363977395489692  0.8962463173822676
  0.3565052734883530  0.1487076105314306  0.1449794030170567
  0.3577431485265571  0.1450740953260648  0.3518204052619880
  0.3990413510855693  0.0996384589502918  0.6472018584055691
  0.3628613541389845  0.1373249501506337  0.8399435031467252
  0.1560615969022117  0.3448160352975836  0.1313310141108664
  0.1538022718536910  0.3488244682147785  0.3614843671581499
  0.0980423350116385  0.3966744568576374  0.6480779332512302
  0.1303541941976639  0.3689337535319248  0.8442857868187674
  0.8572448828422344  0.6453048535794443  0.1436388021367745
  0.8599865359634392  0.6421809718925963  0.3497675609710538
  0.9009397954674926  0.5972604207215465  0.6473724901944681
  0.8678383078511253  0.6353715586673148  0.8409654178205583
  0.6493090483269169  0.3559286077377827  0.0973487671020447
  0.6525422854711221  0.3502048140736423  0.3943171975639151
  0.5972149946114438  0.4015753657478501  0.6014000916321902
  0.6323194671582201  0.3691747927228203  0.8971781961971184
  0.3442516206304299  0.6549743176997980  0.1114261490724822
  0.3614930922602864  0.6403956952153076  0.4026373826673809
  0.3971710546814869  0.6002936742290840  0.6064912167482910
  0.3715662154833977  0.6270361052284990  0.9021843476360396
  0.1571859733059069  0.8447531173585602  0.1116373917672090
  0.1418604106196174  0.8602723969164575  0.4034286655935851
  0.1095714638087244  0.8878335895330486  0.5956649899368810
  0.1417903764729687  0.8602775582079953  0.8928214865694746
  0.6523152196033383  0.8476503572675818  0.1390830997303104
  0.6526882927694723  0.8461949707712335  0.3594856876801618
  0.6006750278880519  0.8992395902710723  0.6483335673918886
  0.6325520776012459  0.8661889871779408  0.8485263646084003
  0.9777147589670759  0.0236960382925974  0.9969280322968661
  0.0027496399783863  0.9997943694096694  0.2263256993325266
  0.0079286666599681 -0.0032549102966880  0.4934489376763840
 -0.0007220764733304  0.0003239705054928  0.7790449913444287
  0.5031866708801411  0.0014123676195311  0.0263944829313595
  0.4763798555589899  0.0263746317868249  0.2517037137957521
  0.4979247125275825  0.9983911600998296  0.5261710464728093
  0.4985859529818188  0.0027249967191658  0.7595155906650550
  0.2798641701068291  0.2480913565941833  0.0175210988226512
  0.2234851927432139  0.2254115031669222  0.2501959060562620
  0.2374314791488752  0.2404259067008646  0.4885915812636332
  0.2383920633931033  0.2585021683984689  0.7354459523722124
  0.0026173477547677  0.4988664683676816  0.0271252617900777
  0.9734379559706492  0.5273345347647549  0.2503564155833048
 -0.0000676739614128  0.4986256893128905  0.5290797797993765
  0.0024562123435059  0.5037436214340596  0.7605627739244989
  0.7745226011673081  0.2771885212647435  0.9923429134600987
  0.7454529094079588  0.2406497385166971  0.2768011913966935
  0.7419970329221793  0.2291645410729749  0.5126800511617594
  0.7267581487639487  0.2723701710863506  0.7553659926788648
  0.5071941849820206  0.4951827105727885  0.9906612881741547
  0.5011872929798225  0.4976396706321887  0.2723946596308582
  0.4954116362957643  0.5099090158013511  0.4946908451461106
  0.5008187286383826  0.5018648389803494  0.7224830405042367
  0.2282434683327209  0.7233146746482005  0.9938517443791471
  0.2282571682297611  0.7248907432678595  0.2369242843357504
  0.2288217256731188  0.7362929070247722  0.5140794737080560
  0.2253373665781802  0.7768299340997513  0.7557155838922660
  0.7148641158642971  0.7621030048937106  0.0065787396171109
  0.7232375987157195  0.7236694958289174  0.2496353952151308
  0.7365675411775344  0.7579250332099581  0.4899820846455236
  0.7347893988695742  0.7626799902613484  0.7360499715698257
  0.0003566595940242  0.2509579030573192  0.1232898206596527
  0.0001517535853993  0.2523152925800091  0.3749032482737485
  0.9953662280451550  0.2465181417317532  0.6237307370270965
 -0.0002027248182122  0.2520662895754175  0.8713478819221696
  0.5071684731844219  0.2531277770698684  0.1247975327723048
  0.5032278607296867  0.2484324506501840  0.3759903927956427
  0.4974768327113582  0.2500827322231474  0.6245665575264172
  0.4965696290017285  0.2498972890211168  0.8744814550753925
  0.2542450785098487  0.4980562919025917  0.1249280345268772
  0.2497861439891178  0.5013256189729122  0.3753568201306079
  0.2484116916346541  0.4968131965706273  0.6266036131544108
  0.2520380916050886  0.4961275735773369  0.8742415641008188
  0.0014023673668397  0.7523728399019317  0.1236412721953697
  0.0025618665707345  0.7505848334398516  0.3762292127853785
  0.9971998648206075  0.7498856493819711  0.6253987022430043
 -0.0006296702718206  0.7494911326502688  0.8743852811814357
  0.7491099134905523  0.5007895967644108  0.1217879690756633
  0.7541520010446634  0.4982286061915058  0.3755604723990345
  0.7494429902489408  0.5008302748937802  0.6230736612384481
  0.7504851326577552  0.5056463603751070  0.8726546450879447
  0.4969970889959391  0.7503741526127718  0.1249860952362963
  0.4980967038310143  0.7528022382589183  0.3749058944902124
  0.4983666026605514  0.7505210361855520  0.6256712267059104
  0.4983905310044138  0.7496465519357143  0.8744691257852198
  0.2517684711961898  0.9987552076739672  0.1225249310314413
  0.2516813527264345 -0.0020066635814470  0.3756951262544778
  0.2474229908218364  0.0009087963797356  0.6240003194402662
  0.2518387493734169  0.0031610366158952  0.8747142555508708
  0.7512067376651992  0.0003676386930927  0.1262854464468185
  0.7509405408541366  0.9970988981840569  0.3750916883812494
  0.7519828816323072 -0.0005880162792623  0.6253414472832978
  0.7473449907438302 -0.0002934826937417  0.8738953625525339
 
  0.00000000E+00  0.00000000E+00  0.00000000E+00
  0.00000000E+00  0.00000000E+00  0.00000000E+00
  0.00000000E+00  0.00000000E+00  0.00000000E+00
  0.00000000E+00  0.00000000E+00  0.00000000E+00
  0.00000000E+00  0.00000000E+00  0.00000000E+00
  0.00000000E+00  0.00000000E+00  0.00000000E+00
  0.00000000E+00  0.00000000E+00  0.00000000E+00
  0.00000000E+00  0.00000000E+00  0.00000000E+00
  0.00000000E+00  0.00000000E+00  0.00000000E+00
  0.00000000E+00  0.00000000E+00  0.00000000E+00
  0.00000000E+00  0.00000000E+00  0.00000000E+00
  0.00000000E+00  0.00000000E+00  0.00000000E+00
  0.00000000E+00  0.00000000E+00  0.00000000E+00
  0.00000000E+00  0.00000000E+00  0.00000000E+00
  0.00000000E+00  0.00000000E+00  0.00000000E+00
  0.00000000E+00  0.00000000E+00  0.00000000E+00
  0.00000000E+00  0.00000000E+00  0.00000000E+00
  0.00000000E+00  0.00000000E+00  0.00000000E+00
  0.00000000E+00  0.00000000E+00  0.00000000E+00
  0.00000000E+00  0.00000000E+00  0.00000000E+00
  0.00000000E+00  0.00000000E+00  0.00000000E+00
  0.00000000E+00  0.00000000E+00  0.00000000E+00
  0.00000000E+00  0.00000000E+00  0.00000000E+00
  0.00000000E+00  0.00000000E+00  0.00000000E+00
  0.00000000E+00  0.00000000E+00  0.00000000E+00
  0.00000000E+00  0.00000000E+00  0.00000000E+00
  0.00000000E+00  0.00000000E+00  0.00000000E+00
  0.00000000E+00  0.00000000E+00  0.00000000E+00
  0.00000000E+00  0.00000000E+00  0.00000000E+00
  0.00000000E+00  0.00000000E+00  0.00000000E+00
  0.00000000E+00  0.00000000E+00  0.00000000E+00
  0.00000000E+00  0.00000000E+00  0.00000000E+00
  0.00000000E+00  0.00000000E+00  0.00000000E+00
  0.00000000E+00  0.00000000E+00  0.00000000E+00
  0.00000000E+00  0.00000000E+00  0.00000000E+00
  0.00000000E+00  0.00000000E+00  0.00000000E+00
  0.00000000E+00  0.00000000E+00  0.00000000E+00
  0.00000000E+00  0.00000000E+00  0.00000000E+00
  0.00000000E+00  0.00000000E+00  0.00000000E+00
  0.00000000E+00  0.00000000E+00  0.00000000E+00
  0.00000000E+00  0.00000000E+00  0.00000000E+00
  0.00000000E+00  0.00000000E+00  0.00000000E+00
  0.00000000E+00  0.00000000E+00  0.00000000E+00
  0.00000000E+00  0.00000000E+00  0.00000000E+00
  0.00000000E+00  0.00000000E+00  0.00000000E+00
  0.00000000E+00  0.00000000E+00  0.00000000E+00
  0.00000000E+00  0.00000000E+00  0.00000000E+00
  0.00000000E+00  0.00000000E+00  0.00000000E+00
  0.00000000E+00  0.00000000E+00  0.00000000E+00
  0.00000000E+00  0.00000000E+00  0.00000000E+00
  0.00000000E+00  0.00000000E+00  0.00000000E+00
  0.00000000E+00  0.00000000E+00  0.00000000E+00
  0.00000000E+00  0.00000000E+00  0.00000000E+00
  0.00000000E+00  0.00000000E+00  0.00000000E+00
  0.00000000E+00  0.00000000E+00  0.00000000E+00
  0.00000000E+00  0.00000000E+00  0.00000000E+00
  0.00000000E+00  0.00000000E+00  0.00000000E+00
  0.00000000E+00  0.00000000E+00  0.00000000E+00
  0.00000000E+00  0.00000000E+00  0.00000000E+00
  0.00000000E+00  0.00000000E+00  0.00000000E+00
  0.00000000E+00  0.00000000E+00  0.00000000E+00
  0.00000000E+00  0.00000000E+00  0.00000000E+00
  0.00000000E+00  0.00000000E+00  0.00000000E+00
  0.00000000E+00  0.00000000E+00  0.00000000E+00
  0.00000000E+00  0.00000000E+00  0.00000000E+00
  0.00000000E+00  0.00000000E+00  0.00000000E+00
  0.00000000E+00  0.00000000E+00  0.00000000E+00
  0.00000000E+00  0.00000000E+00  0.00000000E+00
  0.00000000E+00  0.00000000E+00  0.00000000E+00
  0.00000000E+00  0.00000000E+00  0.00000000E+00
  0.00000000E+00  0.00000000E+00  0.00000000E+00
  0.00000000E+00  0.00000000E+00  0.00000000E+00
  0.00000000E+00  0.00000000E+00  0.00000000E+00
  0.00000000E+00  0.00000000E+00  0.00000000E+00
  0.00000000E+00  0.00000000E+00  0.00000000E+00
  0.00000000E+00  0.00000000E+00  0.00000000E+00
  0.00000000E+00  0.00000000E+00  0.00000000E+00
  0.00000000E+00  0.00000000E+00  0.00000000E+00
  0.00000000E+00  0.00000000E+00  0.00000000E+00
  0.00000000E+00  0.00000000E+00  0.00000000E+00
  0.00000000E+00  0.00000000E+00  0.00000000E+00
  0.00000000E+00  0.00000000E+00  0.00000000E+00
  0.00000000E+00  0.00000000E+00  0.00000000E+00
  0.00000000E+00  0.00000000E+00  0.00000000E+00
  0.00000000E+00  0.00000000E+00  0.00000000E+00
  0.00000000E+00  0.00000000E+00  0.00000000E+00
  0.00000000E+00  0.00000000E+00  0.00000000E+00
  0.00000000E+00  0.00000000E+00  0.00000000E+00
  0.00000000E+00  0.00000000E+00  0.00000000E+00
  0.00000000E+00  0.00000000E+00  0.00000000E+00
  0.00000000E+00  0.00000000E+00  0.00000000E+00
  0.00000000E+00  0.00000000E+00  0.00000000E+00
  0.00000000E+00  0.00000000E+00  0.00000000E+00
  0.00000000E+00  0.00000000E+00  0.00000000E+00
  0.00000000E+00  0.00000000E+00  0.00000000E+00
  0.00000000E+00  0.00000000E+00  0.00000000E+00
  0.00000000E+00  0.00000000E+00  0.00000000E+00
  0.00000000E+00  0.00000000E+00  0.00000000E+00
  0.00000000E+00  0.00000000E+00  0.00000000E+00
  0.00000000E+00  0.00000000E+00  0.00000000E+00
  0.00000000E+00  0.00000000E+00  0.00000000E+00
  0.00000000E+00  0.00000000E+00  0.00000000E+00
  0.00000000E+00  0.00000000E+00  0.00000000E+00
  0.00000000E+00  0.00000000E+00  0.00000000E+00
  0.00000000E+00  0.00000000E+00  0.00000000E+00
  0.00000000E+00  0.00000000E+00  0.00000000E+00
  0.00000000E+00  0.00000000E+00  0.00000000E+00
  0.00000000E+00  0.00000000E+00  0.00000000E+00
  0.00000000E+00  0.00000000E+00  0.00000000E+00
  0.00000000E+00  0.00000000E+00  0.00000000E+00
  0.00000000E+00  0.00000000E+00  0.00000000E+00
  0.00000000E+00  0.00000000E+00  0.00000000E+00
  0.00000000E+00  0.00000000E+00  0.00000000E+00
  0.00000000E+00  0.00000000E+00  0.00000000E+00
  0.00000000E+00  0.00000000E+00  0.00000000E+00
  0.00000000E+00  0.00000000E+00  0.00000000E+00
  0.00000000E+00  0.00000000E+00  0.00000000E+00
  0.00000000E+00  0.00000000E+00  0.00000000E+00
  0.00000000E+00  0.00000000E+00  0.00000000E+00
  0.00000000E+00  0.00000000E+00  0.00000000E+00
  0.00000000E+00  0.00000000E+00  0.00000000E+00
  0.00000000E+00  0.00000000E+00  0.00000000E+00
  0.00000000E+00  0.00000000E+00  0.00000000E+00
  0.00000000E+00  0.00000000E+00  0.00000000E+00
  0.00000000E+00  0.00000000E+00  0.00000000E+00
  0.00000000E+00  0.00000000E+00  0.00000000E+00
  0.00000000E+00  0.00000000E+00  0.00000000E+00
  0.00000000E+00  0.00000000E+00  0.00000000E+00
  0.00000000E+00  0.00000000E+00  0.00000000E+00
  0.00000000E+00  0.00000000E+00  0.00000000E+00
  0.00000000E+00  0.00000000E+00  0.00000000E+00
  0.00000000E+00  0.00000000E+00  0.00000000E+00
  0.00000000E+00  0.00000000E+00  0.00000000E+00
  0.00000000E+00  0.00000000E+00  0.00000000E+00
  0.00000000E+00  0.00000000E+00  0.00000000E+00
  0.00000000E+00  0.00000000E+00  0.00000000E+00
  0.00000000E+00  0.00000000E+00  0.00000000E+00
  0.00000000E+00  0.00000000E+00  0.00000000E+00
  0.00000000E+00  0.00000000E+00  0.00000000E+00
  0.00000000E+00  0.00000000E+00  0.00000000E+00
  0.00000000E+00  0.00000000E+00  0.00000000E+00
  0.00000000E+00  0.00000000E+00  0.00000000E+00
  0.00000000E+00  0.00000000E+00  0.00000000E+00
  0.00000000E+00  0.00000000E+00  0.00000000E+00
  0.00000000E+00  0.00000000E+00  0.00000000E+00
  0.00000000E+00  0.00000000E+00  0.00000000E+00
  0.00000000E+00  0.00000000E+00  0.00000000E+00
  0.00000000E+00  0.00000000E+00  0.00000000E+00
  0.00000000E+00  0.00000000E+00  0.00000000E+00
  0.00000000E+00  0.00000000E+00  0.00000000E+00
  0.00000000E+00  0.00000000E+00  0.00000000E+00
  0.00000000E+00  0.00000000E+00  0.00000000E+00
  0.00000000E+00  0.00000000E+00  0.00000000E+00
  0.00000000E+00  0.00000000E+00  0.00000000E+00
  0.00000000E+00  0.00000000E+00  0.00000000E+00
  0.00000000E+00  0.00000000E+00  0.00000000E+00
  0.00000000E+00  0.00000000E+00  0.00000000E+00
  0.00000000E+00  0.00000000E+00  0.00000000E+00
  0.00000000E+00  0.00000000E+00  0.00000000E+00
  0.00000000E+00  0.00000000E+00  0.00000000E+00
