Ag Sn Cl                                
   1.00000000000000     
    10.8894570000000002  -10.8894570000000002    0.0000000000000000
    10.8894570000000002   10.8894570000000002    0.0000000000000000
     0.0000000000000000    0.0000000000000000   21.7789140000000003
   Ag   Sn   Cl
    32    32    96
Direct
  0.0426268171849526  0.0894088493683628  0.9600341543381403
  0.0022324935324806  0.0709569388684042  0.2381588432014085
  0.0263332555838771  0.0708137520329803  0.5136439753108493
  0.9014912523854092  0.8426640646941239  0.8867881100759701
  0.4333782874331569  0.0303546060555610  0.9674128569035925
  0.5504664987877157  0.0484477898352529  0.2446265641345498
  0.6253799219939310  0.0445703182969901  0.4869570570324271
  0.4368573310290628  0.9918386206526371  0.6870073354055448
  0.2634798327592406  0.2708957886556586  0.0020991017863585
  0.1943859511895115  0.1193686240526246  0.1496774142810413
  0.2390976428641017  0.2135409775728758  0.4654081793802378
  0.3410703517496249  0.2843009518869539  0.7525984291776362
  0.8605807477379145  0.5004975206804375  0.9884977006249427
  0.9030304175012180  0.4992292711395964  0.3008936260332948
  0.1283477437112721  0.3504895261655313  0.5262081801485669
  0.9685926661945919  0.4957027758739578  0.7131337687609113
  0.7807495842315658  0.2783051477458813  0.9581402300774862
  0.7471609614361231  0.2945271353718247  0.2522407090689079
  0.7766377129286746  0.1087684714467984  0.5773280909217968
  0.8585530090165931  0.1234684827688407  0.7885842968762572
  0.4951734928615702  0.4729171959318859  0.9921804215444614
  0.4590296071912556  0.5365050662275068  0.2717085684019049
  0.5824959461388605  0.5741913989855171  0.4929995094189422
  0.4641307476407033  0.5217435338229099  0.6594631620218862
  0.2851398350584832  0.7038729409916172  0.9936195244828048
  0.2300765581877763  0.6873426893019690  0.2759405666727919
  0.2088554664988477  0.8300802568371340  0.5136269035600142
  0.2928132095787218  0.7777118120575055  0.7077322388632806
  0.8018650429665293  0.8356537712194427  0.0849929738272562
  0.8537650487473807  0.6568720808123421  0.2279453612291599
  0.8104578764331526  0.8653291331754295  0.5030317189794651
  0.8299171473814915  0.7629764122612090  0.7724662205618991
  0.9648188786987830  0.2474280867350527  0.1166050556379440
  0.9680753017051767  0.2397523353788877  0.3712740456674669
  0.0180494330415598  0.2497484136246587  0.6678902363600270
  0.0252651243462806  0.3463990851385004  0.8884485072775937
  0.4908641951650148  0.2425427991395936  0.1121250761782298
  0.4996007791933514  0.2161034931168454  0.3516262598245297
  0.5319904484096778  0.2461103321187860  0.6103277839876015
  0.5485347676846013  0.2521820943456676  0.8726214382748851
  0.2471143551538393  0.4858668799457510  0.1275736308766487
  0.2214558872531938  0.4409651085701593  0.3671525276030927
  0.2429237387506911  0.5529615662482169  0.6235051583983213
  0.2849663696194950  0.4843768189768576  0.8642223221685185
  0.0237594737553055  0.7134717356964695  0.0929171811798554
  0.0038344699985037  0.7306411830206991  0.3791410598766549
  0.0199115841631864  0.7507927783539333  0.6251535977856577
  0.0201971519715619  0.6277849096206880  0.8981005044498029
  0.7366043524787939  0.4947682356101509  0.1401142852823414
  0.6964721312489875  0.5292466306269493  0.3702032751168542
  0.7386319079022924  0.5003749376684032  0.6224921861529213
  0.6960535060723717  0.5801587595846834  0.8453810211173233
  0.5138414201910162  0.7262862170895084  0.0728516972717528
  0.4586820244869665  0.7745512014502638  0.3142911700933073
  0.5061565174574297  0.7492021587266804  0.5979341659622692
  0.4867654566361627  0.7997625071839087  0.8639953067774906
  0.2249550110614011  0.9669603613097877  0.0808301553638607
  0.2413472721195768  0.0028784710420145  0.3608496547232728
  0.2867502873960885  0.0362243555658123  0.5959111976393107
  0.2240128334843776  0.0625213588119504  0.8361802253649292
  0.7475897151821329  0.0189935748603269  0.1306446900097907
  0.7498841058449296  0.9955533601566898  0.3661826325687669
  0.7190303121121989  0.9625633896793522  0.6553513636376418
  0.7411865612700300  0.0135947467937444  0.9130380113729456
  0.9568544627416311  0.2259363850202915  0.9943488756098731
  0.0220707095142151  0.2471036297140811  0.2615785072174622
  0.0096685307703049  0.2422798527498839  0.5391936777446998
  0.9895237177888445  0.2324100941586165  0.8019294504994210
  0.5303913318847562  0.1770593355725937  0.9778200461693475
  0.4367362972118642  0.2193562869653504  0.2256443837954562
  0.5788756647963318  0.1907377636786909  0.4668067642249002
  0.4946055138975256  0.2208188190676592  0.7233115145723119
  0.2250760294032408  0.4233889681979702  0.9667047563692911
  0.3305197427606830  0.4524340656633876  0.2274851800193189
  0.2497553513371014  0.4427959039693733  0.4846133012595855
  0.1914814654456834  0.6515983796069112  0.7143674530392743
  0.0245527702146556  0.5338994888864459  0.0007845722616322
  0.9848393542391759  0.7371871289717513  0.2603100069854149
  0.9549042498756692  0.7972918565232764  0.5209311798448066
  0.9857773039193735  0.7779002659947899  0.8016596294829238
  0.7912972780514614  0.3807697243990369  0.0517649414872432
  0.7072115601497170  0.5975896009914217  0.2562118654299849
  0.6800738112928700  0.4450668270841815  0.5149778757418155
  0.8093480685104412  0.5666950038100405  0.7595913007542693
  0.5701333013072981  0.7273626905021113  0.9562198751141786
  0.4859593184532355  0.6846897395875758  0.2174306300079305
  0.4394330490493314  0.5999841291418594  0.5491890132942335
  0.3380699773155165  0.9174588975660859  0.7577138216742582
  0.1618054672231540  0.9733346513854007  0.9733774717167611
  0.1630147010199720  0.0252281903176418  0.2477277653185097
  0.3267887409510064  0.0270582976023199  0.4820583914747621
  0.2291569976151083  0.1633885602537077  0.7408098401836304
  0.7535814866369159  0.0976810271265875  0.0201020534829935
  0.7000326641346659  0.9469794886853835  0.2585301505428570
  0.8631731944957356  0.0434556670076458  0.4950833730191646
  0.7475242422547161  0.9951084935955481  0.7693817679871205
  0.9935117600210546  0.0824329450517805  0.1193651955857067
  0.1180746315199473  0.1022072272407748  0.4095948021638882
  0.2522657718912720  0.2019445805806972  0.5778078296542832
  0.1739851191330844  0.1915282935354969  0.9099655820362129
  0.5833699521697662  0.0501005508183302  0.1316765682602071
  0.6504771860187690  0.1760393888207035  0.3108423205004763
  0.6930795371747565  0.2209239953672308  0.6321853362300385
  0.7293114740820029  0.1946029598939329  0.8646861609865808
  0.4144031330322185  0.3859703434452979  0.0762386001143837
  0.2783061827458526  0.2783576134628153  0.3654085956974923
  0.3316232053909704  0.4403272966674651  0.7011079398268616
  0.3845642292445093  0.3375721455587856  0.8640669526350302
  0.1578085910323574  0.5995839682537706  0.1901690563067111
  0.1353478199899179  0.6256000594303550  0.3673462053807499
  0.1391792429199781  0.6831194485041635  0.5520796065326724
  0.1893438967837274  0.6441077180394265  0.9020116874288939
  0.8864709533300943  0.4413225124230968  0.1974525604148523
  0.8324465886540857  0.3400907502435514  0.3477902638448195
  0.8917888025246415  0.3557686565837013  0.6690850084033727
  0.8670950878143414  0.3985603635733461  0.8833801045427034
  0.5834972287600356  0.5737181524833315  0.0720638717016363
  0.6178188573564752  0.6699089061642644  0.4018068026211570
  0.6644856096112987  0.6506113399529102  0.6033137056589772
  0.6763727566692944  0.7377237485394470  0.8076059851241175
  0.3842377082213435  0.9433142744298053  0.0592377703489890
  0.3133134066854502  0.8334449062607154  0.2715528249812205
  0.3391320940069198  0.8310432896121781  0.5893164535860312
  0.3476272004581393  0.8237882983192123  0.9250943868742338
  0.9577505415618931  0.8628677716461391  0.1167335022296885
  0.8246217714895037  0.8497976424015440  0.3782454011605847
  0.8171873839509722  0.8312234418228205  0.6593079265068320
  0.7829093966856681  0.8616429102904067  0.9651892414851228
  0.7900615230907713  0.1694885302011694  0.1717456653414360
  0.8883699129977350  0.0727893322641212  0.3233623468381095
  0.9158503434891784  0.1164313064658112  0.6691887986843185
  0.9161624444716763  0.0250108863201606  0.8905271223474528
  0.3398237011690002  0.1703552459798981  0.0769299376394968
  0.4648952201101715  0.0494255706347841  0.3434148601248365
  0.5030666381162286  0.0759369590984068  0.6008290714650032
  0.3779598290816380  0.0976782746003856  0.8640800069019430
  0.1357107972179993  0.2658296345010534  0.1108357196379111
  0.0613756284825293  0.3921082934072022  0.3910273401205109
  0.1141550217036107  0.4476714106388521  0.6305993272913227
  0.0665743444486712  0.4706707663724778  0.8070003334288878
  0.8584354610490503  0.6576651078128767  0.1050436381783472
  0.9001008689493458  0.5944679351392023  0.3903924040537168
  0.9364776617142422  0.6095099499112675  0.6258884193436650
  0.8051828928392011  0.6315153911094400  0.9263961857551450
  0.6372851949223171  0.3744322319417993  0.1846765358631189
  0.5528336378131845  0.4492156116835537  0.3448149104534252
  0.6023901357443124  0.4367602957353677  0.6767827411177427
  0.6109010633898115  0.3873887616185261  0.9272430580516301
  0.3401299108668824  0.6115034124297073  0.0819989589528041
  0.3745907111418084  0.6480304361288161  0.3583493426213433
  0.4543751807529591  0.6859624463926145  0.7009280194363956
  0.4128342013654179  0.5662698279571373  0.9119977144842145
  0.2012496490822918  0.8059903364492245  0.0884248972387111
  0.1616445105834610  0.8687383655726937  0.4050070243989855
  0.1291532410862041  0.9747666416556886  0.5767820665125047
  0.0134301885020637  0.7640332248818072  0.9749204539627880
  0.6476416415082846  0.8059127647006923  0.1174262998701181
  0.6524430353240918  0.8964187810324975  0.5178911522409448
  0.5810882177377458  0.8811517380658942  0.6879309647559232
  0.5516278842648222  0.9457560251009907  0.8985307806318291
 
  0.00000000E+00  0.00000000E+00  0.00000000E+00
  0.00000000E+00  0.00000000E+00  0.00000000E+00
  0.00000000E+00  0.00000000E+00  0.00000000E+00
  0.00000000E+00  0.00000000E+00  0.00000000E+00
  0.00000000E+00  0.00000000E+00  0.00000000E+00
  0.00000000E+00  0.00000000E+00  0.00000000E+00
  0.00000000E+00  0.00000000E+00  0.00000000E+00
  0.00000000E+00  0.00000000E+00  0.00000000E+00
  0.00000000E+00  0.00000000E+00  0.00000000E+00
  0.00000000E+00  0.00000000E+00  0.00000000E+00
  0.00000000E+00  0.00000000E+00  0.00000000E+00
  0.00000000E+00  0.00000000E+00  0.00000000E+00
  0.00000000E+00  0.00000000E+00  0.00000000E+00
  0.00000000E+00  0.00000000E+00  0.00000000E+00
  0.00000000E+00  0.00000000E+00  0.00000000E+00
  0.00000000E+00  0.00000000E+00  0.00000000E+00
  0.00000000E+00  0.00000000E+00  0.00000000E+00
  0.00000000E+00  0.00000000E+00  0.00000000E+00
  0.00000000E+00  0.00000000E+00  0.00000000E+00
  0.00000000E+00  0.00000000E+00  0.00000000E+00
  0.00000000E+00  0.00000000E+00  0.00000000E+00
  0.00000000E+00  0.00000000E+00  0.00000000E+00
  0.00000000E+00  0.00000000E+00  0.00000000E+00
  0.00000000E+00  0.00000000E+00  0.00000000E+00
  0.00000000E+00  0.00000000E+00  0.00000000E+00
  0.00000000E+00  0.00000000E+00  0.00000000E+00
  0.00000000E+00  0.00000000E+00  0.00000000E+00
  0.00000000E+00  0.00000000E+00  0.00000000E+00
  0.00000000E+00  0.00000000E+00  0.00000000E+00
  0.00000000E+00  0.00000000E+00  0.00000000E+00
  0.00000000E+00  0.00000000E+00  0.00000000E+00
  0.00000000E+00  0.00000000E+00  0.00000000E+00
  0.00000000E+00  0.00000000E+00  0.00000000E+00
  0.00000000E+00  0.00000000E+00  0.00000000E+00
  0.00000000E+00  0.00000000E+00  0.00000000E+00
  0.00000000E+00  0.00000000E+00  0.00000000E+00
  0.00000000E+00  0.00000000E+00  0.00000000E+00
  0.00000000E+00  0.00000000E+00  0.00000000E+00
  0.00000000E+00  0.00000000E+00  0.00000000E+00
  0.00000000E+00  0.00000000E+00  0.00000000E+00
  0.00000000E+00  0.00000000E+00  0.00000000E+00
  0.00000000E+00  0.00000000E+00  0.00000000E+00
  0.00000000E+00  0.00000000E+00  0.00000000E+00
  0.00000000E+00  0.00000000E+00  0.00000000E+00
  0.00000000E+00  0.00000000E+00  0.00000000E+00
  0.00000000E+00  0.00000000E+00  0.00000000E+00
  0.00000000E+00  0.00000000E+00  0.00000000E+00
  0.00000000E+00  0.00000000E+00  0.00000000E+00
  0.00000000E+00  0.00000000E+00  0.00000000E+00
  0.00000000E+00  0.00000000E+00  0.00000000E+00
  0.00000000E+00  0.00000000E+00  0.00000000E+00
  0.00000000E+00  0.00000000E+00  0.00000000E+00
  0.00000000E+00  0.00000000E+00  0.00000000E+00
  0.00000000E+00  0.00000000E+00  0.00000000E+00
  0.00000000E+00  0.00000000E+00  0.00000000E+00
  0.00000000E+00  0.00000000E+00  0.00000000E+00
  0.00000000E+00  0.00000000E+00  0.00000000E+00
  0.00000000E+00  0.00000000E+00  0.00000000E+00
  0.00000000E+00  0.00000000E+00  0.00000000E+00
  0.00000000E+00  0.00000000E+00  0.00000000E+00
  0.00000000E+00  0.00000000E+00  0.00000000E+00
  0.00000000E+00  0.00000000E+00  0.00000000E+00
  0.00000000E+00  0.00000000E+00  0.00000000E+00
  0.00000000E+00  0.00000000E+00  0.00000000E+00
  0.00000000E+00  0.00000000E+00  0.00000000E+00
  0.00000000E+00  0.00000000E+00  0.00000000E+00
  0.00000000E+00  0.00000000E+00  0.00000000E+00
  0.00000000E+00  0.00000000E+00  0.00000000E+00
  0.00000000E+00  0.00000000E+00  0.00000000E+00
  0.00000000E+00  0.00000000E+00  0.00000000E+00
  0.00000000E+00  0.00000000E+00  0.00000000E+00
  0.00000000E+00  0.00000000E+00  0.00000000E+00
  0.00000000E+00  0.00000000E+00  0.00000000E+00
  0.00000000E+00  0.00000000E+00  0.00000000E+00
  0.00000000E+00  0.00000000E+00  0.00000000E+00
  0.00000000E+00  0.00000000E+00  0.00000000E+00
  0.00000000E+00  0.00000000E+00  0.00000000E+00
  0.00000000E+00  0.00000000E+00  0.00000000E+00
  0.00000000E+00  0.00000000E+00  0.00000000E+00
  0.00000000E+00  0.00000000E+00  0.00000000E+00
  0.00000000E+00  0.00000000E+00  0.00000000E+00
  0.00000000E+00  0.00000000E+00  0.00000000E+00
  0.00000000E+00  0.00000000E+00  0.00000000E+00
  0.00000000E+00  0.00000000E+00  0.00000000E+00
  0.00000000E+00  0.00000000E+00  0.00000000E+00
  0.00000000E+00  0.00000000E+00  0.00000000E+00
  0.00000000E+00  0.00000000E+00  0.00000000E+00
  0.00000000E+00  0.00000000E+00  0.00000000E+00
  0.00000000E+00  0.00000000E+00  0.00000000E+00
  0.00000000E+00  0.00000000E+00  0.00000000E+00
  0.00000000E+00  0.00000000E+00  0.00000000E+00
  0.00000000E+00  0.00000000E+00  0.00000000E+00
  0.00000000E+00  0.00000000E+00  0.00000000E+00
  0.00000000E+00  0.00000000E+00  0.00000000E+00
  0.00000000E+00  0.00000000E+00  0.00000000E+00
  0.00000000E+00  0.00000000E+00  0.00000000E+00
  0.00000000E+00  0.00000000E+00  0.00000000E+00
  0.00000000E+00  0.00000000E+00  0.00000000E+00
  0.00000000E+00  0.00000000E+00  0.00000000E+00
  0.00000000E+00  0.00000000E+00  0.00000000E+00
  0.00000000E+00  0.00000000E+00  0.00000000E+00
  0.00000000E+00  0.00000000E+00  0.00000000E+00
  0.00000000E+00  0.00000000E+00  0.00000000E+00
  0.00000000E+00  0.00000000E+00  0.00000000E+00
  0.00000000E+00  0.00000000E+00  0.00000000E+00
  0.00000000E+00  0.00000000E+00  0.00000000E+00
  0.00000000E+00  0.00000000E+00  0.00000000E+00
  0.00000000E+00  0.00000000E+00  0.00000000E+00
  0.00000000E+00  0.00000000E+00  0.00000000E+00
  0.00000000E+00  0.00000000E+00  0.00000000E+00
  0.00000000E+00  0.00000000E+00  0.00000000E+00
  0.00000000E+00  0.00000000E+00  0.00000000E+00
  0.00000000E+00  0.00000000E+00  0.00000000E+00
  0.00000000E+00  0.00000000E+00  0.00000000E+00
  0.00000000E+00  0.00000000E+00  0.00000000E+00
  0.00000000E+00  0.00000000E+00  0.00000000E+00
  0.00000000E+00  0.00000000E+00  0.00000000E+00
  0.00000000E+00  0.00000000E+00  0.00000000E+00
  0.00000000E+00  0.00000000E+00  0.00000000E+00
  0.00000000E+00  0.00000000E+00  0.00000000E+00
  0.00000000E+00  0.00000000E+00  0.00000000E+00
  0.00000000E+00  0.00000000E+00  0.00000000E+00
  0.00000000E+00  0.00000000E+00  0.00000000E+00
  0.00000000E+00  0.00000000E+00  0.00000000E+00
  0.00000000E+00  0.00000000E+00  0.00000000E+00
  0.00000000E+00  0.00000000E+00  0.00000000E+00
  0.00000000E+00  0.00000000E+00  0.00000000E+00
  0.00000000E+00  0.00000000E+00  0.00000000E+00
  0.00000000E+00  0.00000000E+00  0.00000000E+00
  0.00000000E+00  0.00000000E+00  0.00000000E+00
  0.00000000E+00  0.00000000E+00  0.00000000E+00
  0.00000000E+00  0.00000000E+00  0.00000000E+00
  0.00000000E+00  0.00000000E+00  0.00000000E+00
  0.00000000E+00  0.00000000E+00  0.00000000E+00
  0.00000000E+00  0.00000000E+00  0.00000000E+00
  0.00000000E+00  0.00000000E+00  0.00000000E+00
  0.00000000E+00  0.00000000E+00  0.00000000E+00
  0.00000000E+00  0.00000000E+00  0.00000000E+00
  0.00000000E+00  0.00000000E+00  0.00000000E+00
  0.00000000E+00  0.00000000E+00  0.00000000E+00
  0.00000000E+00  0.00000000E+00  0.00000000E+00
  0.00000000E+00  0.00000000E+00  0.00000000E+00
  0.00000000E+00  0.00000000E+00  0.00000000E+00
  0.00000000E+00  0.00000000E+00  0.00000000E+00
  0.00000000E+00  0.00000000E+00  0.00000000E+00
  0.00000000E+00  0.00000000E+00  0.00000000E+00
  0.00000000E+00  0.00000000E+00  0.00000000E+00
  0.00000000E+00  0.00000000E+00  0.00000000E+00
  0.00000000E+00  0.00000000E+00  0.00000000E+00
  0.00000000E+00  0.00000000E+00  0.00000000E+00
  0.00000000E+00  0.00000000E+00  0.00000000E+00
  0.00000000E+00  0.00000000E+00  0.00000000E+00
  0.00000000E+00  0.00000000E+00  0.00000000E+00
  0.00000000E+00  0.00000000E+00  0.00000000E+00
  0.00000000E+00  0.00000000E+00  0.00000000E+00
  0.00000000E+00  0.00000000E+00  0.00000000E+00
  0.00000000E+00  0.00000000E+00  0.00000000E+00
  0.00000000E+00  0.00000000E+00  0.00000000E+00
  0.00000000E+00  0.00000000E+00  0.00000000E+00
  0.00000000E+00  0.00000000E+00  0.00000000E+00
