Cs Br Cl                                
   1.00000000000000     
    10.8971090000000004  -10.8971090000000004    0.0000000000000000
    10.8971090000000004   10.8971090000000004    0.0000000000000000
     0.0000000000000000    0.0000000000000000   21.7942180000000008
   Br   Cl   Cs
    32    96    32
Direct
  0.9885299822968145  0.9860597374877320  0.0115986816205291
  0.0356488199291586  0.0106668930244915  0.2699755368257045
  0.0023649661100599  0.0083503363957311  0.5094952330854120
  0.9931606947883089  0.9934399920713851  0.7495827812884582
  0.5170357118927276  0.9786922343221346  0.9914310977554057
  0.4969090490708805  0.0015436903083723  0.2468704961886418
  0.4940176549447688  0.0250392503778780  0.4980239897128083
  0.4993300241031675  0.9929833866960720  0.7507706089379980
  0.2560967753298861  0.2390835467278569  0.0005888126617745
  0.2706612817919076  0.2874041083077326  0.2479501310788845
  0.2368105121383373  0.2468704936757015  0.4978876491500967
  0.2454206278879941  0.2416191311861466  0.7508596234222948
  0.0024812745343117  0.5091345063262843  0.0039870586061588
  0.9905408171431397  0.4974525530396999  0.2350091317660044
  0.9993093063604824  0.4871390262561257  0.5037203109856798
  0.9965413831346873  0.4955791524984363  0.7700947622777006
  0.7610706314537007  0.2630257110019815  0.0020457715599500
  0.7616416044847325  0.2374097279214484  0.2727553219295323
  0.7593340748044135  0.2477910790586103  0.5021770182700372
  0.7530569462206087  0.2501212991682456  0.7391619613855777
  0.5084243631426826  0.5120650669096151  0.9879687699426563
  0.5338449353246935  0.5063263461783878  0.2386509915884897
  0.4761818703894886  0.4859355729669537  0.4899280147917393
  0.4895432921757079  0.4938030756337680  0.7385011789130234
  0.2448278193948382  0.7485743643931070  0.0002266787949471
  0.2562057078275924  0.7371599223095063  0.2495531627440276
  0.2400206430880671  0.7676634607203193  0.4993192363898568
  0.2393299325664076  0.7449098250187918  0.7508184563136090
  0.7559155897803559  0.7375136276067049  0.0017029702193148
  0.7660321270100181  0.7783891543652840  0.2482824237156775
  0.7370296356647035  0.7496404178168585  0.4975425541703792
  0.7435766568775064  0.7384858510386544  0.7498915140041573
  0.1451831636009596  0.1298725034149223  0.0076734382636115
  0.1378536131825994  0.1210578903794050  0.2384729324432997
  0.0818425476589769  0.2449984778201409  0.4994474056628181
  0.1108962351878344  0.0930409838258125  0.7572651747967701
  0.6269995101433185  0.0961840839782957  0.9897046682179516
  0.6052605349358773  0.1143848013034162  0.2439744219129306
  0.6728852289506351  0.1736298411645966  0.4280600304424639
  0.6438525114153895  0.1357164161394224  0.7447989842039822
  0.3691384694505143  0.3460168630384838  0.9927169864674834
  0.4613998249016280  0.3779841071297633  0.2059018080285013
  0.3922369555196519  0.2496103647949688  0.4955777879063056
  0.3923704259516945  0.3760783558754895  0.7550644677094305
  0.0828731461617250  0.5862540714285540  0.9276267995246036
  0.0913796030764266  0.6172363079291227  0.2470601322534793
  0.1284881778397796  0.6545022750672569  0.5043557108096034
  0.1301370911745653  0.6352123689714443  0.7464244930245640
  0.9251449061032475  0.4299278917776406  0.0808167227629275
  0.8941006511706584  0.3759866059959029  0.2329794021139200
  0.8398319452456300  0.3243065713722683  0.5793892512668249
  0.8588465378402899  0.3625101285278154  0.7415547909958757
  0.6001605623025182  0.7397806161097477  0.9998738400281292
  0.6085830681080311  0.6355406667398933  0.2694380489826382
  0.6236258394321058  0.6418664384750586  0.4945313190790026
  0.5860851532476766  0.6137291075302882  0.7261453638557458
  0.4014624980872683  0.8744548618189095  0.9917486870614215
  0.3905934894854212  0.8854694812984272  0.2505410106470702
  0.3533731954653213  0.8759896305916494  0.4949144000109330
  0.3518501522508680  0.8553110518292155  0.7559394008782113
  0.9106370734772677  0.7365707052870065  0.0040852355007414
  0.9347818188623656  0.8997627914314434  0.2951702044694640
  0.8496215544808817  0.8555542213063542  0.5022383743501574
  0.8762157504701502  0.8917158506129279  0.7418654009486677
  0.8852522486721017  0.1046063561548921  0.0027283156536702
  0.8607292156638928  0.1209001879138434  0.2535228881208200
  0.9214298955684724  0.0870177775259329  0.5847539308366322
  0.8647112214144161  0.1428249324194483  0.7447097679385029
  0.3642632429744802  0.1258916566574072  0.9953396840691843
  0.3833134918660709  0.1065635059947512  0.2292494123688726
  0.2383074882139520  0.0918473904962933  0.4962281506153071
  0.3976747347266176  0.1089775355674773  0.7639452224815647
  0.1488529845467591  0.3503673696060035  0.0046440728952042
  0.1117882913475274  0.4005128488888541  0.2306981371847278
  0.2355807136381885  0.4022786357100544  0.5031017313027860
  0.1064482180733668  0.3881915139814599  0.7849584721546230
  0.7542650308192467  0.5829314076053053  0.0049044099400534
  0.8679907466143845  0.5970360551892788  0.2398025767615970
  0.8472237138055081  0.6339324257215307  0.5030669425623704
  0.8868173436004666  0.6006054200079288  0.7506603017899834
  0.6134062977601088  0.3971847251762211  0.9998421008668096
  0.6674079797144125  0.3582396446128734  0.2876722224939505
  0.5891199195561957  0.3830200460765311  0.4756249183384353
  0.6390469887673557  0.3584086559405719  0.7365087149989474
  0.3954005104885368  0.6181242681508619  0.9745533230524219
  0.3581582653692343  0.6193947552736283  0.2604950324492828
  0.3697056448531017  0.5991980081418852  0.5060824418921617
  0.3486667674185960  0.6329824620523274  0.7585746684505166
  0.0961836926219761  0.8759023237327687  0.0208788667399278
  0.1589771118003998  0.8552952276119054  0.2376239652937790
  0.0814450470640078  0.9248808313308307  0.4355194557339719
  0.1311834584523577  0.8545431473897548  0.7427275809069256
  0.7579464459256986  0.8935190792297423  0.9956109158185102
  0.6061235395636041  0.8942598960883805  0.2618908536315797
  0.6275275002557349  0.8640372106423222  0.4921882550974931
  0.5996408426705977  0.8766941472097528  0.7400962814968456
  0.9835941515274104  0.9980874071876671  0.1226038431201673
  0.9289934892060003  0.0861059185321575  0.4300665572582842
  0.0729443486787996  0.9284898463076930  0.5897206630471085
  0.9953826622389313  0.9811266632904032  0.8999750989089104
  0.5173846736234999  0.9803036339121579  0.1042729579736462
  0.4846471304520899  0.0405704988463295  0.3896512975843250
  0.4988690619415211  0.0052333133650548  0.6070464876789101
  0.5142824142606156  0.9815812505766738  0.8832331558387737
  0.2840730378985376  0.2662534500188274  0.1404938842398382
  0.2512798387144573  0.3026617188309122  0.3562555440286107
  0.2544375552484966  0.2508444035858437  0.6413490197795384
  0.2406156461220768  0.2325503549184482  0.8593394654048498
  0.0792223870882083  0.5864216630008173  0.0821615272349577
  0.9911441621236498  0.4887678557100400  0.3918144574092811
  0.0106225994070412  0.4896132045919598  0.6129042063112535
  0.9265882063756132  0.4280976738314099  0.9266629671360115
  0.7556946315992886  0.2558733277483197  0.1124217276240520
  0.8377952217411245  0.3244029051559276  0.4256931202025764
  0.6802912542162610  0.1754295990648624  0.5823003382360846
  0.7611632971561255  0.2625703670062872  0.8914981089353555
  0.5079865979404028  0.5373263536503209  0.0964092825289229
  0.4578866080830998  0.5020481056506967  0.3805738636467321
  0.4911197942869488  0.4741175280136591  0.5991538343369383
  0.5104524097540478  0.4894479943773001  0.8782923651228369
  0.2835861278192808  0.7306475463945030  0.1048199818182736
  0.2366641433378127  0.7629333531826094  0.3890617216094114
  0.2520678982884809  0.7644160939188355  0.6093701476668533
  0.2071672413660496  0.7724327153706639  0.8948336807796772
  0.7505615859407557  0.8046348103508443  0.1418335465613279
  0.7752500646707753  0.7507452506159932  0.3560919756705755
  0.7469781207332906  0.7394368090310840  0.6399926214659415
  0.7394038870653142  0.7390819795878347  0.8584374043225568
  0.0049371020669390  0.2298545837017470  0.1284769830767724
  0.0204265702678361  0.2548416155835694  0.3443836662243688
  0.0284646599917529  0.2619984265239651  0.6556442776281268
  0.0028330253931232  0.2252834503235518  0.8779509806282726
  0.5155750908238610  0.2220818396422309  0.1051325187094421
  0.4829558640684602  0.2647395385605907  0.3476824838181120
  0.4853651100152249  0.2406654981537630  0.6403571041300181
  0.5175669869285554  0.2444380307670100  0.8707364238651721
  0.2817478407927522  0.4966521369497034  0.1303267437173317
  0.2221203221773260  0.5251619643456179  0.3707675299039250
  0.2495548266177448  0.4952729246016722  0.6447142438480262
  0.2677212593323335  0.4811940775907972  0.8747108504953576
  0.9809883569092458  0.7709835766280068  0.1554673872649328
  0.9961405886757912  0.7243721133173391  0.3815081924065372
  0.9838922690122228  0.7258090747347198  0.6282648962962406
  0.9818862842103142  0.7574961321118838  0.8530514879913467
  0.7226707243125527  0.4760954669261440  0.1456860817784646
  0.7485034621426285  0.5206536818764043  0.3755898769998644
  0.7368967123548367  0.5110022301473389  0.6254624508683684
  0.7384886153711077  0.4992394150804281  0.8531966730210337
  0.5090582992540265  0.7528377754571236  0.1455200025486917
  0.4780497150232662  0.7467042047638263  0.3767993180275111
  0.4895914549420214  0.7595809144294307  0.6176312129132764
  0.5011309236619620  0.7425560698096937  0.8555868250975819
  0.2598949412688230  0.9765372439499380  0.1199792554301416
  0.2573356777788028  0.0043363856832223  0.3512226941428742
  0.2698153487411440  0.0072683098636177  0.6443798891589901
  0.2491133683338776  0.9942179838276527  0.8742758846244154
  0.7484846462740576  0.0266034155506004  0.1292488164712459
  0.7496716565701055  0.9832776009261117  0.3675554898142732
  0.7336462365448974  0.9713786070154490  0.6276769178499210
  0.7542882705656238  0.0053997936542406  0.8583817491131761
 
  0.00000000E+00  0.00000000E+00  0.00000000E+00
  0.00000000E+00  0.00000000E+00  0.00000000E+00
  0.00000000E+00  0.00000000E+00  0.00000000E+00
  0.00000000E+00  0.00000000E+00  0.00000000E+00
  0.00000000E+00  0.00000000E+00  0.00000000E+00
  0.00000000E+00  0.00000000E+00  0.00000000E+00
  0.00000000E+00  0.00000000E+00  0.00000000E+00
  0.00000000E+00  0.00000000E+00  0.00000000E+00
  0.00000000E+00  0.00000000E+00  0.00000000E+00
  0.00000000E+00  0.00000000E+00  0.00000000E+00
  0.00000000E+00  0.00000000E+00  0.00000000E+00
  0.00000000E+00  0.00000000E+00  0.00000000E+00
  0.00000000E+00  0.00000000E+00  0.00000000E+00
  0.00000000E+00  0.00000000E+00  0.00000000E+00
  0.00000000E+00  0.00000000E+00  0.00000000E+00
  0.00000000E+00  0.00000000E+00  0.00000000E+00
  0.00000000E+00  0.00000000E+00  0.00000000E+00
  0.00000000E+00  0.00000000E+00  0.00000000E+00
  0.00000000E+00  0.00000000E+00  0.00000000E+00
  0.00000000E+00  0.00000000E+00  0.00000000E+00
  0.00000000E+00  0.00000000E+00  0.00000000E+00
  0.00000000E+00  0.00000000E+00  0.00000000E+00
  0.00000000E+00  0.00000000E+00  0.00000000E+00
  0.00000000E+00  0.00000000E+00  0.00000000E+00
  0.00000000E+00  0.00000000E+00  0.00000000E+00
  0.00000000E+00  0.00000000E+00  0.00000000E+00
  0.00000000E+00  0.00000000E+00  0.00000000E+00
  0.00000000E+00  0.00000000E+00  0.00000000E+00
  0.00000000E+00  0.00000000E+00  0.00000000E+00
  0.00000000E+00  0.00000000E+00  0.00000000E+00
  0.00000000E+00  0.00000000E+00  0.00000000E+00
  0.00000000E+00  0.00000000E+00  0.00000000E+00
  0.00000000E+00  0.00000000E+00  0.00000000E+00
  0.00000000E+00  0.00000000E+00  0.00000000E+00
  0.00000000E+00  0.00000000E+00  0.00000000E+00
  0.00000000E+00  0.00000000E+00  0.00000000E+00
  0.00000000E+00  0.00000000E+00  0.00000000E+00
  0.00000000E+00  0.00000000E+00  0.00000000E+00
  0.00000000E+00  0.00000000E+00  0.00000000E+00
  0.00000000E+00  0.00000000E+00  0.00000000E+00
  0.00000000E+00  0.00000000E+00  0.00000000E+00
  0.00000000E+00  0.00000000E+00  0.00000000E+00
  0.00000000E+00  0.00000000E+00  0.00000000E+00
  0.00000000E+00  0.00000000E+00  0.00000000E+00
  0.00000000E+00  0.00000000E+00  0.00000000E+00
  0.00000000E+00  0.00000000E+00  0.00000000E+00
  0.00000000E+00  0.00000000E+00  0.00000000E+00
  0.00000000E+00  0.00000000E+00  0.00000000E+00
  0.00000000E+00  0.00000000E+00  0.00000000E+00
  0.00000000E+00  0.00000000E+00  0.00000000E+00
  0.00000000E+00  0.00000000E+00  0.00000000E+00
  0.00000000E+00  0.00000000E+00  0.00000000E+00
  0.00000000E+00  0.00000000E+00  0.00000000E+00
  0.00000000E+00  0.00000000E+00  0.00000000E+00
  0.00000000E+00  0.00000000E+00  0.00000000E+00
  0.00000000E+00  0.00000000E+00  0.00000000E+00
  0.00000000E+00  0.00000000E+00  0.00000000E+00
  0.00000000E+00  0.00000000E+00  0.00000000E+00
  0.00000000E+00  0.00000000E+00  0.00000000E+00
  0.00000000E+00  0.00000000E+00  0.00000000E+00
  0.00000000E+00  0.00000000E+00  0.00000000E+00
  0.00000000E+00  0.00000000E+00  0.00000000E+00
  0.00000000E+00  0.00000000E+00  0.00000000E+00
  0.00000000E+00  0.00000000E+00  0.00000000E+00
  0.00000000E+00  0.00000000E+00  0.00000000E+00
  0.00000000E+00  0.00000000E+00  0.00000000E+00
  0.00000000E+00  0.00000000E+00  0.00000000E+00
  0.00000000E+00  0.00000000E+00  0.00000000E+00
  0.00000000E+00  0.00000000E+00  0.00000000E+00
  0.00000000E+00  0.00000000E+00  0.00000000E+00
  0.00000000E+00  0.00000000E+00  0.00000000E+00
  0.00000000E+00  0.00000000E+00  0.00000000E+00
  0.00000000E+00  0.00000000E+00  0.00000000E+00
  0.00000000E+00  0.00000000E+00  0.00000000E+00
  0.00000000E+00  0.00000000E+00  0.00000000E+00
  0.00000000E+00  0.00000000E+00  0.00000000E+00
  0.00000000E+00  0.00000000E+00  0.00000000E+00
  0.00000000E+00  0.00000000E+00  0.00000000E+00
  0.00000000E+00  0.00000000E+00  0.00000000E+00
  0.00000000E+00  0.00000000E+00  0.00000000E+00
  0.00000000E+00  0.00000000E+00  0.00000000E+00
  0.00000000E+00  0.00000000E+00  0.00000000E+00
  0.00000000E+00  0.00000000E+00  0.00000000E+00
  0.00000000E+00  0.00000000E+00  0.00000000E+00
  0.00000000E+00  0.00000000E+00  0.00000000E+00
  0.00000000E+00  0.00000000E+00  0.00000000E+00
  0.00000000E+00  0.00000000E+00  0.00000000E+00
  0.00000000E+00  0.00000000E+00  0.00000000E+00
  0.00000000E+00  0.00000000E+00  0.00000000E+00
  0.00000000E+00  0.00000000E+00  0.00000000E+00
  0.00000000E+00  0.00000000E+00  0.00000000E+00
  0.00000000E+00  0.00000000E+00  0.00000000E+00
  0.00000000E+00  0.00000000E+00  0.00000000E+00
  0.00000000E+00  0.00000000E+00  0.00000000E+00
  0.00000000E+00  0.00000000E+00  0.00000000E+00
  0.00000000E+00  0.00000000E+00  0.00000000E+00
  0.00000000E+00  0.00000000E+00  0.00000000E+00
  0.00000000E+00  0.00000000E+00  0.00000000E+00
  0.00000000E+00  0.00000000E+00  0.00000000E+00
  0.00000000E+00  0.00000000E+00  0.00000000E+00
  0.00000000E+00  0.00000000E+00  0.00000000E+00
  0.00000000E+00  0.00000000E+00  0.00000000E+00
  0.00000000E+00  0.00000000E+00  0.00000000E+00
  0.00000000E+00  0.00000000E+00  0.00000000E+00
  0.00000000E+00  0.00000000E+00  0.00000000E+00
  0.00000000E+00  0.00000000E+00  0.00000000E+00
  0.00000000E+00  0.00000000E+00  0.00000000E+00
  0.00000000E+00  0.00000000E+00  0.00000000E+00
  0.00000000E+00  0.00000000E+00  0.00000000E+00
  0.00000000E+00  0.00000000E+00  0.00000000E+00
  0.00000000E+00  0.00000000E+00  0.00000000E+00
  0.00000000E+00  0.00000000E+00  0.00000000E+00
  0.00000000E+00  0.00000000E+00  0.00000000E+00
  0.00000000E+00  0.00000000E+00  0.00000000E+00
  0.00000000E+00  0.00000000E+00  0.00000000E+00
  0.00000000E+00  0.00000000E+00  0.00000000E+00
  0.00000000E+00  0.00000000E+00  0.00000000E+00
  0.00000000E+00  0.00000000E+00  0.00000000E+00
  0.00000000E+00  0.00000000E+00  0.00000000E+00
  0.00000000E+00  0.00000000E+00  0.00000000E+00
  0.00000000E+00  0.00000000E+00  0.00000000E+00
  0.00000000E+00  0.00000000E+00  0.00000000E+00
  0.00000000E+00  0.00000000E+00  0.00000000E+00
  0.00000000E+00  0.00000000E+00  0.00000000E+00
  0.00000000E+00  0.00000000E+00  0.00000000E+00
  0.00000000E+00  0.00000000E+00  0.00000000E+00
  0.00000000E+00  0.00000000E+00  0.00000000E+00
  0.00000000E+00  0.00000000E+00  0.00000000E+00
  0.00000000E+00  0.00000000E+00  0.00000000E+00
  0.00000000E+00  0.00000000E+00  0.00000000E+00
  0.00000000E+00  0.00000000E+00  0.00000000E+00
  0.00000000E+00  0.00000000E+00  0.00000000E+00
  0.00000000E+00  0.00000000E+00  0.00000000E+00
  0.00000000E+00  0.00000000E+00  0.00000000E+00
  0.00000000E+00  0.00000000E+00  0.00000000E+00
  0.00000000E+00  0.00000000E+00  0.00000000E+00
  0.00000000E+00  0.00000000E+00  0.00000000E+00
  0.00000000E+00  0.00000000E+00  0.00000000E+00
  0.00000000E+00  0.00000000E+00  0.00000000E+00
  0.00000000E+00  0.00000000E+00  0.00000000E+00
  0.00000000E+00  0.00000000E+00  0.00000000E+00
  0.00000000E+00  0.00000000E+00  0.00000000E+00
  0.00000000E+00  0.00000000E+00  0.00000000E+00
  0.00000000E+00  0.00000000E+00  0.00000000E+00
  0.00000000E+00  0.00000000E+00  0.00000000E+00
  0.00000000E+00  0.00000000E+00  0.00000000E+00
  0.00000000E+00  0.00000000E+00  0.00000000E+00
  0.00000000E+00  0.00000000E+00  0.00000000E+00
  0.00000000E+00  0.00000000E+00  0.00000000E+00
  0.00000000E+00  0.00000000E+00  0.00000000E+00
  0.00000000E+00  0.00000000E+00  0.00000000E+00
  0.00000000E+00  0.00000000E+00  0.00000000E+00
  0.00000000E+00  0.00000000E+00  0.00000000E+00
  0.00000000E+00  0.00000000E+00  0.00000000E+00
  0.00000000E+00  0.00000000E+00  0.00000000E+00
  0.00000000E+00  0.00000000E+00  0.00000000E+00
  0.00000000E+00  0.00000000E+00  0.00000000E+00
  0.00000000E+00  0.00000000E+00  0.00000000E+00
  0.00000000E+00  0.00000000E+00  0.00000000E+00
  0.00000000E+00  0.00000000E+00  0.00000000E+00
