Na Cl Cd                                
   1.00000000000000     
    10.4490370000000006  -10.4490370000000006    0.0000000000000000
    10.4490370000000006   10.4490370000000006    0.0000000000000000
     0.0000000000000000    0.0000000000000000   20.8980749999999986
   Cd   Cl   Na
    32    96    32
Direct
  0.0168448475216087  0.0084712987223723  0.0055921672295211
  0.9997530304237868  0.9678987338009073  0.2321312846549443
  0.0159349429552704  0.0061462026620185  0.5171450754021033
  0.9960259903599127  0.9864600193375680  0.7448802205235712
  0.5230964027660238  0.0347660466546536  0.9766242971516442
  0.5117091531516581  0.9861248888434224  0.2837488423427843
  0.4834811840719934  0.9796764768232156  0.5076986972768058
  0.4934809669028147 -0.0049993749268685  0.7490510938386555
  0.2553913310655271  0.2567676500824206  0.9891812707938882
  0.2903829735038846  0.2943420166929618  0.2196761919551708
  0.2685630253800712  0.2232165029735565  0.5158467043484519
  0.2413030075541653  0.2184853840995107  0.7428407246601237
  0.0012099224986583  0.4745357119658554  0.9869146097248954
  0.9344326181833602  0.5610077639191027  0.2780752178456479
  0.9784123170768484  0.4841044034530485  0.5091678886973788
  0.0031763947174745  0.4492488827231705  0.7221770548859715
  0.7670438542987110  0.2615235990509497  0.9928845322381301
  0.7863326522937844  0.2808411029196141  0.2136632626004718
  0.6641240253998312  0.2202774122722862  0.5039119906627424
  0.7591357964647723  0.2288848328466841  0.7606668856574538
  0.5027849752024171  0.4996871434735355  0.9955215496172632
  0.4831248134720771  0.5289800412414344  0.2189753036219698
  0.4605647510838728  0.4848511689811510  0.4962261173622900
  0.5050093331205294  0.5214080736636313  0.7590844187686004
  0.2421272550979187  0.7592358925518098  0.9987709696079979
  0.2095512341088767  0.7197897627899070  0.2385825386197984
  0.2709265429412012  0.7287856960482735  0.5140157668780293
  0.2587643902467853  0.7563975951652029  0.7562108837017970
  0.7435414526858385  0.7711055989532697  0.9782228132169950
  0.7447427454441702  0.7909071669676616  0.2577387095522373
  0.7243436338771315  0.7571233474271188  0.4705503691410405
  0.7326728942164147  0.7991213237223916  0.7670246635318048
  0.1764741969923160  0.0964321943605367  0.0268883998568290
  0.1170872696486180  0.0738687958834030  0.2658984699211696
  0.1471624782752547  0.1093054702253732  0.5618943162656571
  0.1530401935244895  0.0668552990231596  0.7311474635198416
  0.6555260664829495  0.1321083657069600  0.9367903540065787
  0.6179518873072249  0.1128350715315823  0.2847052384383129
  0.6424541510291927  0.0557951532847730  0.4689932176138362
  0.6692547548859321  0.0811414647453835  0.7721759579468636
  0.3415279090871847  0.4082407370966495  0.9589426390676856
  0.4052946440256542  0.3947213236588863  0.2784086712998060
  0.3161983064562289  0.3915571395940126  0.4776590014669879
  0.3677318781086935  0.4265213639149977  0.7658649520829593
  0.1581622037511205  0.6157500666061331  0.9543077021003258
  0.1071892148357885  0.5790204560419759  0.2765994742029501
  0.1474795604582807  0.6509058640668995  0.4530201711874840
  0.1811368759855644  0.6026439054151994  0.7761701451699363
  0.8385149354929241  0.4162254600764287  0.0273366615442040
  0.8876325303431898  0.4242229609390826  0.1995900832434259
  0.8344969131858199  0.3910266631057240  0.5359838734234330
  0.8653349625874818  0.3430570284328467  0.6969319188625281
  0.6432330306206752  0.5985519514137876  0.0178368072497208
  0.6342892679886173  0.5950933967799552  0.2184962580767082
  0.6813998057655546  0.6069287494592833  0.5171319607727062
  0.6449180351670062  0.5750736757103532  0.7083041288137882
  0.3536076419497604  0.8878078809765725  0.0310375974984451
  0.4104743318713608  0.9183225832193063  0.2022921707325871
  0.3238767275079846  0.8924233621067429  0.5271328630979205
  0.3444016250353668  0.8951655373876197  0.7143448192613935
  0.8261929354054098  0.9244559237857859  0.9832824739214546
  0.8435369063467317  0.9407875859792193  0.2787635587246803
  0.8321890614869795  0.8797247608392733  0.4970577102473144
  0.8664102890718922  0.8967306863785484  0.8027211371194293
  0.9060333424924036  0.1550147155231480  0.9679908473387548
  0.8872564455819357  0.1911443150742977  0.2814411907038852
  0.9213477221909275  0.1368722574063747  0.4679297544971558
  0.9097106789713572  0.1392778556770315  0.7872384112912437
  0.4040483651957492  0.1680530870970990  0.0183861195917684
  0.3913231641330606  0.1656604292296238  0.1989316045648472
  0.4253216115667881  0.1455483926406745  0.5329620047258149
  0.4115496146702183  0.1487543940232665  0.7394625636888088
  0.0923729967194762  0.3291585972401704  0.9666054560006117
  0.1487211183322031  0.3337989976264859  0.2776337023003877
  0.0758777488503913  0.3730005614951399  0.4527462959100875
  0.1044807376477848  0.3369305888798780  0.7775327589831925
  0.8623749848352154  0.6724909334318098  0.0280820373798070
  0.8675602435556742  0.6722766956307084  0.2026901938364072
  0.9322276076934518  0.6407793123779635  0.5348721979072580
  0.9379448494422521  0.6033241552146292  0.7279613778360317
  0.5969225443450037  0.3402043213380113  0.0107241038824387
  0.6301819562336050  0.3409723220500525  0.2117210293355710
  0.5745692219641400  0.3464183330628033  0.5564631660137839
  0.6145767613331599  0.3212353227381705  0.7352339939195977
  0.3961147050329490  0.6443796216465509  0.9717163058836058
  0.3706252523447298  0.6408631535685513  0.2656218699107767
  0.3981062086493616  0.6492635801355630  0.4538939114896625
  0.4157714932087211  0.6698495768196324  0.7898068545146882
  0.0866001842974099  0.8442992751477892  0.0191318551029358
  0.0633518173433747  0.8125890792600968  0.2053901652701545
  0.0825395184031742  0.8571514543420683  0.5679261482012155
  0.0848086805786542  0.8267938784585667  0.7432674676424419
  0.5875562134535365  0.8471520482612779  0.9794831488783133
  0.5946542124655826  0.8376240758526474  0.3162098175768968
  0.5666836373256545  0.8208271500115675  0.5036262787153141
  0.5743268744164830  0.8559317042986687  0.7951466879761971
  0.9482354920692960  0.0209772542912908  0.1185840063866461
  0.0501179498680123  0.9391308277726352  0.4076557246554148
  0.9279650469870162  0.0264089172231555  0.6318429371030879
  0.0567937323415127  0.0091910771785558  0.8862743057233856
  0.5676033051548636  0.0335268861097637  0.0922783180311395
  0.4173617690078026  0.9798381808567810  0.3871388065613485
  0.5501481927227204 -0.0034179994942640  0.6296384559049877
  0.4327974467052951 -0.0006739311752316  0.8794129488916355
  0.2244924239662470  0.3334309523692275  0.1088251907345650
  0.2288705552467598  0.1751702627683177  0.4038928906409884
  0.2694927940635028  0.2946147625232742  0.6356806805567232
  0.2429833222805705  0.1919051679036675  0.8677388908786879
  0.0560998486377774  0.5259621231889551  0.0934123459026295
  0.8935333596398327  0.4923389339181806  0.3800171792007946
  0.0862004782347255  0.4722352035790175  0.6157833456627769
  0.9416316550005250  0.5234057060218533  0.8833244744132130
  0.7554831729586564  0.1911277338790066  0.1086515063516421
  0.7144295165018595  0.2764705388586674  0.3980608857897313
  0.7306732401316421  0.1721164774846308  0.6105888554461441
  0.7686847901523481  0.3215602673346639  0.8719941544820654
  0.4291351284027534  0.4784943794976322  0.1091589844313667
  0.5537300556712926  0.4635814734914380  0.3984557798835124
  0.4465809799672389  0.5450184179725812  0.6082246975651137
  0.5654873830074225  0.4840434226314339  0.8754546802735353
  0.2380304836931816  0.6868461996003232  0.1189929499580256
  0.2475815531702215  0.8179056720757478  0.3313324184836830
  0.2399040854883847  0.6847631238494958  0.6297119880268136
  0.2610061494492407  0.8200101379090579  0.8775773007667429
  0.6969811105350850  0.8319201593098617  0.1455537004530454
  0.7923279738924377  0.7121985905659037  0.3619568285728759
  0.7301444290483400  0.7977720846225927  0.6503415311067273
  0.7461106359021926  0.6967681748969011  0.8643714591613969
  0.0613467548631839  0.3752420740427252  0.1675676020582589
  0.0515258505363752  0.2146039719045287  0.3676936894778728
  0.9052441739860508  0.2246922502321639  0.5840716299317457
  0.0403179781019034  0.2038678445576198  0.8732413030915893
  0.5455721490063536  0.2255705395069789  0.1160092977390864
  0.5566221660232995  0.2970037141664764  0.3266072792949103
  0.5290121185697378  0.2032553744063987  0.6465659610039997
  0.5813839470263861  0.2978076909585400  0.8749139135860295
  0.2537149524967574  0.5186012823183208  0.0549235192273663
  0.1935967804045685  0.4848173266775324  0.3900453650249180
  0.2711509475721554  0.4934816777061967  0.6594764239916034
  0.3007283014951412  0.5472506331627873  0.8691410748055202
  0.0134976501644599  0.7154711439622814  0.0981981465205931
  0.0033005338802621  0.7770266989577064  0.4612288956881809
  0.0440775400424679  0.6939988154120394  0.6376189123619296
  0.0328698672344877  0.6725667737338621  0.8347236363408898
  0.7595985595194179  0.5629550064312958  0.1173466941394739
  0.7291166013303284  0.4648400607733281  0.4371432794199244
  0.7107487186902949  0.4280346208276870  0.6389826052696861
  0.7550353581093715  0.5147496747749896  0.9193157073298289
  0.5159829466831654  0.8498726229210100  0.1051180891799223
  0.4241649379913505  0.7711315193990160  0.3541151980795681
  0.5811487720572787  0.6885684563694447  0.6102295741574142
  0.4521201333348420  0.7920971735300415  0.8928858846688468
  0.3278316734154445  0.0395607389634274  0.1094839070718278
  0.2182942042614947  0.9959779846911111  0.3660780541939597
  0.2169773792458585  0.9591479262134717  0.6278124312931410
  0.2430538754279858  0.0069817828309151  0.9051798949978777
  0.7611644332581039  0.9967105127705954  0.0980119624313413
  0.7790446361255605  0.0921243794800870  0.3656070922894622
  0.7401992451719782  0.9749014224546012  0.5962937537889536
  0.8054881920321204  0.0416406976391455  0.8787763658270492
 
  0.00000000E+00  0.00000000E+00  0.00000000E+00
  0.00000000E+00  0.00000000E+00  0.00000000E+00
  0.00000000E+00  0.00000000E+00  0.00000000E+00
  0.00000000E+00  0.00000000E+00  0.00000000E+00
  0.00000000E+00  0.00000000E+00  0.00000000E+00
  0.00000000E+00  0.00000000E+00  0.00000000E+00
  0.00000000E+00  0.00000000E+00  0.00000000E+00
  0.00000000E+00  0.00000000E+00  0.00000000E+00
  0.00000000E+00  0.00000000E+00  0.00000000E+00
  0.00000000E+00  0.00000000E+00  0.00000000E+00
  0.00000000E+00  0.00000000E+00  0.00000000E+00
  0.00000000E+00  0.00000000E+00  0.00000000E+00
  0.00000000E+00  0.00000000E+00  0.00000000E+00
  0.00000000E+00  0.00000000E+00  0.00000000E+00
  0.00000000E+00  0.00000000E+00  0.00000000E+00
  0.00000000E+00  0.00000000E+00  0.00000000E+00
  0.00000000E+00  0.00000000E+00  0.00000000E+00
  0.00000000E+00  0.00000000E+00  0.00000000E+00
  0.00000000E+00  0.00000000E+00  0.00000000E+00
  0.00000000E+00  0.00000000E+00  0.00000000E+00
  0.00000000E+00  0.00000000E+00  0.00000000E+00
  0.00000000E+00  0.00000000E+00  0.00000000E+00
  0.00000000E+00  0.00000000E+00  0.00000000E+00
  0.00000000E+00  0.00000000E+00  0.00000000E+00
  0.00000000E+00  0.00000000E+00  0.00000000E+00
  0.00000000E+00  0.00000000E+00  0.00000000E+00
  0.00000000E+00  0.00000000E+00  0.00000000E+00
  0.00000000E+00  0.00000000E+00  0.00000000E+00
  0.00000000E+00  0.00000000E+00  0.00000000E+00
  0.00000000E+00  0.00000000E+00  0.00000000E+00
  0.00000000E+00  0.00000000E+00  0.00000000E+00
  0.00000000E+00  0.00000000E+00  0.00000000E+00
  0.00000000E+00  0.00000000E+00  0.00000000E+00
  0.00000000E+00  0.00000000E+00  0.00000000E+00
  0.00000000E+00  0.00000000E+00  0.00000000E+00
  0.00000000E+00  0.00000000E+00  0.00000000E+00
  0.00000000E+00  0.00000000E+00  0.00000000E+00
  0.00000000E+00  0.00000000E+00  0.00000000E+00
  0.00000000E+00  0.00000000E+00  0.00000000E+00
  0.00000000E+00  0.00000000E+00  0.00000000E+00
  0.00000000E+00  0.00000000E+00  0.00000000E+00
  0.00000000E+00  0.00000000E+00  0.00000000E+00
  0.00000000E+00  0.00000000E+00  0.00000000E+00
  0.00000000E+00  0.00000000E+00  0.00000000E+00
  0.00000000E+00  0.00000000E+00  0.00000000E+00
  0.00000000E+00  0.00000000E+00  0.00000000E+00
  0.00000000E+00  0.00000000E+00  0.00000000E+00
  0.00000000E+00  0.00000000E+00  0.00000000E+00
  0.00000000E+00  0.00000000E+00  0.00000000E+00
  0.00000000E+00  0.00000000E+00  0.00000000E+00
  0.00000000E+00  0.00000000E+00  0.00000000E+00
  0.00000000E+00  0.00000000E+00  0.00000000E+00
  0.00000000E+00  0.00000000E+00  0.00000000E+00
  0.00000000E+00  0.00000000E+00  0.00000000E+00
  0.00000000E+00  0.00000000E+00  0.00000000E+00
  0.00000000E+00  0.00000000E+00  0.00000000E+00
  0.00000000E+00  0.00000000E+00  0.00000000E+00
  0.00000000E+00  0.00000000E+00  0.00000000E+00
  0.00000000E+00  0.00000000E+00  0.00000000E+00
  0.00000000E+00  0.00000000E+00  0.00000000E+00
  0.00000000E+00  0.00000000E+00  0.00000000E+00
  0.00000000E+00  0.00000000E+00  0.00000000E+00
  0.00000000E+00  0.00000000E+00  0.00000000E+00
  0.00000000E+00  0.00000000E+00  0.00000000E+00
  0.00000000E+00  0.00000000E+00  0.00000000E+00
  0.00000000E+00  0.00000000E+00  0.00000000E+00
  0.00000000E+00  0.00000000E+00  0.00000000E+00
  0.00000000E+00  0.00000000E+00  0.00000000E+00
  0.00000000E+00  0.00000000E+00  0.00000000E+00
  0.00000000E+00  0.00000000E+00  0.00000000E+00
  0.00000000E+00  0.00000000E+00  0.00000000E+00
  0.00000000E+00  0.00000000E+00  0.00000000E+00
  0.00000000E+00  0.00000000E+00  0.00000000E+00
  0.00000000E+00  0.00000000E+00  0.00000000E+00
  0.00000000E+00  0.00000000E+00  0.00000000E+00
  0.00000000E+00  0.00000000E+00  0.00000000E+00
  0.00000000E+00  0.00000000E+00  0.00000000E+00
  0.00000000E+00  0.00000000E+00  0.00000000E+00
  0.00000000E+00  0.00000000E+00  0.00000000E+00
  0.00000000E+00  0.00000000E+00  0.00000000E+00
  0.00000000E+00  0.00000000E+00  0.00000000E+00
  0.00000000E+00  0.00000000E+00  0.00000000E+00
  0.00000000E+00  0.00000000E+00  0.00000000E+00
  0.00000000E+00  0.00000000E+00  0.00000000E+00
  0.00000000E+00  0.00000000E+00  0.00000000E+00
  0.00000000E+00  0.00000000E+00  0.00000000E+00
  0.00000000E+00  0.00000000E+00  0.00000000E+00
  0.00000000E+00  0.00000000E+00  0.00000000E+00
  0.00000000E+00  0.00000000E+00  0.00000000E+00
  0.00000000E+00  0.00000000E+00  0.00000000E+00
  0.00000000E+00  0.00000000E+00  0.00000000E+00
  0.00000000E+00  0.00000000E+00  0.00000000E+00
  0.00000000E+00  0.00000000E+00  0.00000000E+00
  0.00000000E+00  0.00000000E+00  0.00000000E+00
  0.00000000E+00  0.00000000E+00  0.00000000E+00
  0.00000000E+00  0.00000000E+00  0.00000000E+00
  0.00000000E+00  0.00000000E+00  0.00000000E+00
  0.00000000E+00  0.00000000E+00  0.00000000E+00
  0.00000000E+00  0.00000000E+00  0.00000000E+00
  0.00000000E+00  0.00000000E+00  0.00000000E+00
  0.00000000E+00  0.00000000E+00  0.00000000E+00
  0.00000000E+00  0.00000000E+00  0.00000000E+00
  0.00000000E+00  0.00000000E+00  0.00000000E+00
  0.00000000E+00  0.00000000E+00  0.00000000E+00
  0.00000000E+00  0.00000000E+00  0.00000000E+00
  0.00000000E+00  0.00000000E+00  0.00000000E+00
  0.00000000E+00  0.00000000E+00  0.00000000E+00
  0.00000000E+00  0.00000000E+00  0.00000000E+00
  0.00000000E+00  0.00000000E+00  0.00000000E+00
  0.00000000E+00  0.00000000E+00  0.00000000E+00
  0.00000000E+00  0.00000000E+00  0.00000000E+00
  0.00000000E+00  0.00000000E+00  0.00000000E+00
  0.00000000E+00  0.00000000E+00  0.00000000E+00
  0.00000000E+00  0.00000000E+00  0.00000000E+00
  0.00000000E+00  0.00000000E+00  0.00000000E+00
  0.00000000E+00  0.00000000E+00  0.00000000E+00
  0.00000000E+00  0.00000000E+00  0.00000000E+00
  0.00000000E+00  0.00000000E+00  0.00000000E+00
  0.00000000E+00  0.00000000E+00  0.00000000E+00
  0.00000000E+00  0.00000000E+00  0.00000000E+00
  0.00000000E+00  0.00000000E+00  0.00000000E+00
  0.00000000E+00  0.00000000E+00  0.00000000E+00
  0.00000000E+00  0.00000000E+00  0.00000000E+00
  0.00000000E+00  0.00000000E+00  0.00000000E+00
  0.00000000E+00  0.00000000E+00  0.00000000E+00
  0.00000000E+00  0.00000000E+00  0.00000000E+00
  0.00000000E+00  0.00000000E+00  0.00000000E+00
  0.00000000E+00  0.00000000E+00  0.00000000E+00
  0.00000000E+00  0.00000000E+00  0.00000000E+00
  0.00000000E+00  0.00000000E+00  0.00000000E+00
  0.00000000E+00  0.00000000E+00  0.00000000E+00
  0.00000000E+00  0.00000000E+00  0.00000000E+00
  0.00000000E+00  0.00000000E+00  0.00000000E+00
  0.00000000E+00  0.00000000E+00  0.00000000E+00
  0.00000000E+00  0.00000000E+00  0.00000000E+00
  0.00000000E+00  0.00000000E+00  0.00000000E+00
  0.00000000E+00  0.00000000E+00  0.00000000E+00
  0.00000000E+00  0.00000000E+00  0.00000000E+00
  0.00000000E+00  0.00000000E+00  0.00000000E+00
  0.00000000E+00  0.00000000E+00  0.00000000E+00
  0.00000000E+00  0.00000000E+00  0.00000000E+00
  0.00000000E+00  0.00000000E+00  0.00000000E+00
  0.00000000E+00  0.00000000E+00  0.00000000E+00
  0.00000000E+00  0.00000000E+00  0.00000000E+00
  0.00000000E+00  0.00000000E+00  0.00000000E+00
  0.00000000E+00  0.00000000E+00  0.00000000E+00
  0.00000000E+00  0.00000000E+00  0.00000000E+00
  0.00000000E+00  0.00000000E+00  0.00000000E+00
  0.00000000E+00  0.00000000E+00  0.00000000E+00
  0.00000000E+00  0.00000000E+00  0.00000000E+00
  0.00000000E+00  0.00000000E+00  0.00000000E+00
  0.00000000E+00  0.00000000E+00  0.00000000E+00
  0.00000000E+00  0.00000000E+00  0.00000000E+00
  0.00000000E+00  0.00000000E+00  0.00000000E+00
  0.00000000E+00  0.00000000E+00  0.00000000E+00
  0.00000000E+00  0.00000000E+00  0.00000000E+00
  0.00000000E+00  0.00000000E+00  0.00000000E+00
  0.00000000E+00  0.00000000E+00  0.00000000E+00
  0.00000000E+00  0.00000000E+00  0.00000000E+00
  0.00000000E+00  0.00000000E+00  0.00000000E+00
