Cs Hg F                                 
   1.00000000000000     
     9.0292030000000008   -9.0292030000000008    0.0000000000000000
     9.0292030000000008    9.0292030000000008    0.0000000000000000
     0.0000000000000000    0.0000000000000000   18.0584060000000015
   Cs   F    Hg
    32    96    32
Direct
  0.0026997663919840  0.0000666852127184  0.0001089343863734
  0.0000303504121668  0.9991311218764921  0.2500627598656267
  0.9985332531941725  0.9990133071688094  0.4997224036098342
  0.9936932111230984  0.9980801996958790  0.7500294725133611
  0.5026518247014952  0.9995117559871458  0.0001129183587261
  0.5002344053682755  0.9992791679151866  0.2497357079279294
  0.4984239440034478  0.9991907015923277  0.4998439444379023
  0.4935987384765793  0.9980077884506420  0.7500740060917226
  0.2547439396372702  0.2488815948690505  0.9997543581800417
  0.2522846393145207  0.2493913751845838  0.2489826100911544
  0.2487806291853400  0.2494431759754969  0.4997781012153847
  0.2452598944799299  0.2495645883446339  0.7503438121908340
  0.0042539120093250  0.4980019315848789  0.9998945815147153
  0.0020015058095653  0.4983326760330166  0.2489294879335101
  0.9985686652095872  0.4994613938413813  0.4998529377643002
  0.9950763973943336  0.4992523903898923  0.7505412457219514
  0.7540211746468537  0.2487363999920719  0.9997408015347088
  0.7521031424140528  0.2492067304485589  0.2487222045171015
  0.7491762595064697  0.2488378805420525  0.4996496447977218
  0.7451573583641801  0.2491654380625826  0.7503689967151841
  0.5036538622833205  0.4985797958533454  0.9996750275780021
  0.5022738020944167  0.4985503168584219  0.2489427845071852
  0.4985688784590337  0.4995433733739633  0.5002469592988166
  0.4944820898673386  0.5000770143437983  0.7508490831729410
  0.2526141371751625  0.7480534720045354  0.0001807658780591
  0.2499912220945857  0.7490467173480593  0.2498799638103061
  0.2478825514216983  0.7497657205054997  0.5000776847076263
  0.2436804108914671  0.7500357406193214  0.7503351977133358
  0.7524179067017266  0.7479924658701868  0.0002750205422050
  0.7499276349762369  0.7489147425890142  0.2499802134589041
  0.7482527709026754  0.7495764181052219  0.5000314046240897
  0.7435833435117448  0.7506310672555843  0.7500901734232226
  0.9983306255562132  0.2633989924838212  0.9996413448355447
  0.0039819631555401  0.2360705323564006  0.2496448703646054
  0.9996053729639112  0.2607361935466163  0.4998454563204321
  0.9963346181245183  0.2332831056383848  0.7499551737992670
  0.5000694281246970  0.2637251820796118  0.9994908788198597
  0.5035464083768392  0.2366666598046432  0.2497146108599550
  0.5011006579204451  0.2617981460486176  0.5000780518623013
  0.4943476430344580  0.2330396930004908  0.7499267097204302
  0.2480738222949078  0.4824672018891344  0.9998332124842642
  0.2559519222598202  0.5119418133246992  0.2497265770288567
  0.2452468186265121  0.4882002108762636  0.4999567912567091
  0.2481185346208850  0.5136512452220591  0.7500593277257661
  0.0071736593116833  0.7666176948474812  0.0001150283294730
  0.9962322345664448  0.7341818178293729  0.2498069133145577
  0.9998048714260341  0.7598068383838389  0.4998407722753068
  0.9931601257880374  0.7349538305416610  0.7502704788750092
  0.7464132606777479  0.4824298031009251  0.9996304351533474
  0.7556852930396667  0.5115192533035271  0.2497243013298036
  0.7446798872416175  0.4865194940306058  0.5002323601865969
  0.7506863744990409  0.5160785899112879  0.7501812034287720
  0.5066843622738366  0.7646188709130474  0.0002244714763948
  0.4964172085475618  0.7352690108428938  0.2499863736144174
  0.4993888008120039  0.7605369928725709  0.4999605736924953
  0.4933052197307530  0.7366695366980416  0.7502478572871787
  0.2559902146699802  0.9817795768715618  0.0000001161869566
  0.2483546310066479  0.0132420099433290  0.2498466025814825
  0.2474477251592873  0.9880852063927754  0.4999021890123824
  0.2440547267963346  0.0130071466316722  0.7501406789128654
  0.7562207287294284  0.9821470100418973  0.9999948045571134
  0.7478367066841093  0.0121618824047978  0.2498375799863201
  0.7474317680110499  0.9882689281189871  0.4998576519608836
  0.7442056521291469  0.0125006716153672  0.7500603938962709
  0.1341112410210988  0.1306786379360508  0.1139735456164070
  0.1136095036214639  0.1132231807323586  0.3804054795979668
  0.1335860977888342  0.1358492728258677  0.6197766898613423
  0.1311677520385173  0.1308883905574079  0.8859163760641203
  0.6337610085937244  0.1305258921140262  0.1148088988923717
  0.6135483150754901  0.1130878489198220  0.3803185101612789
  0.6335581639972343  0.1356859751579357  0.6198356110191831
  0.6310104690256958  0.1307534933570729  0.8851583591858639
  0.3715017252360334  0.3679382299600414  0.1312745207945707
  0.3870551102128236  0.3858279494824699  0.3702822957004981
  0.3611486719539791  0.3634136297810399  0.6293573865308235
  0.3686524218410341  0.3684840426663417  0.8673345959456576
  0.1334193387325923  0.6306248445092413  0.1200827472063510
  0.1134939852057449  0.6127067389100184  0.3786471642071964
  0.1330336965560071  0.6354427231160339  0.6197914106861472
  0.1304030760349852  0.6307837274912989  0.8814513843732895
  0.8714963976564035  0.3678058308591945  0.1310298304937624
  0.8867942894859686  0.3857059186169480  0.3700412986701893
  0.8612192764071870  0.3633176110825156  0.6299916916232210
  0.8683631186310625  0.3678507005304898  0.8671768793627360
  0.6336254882674106  0.6307388386658282  0.1206444281058301
  0.6132794876521346  0.6126361153982567  0.3791337430825205
  0.6329136974708295  0.6353445281617833  0.6193322678797384
  0.6304000657748281  0.6307442151497850  0.8811577238055852
  0.3688375471584801  0.8665454845777717  0.1324185731650714
  0.3857877936453931  0.8858703546149377  0.3698791061271312
  0.3601624787544349  0.8632120782504068  0.6299282241193284
  0.3658511246112519  0.8664389531873905  0.8675707784387996
  0.8688287119434082  0.8663910665218049  0.1328554688025018
  0.8858210526304636  0.8854725717046936  0.3702186529021783
  0.8605459158327435  0.8632551475719190  0.6294652712699620
  0.8657393019636052  0.8662182863061780  0.8671042061060902
  0.8835238498563978  0.1170486054325893  0.1201850496210592
  0.8637985142880636  0.1353468100965321  0.3793932501610322
  0.8830388740518446  0.1130850692228991  0.6184478226671803
  0.8807257152017172  0.1169359006681838  0.8811450136660010
  0.3835768530857438  0.1171711813473334  0.1197650256146493
  0.3638134778720986  0.1355991940865028  0.3802750251344519
  0.3826872715747436  0.1134108194860537  0.6184098130393791
  0.3807187793619938  0.1170020140867101  0.8817035780527007
  0.1214086811973126  0.3800002947574479  0.1314465320027383
  0.1367416251089764  0.3630843288947481  0.3683871275910632
  0.1107445299460056  0.3852113797551941  0.6312076789233187
  0.1182224429218479  0.3799571098478980  0.8664100153779714
  0.8836001783977661  0.6173051684912998  0.1129970224481091
  0.8628686355848681  0.6353331831829209  0.3814405850339361
  0.8828239598695403  0.6130288843163353  0.6188767037101367
  0.8808561897453824  0.6171865183643219  0.8873867439044794
  0.6212495782220732  0.3801950796478744  0.1307853596593100
  0.6369249482007275  0.3626010109300222  0.3681944293591578
  0.6112692748193145  0.3848607074062212  0.6345741741893876
  0.6182236392615276  0.3801282943190513  0.8643716613549282
  0.3836159711158225  0.6172887847588127  0.1138866326906242
  0.3628731910310816  0.6358654893853025  0.3815641631985442
  0.3829805589345578  0.6130028787073355  0.6195709428929352
  0.3803011461816151  0.6177062829447282  0.8856852296408515
  0.1187537030602165  0.8813439481498052  0.1334710671725010
  0.1350998353811559  0.8632252187166722  0.3690550407145510
  0.1100857001031821  0.8852275435584751  0.6299124484001635
  0.1156863188637617  0.8815607662364231  0.8669626849574863
  0.6187247853995471  0.8813062896965170  0.1326258498840407
  0.6353205084345531  0.8629031127466904  0.3693343353431393
  0.6103555658599424  0.8851256862449587  0.6299280029332133
  0.6155862660270123  0.8819211805221703  0.8676899982691906
  0.0026130770424084  0.2485467541908004  0.1245998903161869
  0.0001479978283190  0.2493755448023129  0.3747277961009629
  0.9969399117628913  0.2490352000138995  0.6250093228465016
  0.9994612675083673  0.2486410805576374  0.8747424184513410
  0.5024695543995228  0.2487652299542192  0.1245856432063349
  0.5001562767100083  0.2492720319071455  0.3748721651251842
  0.4970586023412956  0.2491415389540504  0.6250553775971723
  0.4994745041567563  0.2488472233588484  0.8746536934746001
  0.2524264340861590  0.4991555742466625  0.1247247467035409
  0.2502136370727991  0.4991409856371663  0.3748162557242011
  0.2466997929019773  0.4991672281217781  0.6250893019149824
  0.2491130463435497  0.4991918141040482  0.8750371159490365
  0.0013467757895305  0.7490353993462381  0.1247896792799307
  0.9994310506917025  0.7487395445176718  0.3747266738445384
  0.9964666666029642  0.7488871943417237  0.6251682853211946
  0.9982366698822848  0.7489848972927781  0.8754326142748889
  0.7525502407420172  0.4991009118850131  0.1246043049972425
  0.7498367739316673  0.4989848712068005  0.3749952430530254
  0.7466686950792214  0.4990725202129997  0.6253066227474163
  0.7493434583827369  0.4990853586504621  0.8749106601006564
  0.5013219738841841  0.7489844242964027  0.1250043869749751
  0.4993406193042723  0.7490211769055789  0.3749111927544480
  0.4964393783561680  0.7490560065453504  0.6251246846346383
  0.4984424152590164  0.7491349406651242  0.8754464287067497
  0.2513725987774093  0.9986405513953187  0.1247800224227871
  0.2495270731183022  0.9993047753284524  0.3748021217723500
  0.2464950725725932  0.9993363368926624  0.6251264700327553
  0.2483755941618236  0.9988552845424261  0.8752529212417128
  0.7514297285214881  0.9985608332694167  0.1247379610835286
  0.7495247358238666  0.9991410362971445  0.3748002362976680
  0.7466630041843669  0.9992691217236859  0.6250549863752591
  0.7485445908178198  0.9988393046504652  0.8752226500498691
 
  0.00000000E+00  0.00000000E+00  0.00000000E+00
  0.00000000E+00  0.00000000E+00  0.00000000E+00
  0.00000000E+00  0.00000000E+00  0.00000000E+00
  0.00000000E+00  0.00000000E+00  0.00000000E+00
  0.00000000E+00  0.00000000E+00  0.00000000E+00
  0.00000000E+00  0.00000000E+00  0.00000000E+00
  0.00000000E+00  0.00000000E+00  0.00000000E+00
  0.00000000E+00  0.00000000E+00  0.00000000E+00
  0.00000000E+00  0.00000000E+00  0.00000000E+00
  0.00000000E+00  0.00000000E+00  0.00000000E+00
  0.00000000E+00  0.00000000E+00  0.00000000E+00
  0.00000000E+00  0.00000000E+00  0.00000000E+00
  0.00000000E+00  0.00000000E+00  0.00000000E+00
  0.00000000E+00  0.00000000E+00  0.00000000E+00
  0.00000000E+00  0.00000000E+00  0.00000000E+00
  0.00000000E+00  0.00000000E+00  0.00000000E+00
  0.00000000E+00  0.00000000E+00  0.00000000E+00
  0.00000000E+00  0.00000000E+00  0.00000000E+00
  0.00000000E+00  0.00000000E+00  0.00000000E+00
  0.00000000E+00  0.00000000E+00  0.00000000E+00
  0.00000000E+00  0.00000000E+00  0.00000000E+00
  0.00000000E+00  0.00000000E+00  0.00000000E+00
  0.00000000E+00  0.00000000E+00  0.00000000E+00
  0.00000000E+00  0.00000000E+00  0.00000000E+00
  0.00000000E+00  0.00000000E+00  0.00000000E+00
  0.00000000E+00  0.00000000E+00  0.00000000E+00
  0.00000000E+00  0.00000000E+00  0.00000000E+00
  0.00000000E+00  0.00000000E+00  0.00000000E+00
  0.00000000E+00  0.00000000E+00  0.00000000E+00
  0.00000000E+00  0.00000000E+00  0.00000000E+00
  0.00000000E+00  0.00000000E+00  0.00000000E+00
  0.00000000E+00  0.00000000E+00  0.00000000E+00
  0.00000000E+00  0.00000000E+00  0.00000000E+00
  0.00000000E+00  0.00000000E+00  0.00000000E+00
  0.00000000E+00  0.00000000E+00  0.00000000E+00
  0.00000000E+00  0.00000000E+00  0.00000000E+00
  0.00000000E+00  0.00000000E+00  0.00000000E+00
  0.00000000E+00  0.00000000E+00  0.00000000E+00
  0.00000000E+00  0.00000000E+00  0.00000000E+00
  0.00000000E+00  0.00000000E+00  0.00000000E+00
  0.00000000E+00  0.00000000E+00  0.00000000E+00
  0.00000000E+00  0.00000000E+00  0.00000000E+00
  0.00000000E+00  0.00000000E+00  0.00000000E+00
  0.00000000E+00  0.00000000E+00  0.00000000E+00
  0.00000000E+00  0.00000000E+00  0.00000000E+00
  0.00000000E+00  0.00000000E+00  0.00000000E+00
  0.00000000E+00  0.00000000E+00  0.00000000E+00
  0.00000000E+00  0.00000000E+00  0.00000000E+00
  0.00000000E+00  0.00000000E+00  0.00000000E+00
  0.00000000E+00  0.00000000E+00  0.00000000E+00
  0.00000000E+00  0.00000000E+00  0.00000000E+00
  0.00000000E+00  0.00000000E+00  0.00000000E+00
  0.00000000E+00  0.00000000E+00  0.00000000E+00
  0.00000000E+00  0.00000000E+00  0.00000000E+00
  0.00000000E+00  0.00000000E+00  0.00000000E+00
  0.00000000E+00  0.00000000E+00  0.00000000E+00
  0.00000000E+00  0.00000000E+00  0.00000000E+00
  0.00000000E+00  0.00000000E+00  0.00000000E+00
  0.00000000E+00  0.00000000E+00  0.00000000E+00
  0.00000000E+00  0.00000000E+00  0.00000000E+00
  0.00000000E+00  0.00000000E+00  0.00000000E+00
  0.00000000E+00  0.00000000E+00  0.00000000E+00
  0.00000000E+00  0.00000000E+00  0.00000000E+00
  0.00000000E+00  0.00000000E+00  0.00000000E+00
  0.00000000E+00  0.00000000E+00  0.00000000E+00
  0.00000000E+00  0.00000000E+00  0.00000000E+00
  0.00000000E+00  0.00000000E+00  0.00000000E+00
  0.00000000E+00  0.00000000E+00  0.00000000E+00
  0.00000000E+00  0.00000000E+00  0.00000000E+00
  0.00000000E+00  0.00000000E+00  0.00000000E+00
  0.00000000E+00  0.00000000E+00  0.00000000E+00
  0.00000000E+00  0.00000000E+00  0.00000000E+00
  0.00000000E+00  0.00000000E+00  0.00000000E+00
  0.00000000E+00  0.00000000E+00  0.00000000E+00
  0.00000000E+00  0.00000000E+00  0.00000000E+00
  0.00000000E+00  0.00000000E+00  0.00000000E+00
  0.00000000E+00  0.00000000E+00  0.00000000E+00
  0.00000000E+00  0.00000000E+00  0.00000000E+00
  0.00000000E+00  0.00000000E+00  0.00000000E+00
  0.00000000E+00  0.00000000E+00  0.00000000E+00
  0.00000000E+00  0.00000000E+00  0.00000000E+00
  0.00000000E+00  0.00000000E+00  0.00000000E+00
  0.00000000E+00  0.00000000E+00  0.00000000E+00
  0.00000000E+00  0.00000000E+00  0.00000000E+00
  0.00000000E+00  0.00000000E+00  0.00000000E+00
  0.00000000E+00  0.00000000E+00  0.00000000E+00
  0.00000000E+00  0.00000000E+00  0.00000000E+00
  0.00000000E+00  0.00000000E+00  0.00000000E+00
  0.00000000E+00  0.00000000E+00  0.00000000E+00
  0.00000000E+00  0.00000000E+00  0.00000000E+00
  0.00000000E+00  0.00000000E+00  0.00000000E+00
  0.00000000E+00  0.00000000E+00  0.00000000E+00
  0.00000000E+00  0.00000000E+00  0.00000000E+00
  0.00000000E+00  0.00000000E+00  0.00000000E+00
  0.00000000E+00  0.00000000E+00  0.00000000E+00
  0.00000000E+00  0.00000000E+00  0.00000000E+00
  0.00000000E+00  0.00000000E+00  0.00000000E+00
  0.00000000E+00  0.00000000E+00  0.00000000E+00
  0.00000000E+00  0.00000000E+00  0.00000000E+00
  0.00000000E+00  0.00000000E+00  0.00000000E+00
  0.00000000E+00  0.00000000E+00  0.00000000E+00
  0.00000000E+00  0.00000000E+00  0.00000000E+00
  0.00000000E+00  0.00000000E+00  0.00000000E+00
  0.00000000E+00  0.00000000E+00  0.00000000E+00
  0.00000000E+00  0.00000000E+00  0.00000000E+00
  0.00000000E+00  0.00000000E+00  0.00000000E+00
  0.00000000E+00  0.00000000E+00  0.00000000E+00
  0.00000000E+00  0.00000000E+00  0.00000000E+00
  0.00000000E+00  0.00000000E+00  0.00000000E+00
  0.00000000E+00  0.00000000E+00  0.00000000E+00
  0.00000000E+00  0.00000000E+00  0.00000000E+00
  0.00000000E+00  0.00000000E+00  0.00000000E+00
  0.00000000E+00  0.00000000E+00  0.00000000E+00
  0.00000000E+00  0.00000000E+00  0.00000000E+00
  0.00000000E+00  0.00000000E+00  0.00000000E+00
  0.00000000E+00  0.00000000E+00  0.00000000E+00
  0.00000000E+00  0.00000000E+00  0.00000000E+00
  0.00000000E+00  0.00000000E+00  0.00000000E+00
  0.00000000E+00  0.00000000E+00  0.00000000E+00
  0.00000000E+00  0.00000000E+00  0.00000000E+00
  0.00000000E+00  0.00000000E+00  0.00000000E+00
  0.00000000E+00  0.00000000E+00  0.00000000E+00
  0.00000000E+00  0.00000000E+00  0.00000000E+00
  0.00000000E+00  0.00000000E+00  0.00000000E+00
  0.00000000E+00  0.00000000E+00  0.00000000E+00
  0.00000000E+00  0.00000000E+00  0.00000000E+00
  0.00000000E+00  0.00000000E+00  0.00000000E+00
  0.00000000E+00  0.00000000E+00  0.00000000E+00
  0.00000000E+00  0.00000000E+00  0.00000000E+00
  0.00000000E+00  0.00000000E+00  0.00000000E+00
  0.00000000E+00  0.00000000E+00  0.00000000E+00
  0.00000000E+00  0.00000000E+00  0.00000000E+00
  0.00000000E+00  0.00000000E+00  0.00000000E+00
  0.00000000E+00  0.00000000E+00  0.00000000E+00
  0.00000000E+00  0.00000000E+00  0.00000000E+00
  0.00000000E+00  0.00000000E+00  0.00000000E+00
  0.00000000E+00  0.00000000E+00  0.00000000E+00
  0.00000000E+00  0.00000000E+00  0.00000000E+00
  0.00000000E+00  0.00000000E+00  0.00000000E+00
  0.00000000E+00  0.00000000E+00  0.00000000E+00
  0.00000000E+00  0.00000000E+00  0.00000000E+00
  0.00000000E+00  0.00000000E+00  0.00000000E+00
  0.00000000E+00  0.00000000E+00  0.00000000E+00
  0.00000000E+00  0.00000000E+00  0.00000000E+00
  0.00000000E+00  0.00000000E+00  0.00000000E+00
  0.00000000E+00  0.00000000E+00  0.00000000E+00
  0.00000000E+00  0.00000000E+00  0.00000000E+00
  0.00000000E+00  0.00000000E+00  0.00000000E+00
  0.00000000E+00  0.00000000E+00  0.00000000E+00
  0.00000000E+00  0.00000000E+00  0.00000000E+00
  0.00000000E+00  0.00000000E+00  0.00000000E+00
  0.00000000E+00  0.00000000E+00  0.00000000E+00
  0.00000000E+00  0.00000000E+00  0.00000000E+00
  0.00000000E+00  0.00000000E+00  0.00000000E+00
  0.00000000E+00  0.00000000E+00  0.00000000E+00
  0.00000000E+00  0.00000000E+00  0.00000000E+00
  0.00000000E+00  0.00000000E+00  0.00000000E+00
  0.00000000E+00  0.00000000E+00  0.00000000E+00
  0.00000000E+00  0.00000000E+00  0.00000000E+00
  0.00000000E+00  0.00000000E+00  0.00000000E+00
