Hg Rb F                                 
   1.00000000000000     
     9.2522260000000003   -9.2522260000000003    0.0000000000000000
     9.2522260000000003    9.2522260000000003    0.0000000000000000
     0.0000000000000000    0.0000000000000000   18.5044520000000006
   F    Hg   Rb
    96    32    32
Direct
  0.0266402952927704  0.2684365825636650  0.0018487057726789
  0.9824669300393974  0.2195774662923657  0.2491144909205649
  0.0177455678161966  0.2795135319914669  0.5013880055621271
  0.9732934334388955  0.2306431253980470  0.7486540706889151
  0.5073174285268102  0.2848508138354390 -0.0003242813870915
  0.4906157865905073  0.2152702131215176  0.2507946170198525
  0.5092424020498705  0.2838285661308860  0.4997228165143330
  0.4925546361129987  0.2144822493234846  0.7509417431139468
  0.2556528477789946  0.4665727637652353  0.0013789022893202
  0.2412210881750493  0.5332815574463109  0.2498338813694975
  0.2588609301163196  0.4658611465426473  0.5006960937700855
  0.2443262346973832  0.5326523613779318  0.7491160538268774
  0.0075745478399337  0.7847438475942086 -0.0003665542051141
  0.9905019733447432  0.7152097639450249  0.2508218227381010
  0.0094216062948567  0.7839383140553177  0.4997118242240082
  0.9925877447804913  0.7144221713468252  0.7509131291282083
  0.7253428148554647  0.4823680813421206  0.9945380747471246
  0.7459176641891986  0.5293197136359515  0.2554698887239740
  0.7540907876046385  0.4695564438808238  0.4950361351627192
  0.7746317582194705  0.5165962174178900  0.7560235882385310
  0.5267781813327937  0.7684488100907899  0.0017985145566607
  0.4822273403596518  0.7193538021230967  0.2491169466824200
  0.5177364649931981  0.7794260851102069  0.5014052611666081
  0.4731841168905525  0.7305776879440232  0.7486875946894005
  0.2256475181783555  0.9823179499651514  0.9945973412838246
  0.2458715712705791  0.0293284893471094  0.2555102297798358
  0.2541481001551407  0.9697272547675055  0.4950702604255529
  0.2743854945070522  0.0169858930465387  0.7560553406221922
  0.7558178416738301  0.9663919258994084  0.0013265410616584
  0.7412662634464086  0.0333158560297371  0.2498069541456844
  0.7588952039675219  0.9658312784081304  0.5007104599823481
  0.7440566829339949  0.0327254187611390  0.7491420603986302
  0.1147371565271965  0.0934354147023193  0.1214870523789918
  0.1064202247478153  0.1060096016213684  0.3911432356120786
  0.1123441211238346  0.0914642398421382  0.6217023352333308
  0.1439747045740062  0.1476655391527386  0.8688246092393394
  0.6158879708046384  0.1004456763507743  0.1077720430905310
  0.6124792224050084  0.1033964911246182  0.3926892917701998
  0.6091976703807971  0.0970480141386698  0.6076600773958840
  0.6449005951480137  0.1387786361447536  0.8912833945905463
  0.3907778780648560  0.4021589326930668  0.1427894674698836
  0.3874329811070520  0.3957234276413428  0.3578657899319634
  0.3839196088648306  0.3985890236824574  0.6427540195414269
  0.3547578518177205  0.3604513359314843  0.8594267287610928
  0.1157905133533693  0.6004823400598072  0.1078789899360375
  0.1125399409779059  0.6035241503570939  0.3926919727153483
  0.1091211297917076  0.5969604087647270  0.6077036152356983
  0.1450269924928282  0.6387554748249102  0.8910643416665940
  0.8875802205514041  0.4074440899873051  0.1287921503980949
  0.8935425771604854  0.3932094837403371  0.3594307792122841
  0.8850747340293982  0.4055702976133879  0.6290603901311671
  0.8558884901786153  0.3518218445314666  0.8818941055353697
  0.6147694580803125  0.5935550396786656  0.1215175827062933
  0.6063882924513913  0.6059348905191704  0.3911301289623759
  0.6123032005794882  0.5914627367982013  0.6216818734109827
  0.6441661390234267  0.6476594233699904  0.8685457222068729
  0.3876275725202927  0.9074344198419999  0.1289193836813709
  0.3935183523104943  0.8931545189187089  0.3595024672381449
  0.3850111553470063  0.9055198736139578  0.6292450500390407
  0.3560219939145465  0.8518820686148335  0.8818963037627079
  0.8906547063697501  0.9020203908240811  0.1428255799374197
  0.8873013442411476  0.8956364956542026  0.3578613874365652
  0.8839091198108774  0.8986513120007849  0.6429633309477258
  0.8548761095351568  0.8605818138247617  0.8593505697585747
  0.8671123924187782  0.1511302671463173  0.1053420669307810
  0.8597392782617951  0.1455112318832050  0.3940362996744126
  0.8654418040856305  0.1464529539873718  0.6031597142376439
  0.8972400289855441  0.1036128979258993  0.8865970668222196
  0.3619302823011927  0.1548894005162562  0.1100665467734421
  0.3629606989958156  0.1461755238911104  0.3936630231821390
  0.3591342967038190  0.1521627656966844  0.6094874822994674
  0.3915139841632519  0.1156782340087691  0.8984442814621266
  0.1346078069001560  0.3528289309003512  0.1471596384530301
  0.1402517180825251  0.3538516250773907  0.3564352718968734
  0.1328067529572436  0.3479986710144248  0.6451775255095920
  0.1025175202151332  0.3957864586585053  0.8636604107756858
  0.8618016312855515  0.6550234458993692  0.1100269467887690
  0.8630288942568823  0.6461277947396873  0.3939280959220919
  0.8591135321903056  0.6521786257154516  0.6094872979695519
  0.8914264879612515  0.6156832652306619  0.8985401925120432
  0.6408246244593799  0.3468914865024443  0.1410744624282952
  0.6368826226317813  0.3530841931315351  0.3567284624454702
  0.6378797286952677  0.3441453572569267  0.6406688567742229
  0.6082291103211298  0.3838135561712540  0.8522497028084016
  0.3670534808598863  0.6513139330391878  0.1052724160356109
  0.3596965100097511  0.6454980949099858  0.3941098964990475
  0.3653732936770078  0.6464830706975689  0.6031801666728371
  0.3973040158660819  0.6035933533916349  0.8868166977385363
  0.1407563763055787  0.8469049671487086  0.1411141941940361
  0.1367359978598776  0.8532618038315477  0.3566837367127795
  0.1378821900732589  0.8441180904144318  0.6406583509718794
  0.1082861851496841  0.8837957557179243  0.8523427432185267
  0.6345496795448736  0.8528111037833700  0.1472071147773784
  0.6401171222422525  0.8538251154337972  0.3564144890759807
  0.6328668715552958  0.8479279661685433  0.6451422127114171
  0.6026449064464942  0.8957695437103401  0.8636878642523621
  0.0036704450347481  0.2491001017209034  0.1257801871036410
  0.0000151571931079  0.2496783192883200  0.3752496166951932
  0.9963087026893986  0.2501037447999812  0.6247420711528844
  0.9999131030410391  0.2497076190189934  0.8752189416462561
  0.5024263114899853  0.2493463929746542  0.1253318561046457
  0.4999432275194699  0.2496273988190774  0.3752249375189320
  0.4974141422714894  0.2498035403523187  0.6251828447417435
  0.4999172670489581  0.2496837184035663  0.8753013689517890
  0.2531250968775563  0.5005903869456180  0.1255940826450714
  0.2499555689516575  0.4996745704434363  0.3752478673714825
  0.2468859114697331  0.4987454482184646  0.6248676048039318
  0.2499273890550408  0.4996580387984371  0.8752405948003057
  0.0023626529141756  0.7493079397673709  0.1253281248375347
 -0.0001072145990572  0.7496379196565972  0.3752514754735228
  0.9974299768766827  0.7497812072696836  0.6251851189010793
 -0.0001340340272365  0.7496515740159901  0.8752778426750102
  0.7525773616444478  0.5022228016975282  0.1250250000319176
  0.7499839408760988  0.4996462283336850  0.3752958240609405
  0.7472583795905984  0.4967909869480363  0.6255345015345726
  0.7498839835259868  0.4996974847106487  0.8752843956320689
  0.5036051967703863  0.7490962830457470  0.1257788232625508
  0.4999522837389639  0.7495977839020335  0.3752101323357356
  0.4963243566244836  0.7501571002591148  0.6247579480195541
  0.5000031286282755  0.7496706333050401  0.8752093646607565
  0.2525703392065579  0.0021304559689644  0.1250659502965595
  0.2499527422193159  0.9996256840246462  0.3752658380997559
  0.2472861872421247  0.9968457106738139  0.6255776232249061
  0.2499470337473062  0.9996922219525021  0.8752944902579469
  0.7531098750410828  0.0005078567114469  0.1255612287438767
  0.7499447722047253  0.9996883126648503  0.3752491822621306
  0.7469593264663138  0.9988164948730798  0.6249169498231948
  0.7499006688360447  0.9996825857077904  0.8752395699678162
  0.9945375431594414  0.0022058245124891  0.0047135072650221
  0.0153388895120304  0.9987330729233741  0.2534466260897374
  0.9837768652422662  0.0039519786620475  0.5000182027411019
  0.9905092238032566  0.0061876849895731  0.7549261031180147
  0.5094278804760922  0.9928727892218592  0.9956254609576702
  0.5162883198467012  0.9952251791422169  0.2504651641797773
  0.4845467665505150  0.0002793089200469  0.4971020129328248
  0.5054595074087683  0.9972285873833311  0.7456686963057034
  0.2536632700211381  0.2474329185360493  0.9911358629058272
  0.2675042730978271  0.2524321320451862  0.2505690017755807
  0.2380158884441970  0.2490668272483600  0.4973287869986034
  0.2591031566101374  0.2433107035848523  0.7481189996354433
  0.0094992743898777  0.4928823108726189  0.9956254909392767
  0.0162340778401159  0.4952034676042890  0.2503717619780637
  0.9844854412201876  0.5003417019834759  0.4970369888787934
  0.0054154938891748  0.4971085917386150  0.7456073723715464
  0.7407938744975203  0.2561332243011432  0.0025012756616164
  0.7621114087746806  0.2501391140087487  0.2531601608712138
  0.7322799949538946  0.2465641187587750  0.4998650356782354
  0.7461972217070582  0.2518708996222186  0.7596423745937294
  0.4944064195074300  0.5022268663381507  0.0049072147636649
  0.5155175166278123  0.4986272033993261  0.2534640536187687
  0.4836862468283058  0.5039211208998848  0.5000400415995655
  0.4903071698500730  0.5062248982443299  0.7549104470668985
  0.2406025846578245  0.7560658944044116  0.0023968510152132
  0.2619070340276020  0.7500802062100815  0.2532477303918940
  0.2323123503752416  0.7466824728260648  0.4998520220964582
  0.2462430149976390  0.7518650124811798  0.7596228041956193
  0.7535331111595351  0.7473043749686972  0.9910648636489944
  0.7674890791121266  0.7525395401732919  0.2505742689563997
  0.7378323745869270  0.7491243228823343  0.4974204988995620
  0.7592633354342383  0.7432008331759178  0.7480364487578256
 
  0.00000000E+00  0.00000000E+00  0.00000000E+00
  0.00000000E+00  0.00000000E+00  0.00000000E+00
  0.00000000E+00  0.00000000E+00  0.00000000E+00
  0.00000000E+00  0.00000000E+00  0.00000000E+00
  0.00000000E+00  0.00000000E+00  0.00000000E+00
  0.00000000E+00  0.00000000E+00  0.00000000E+00
  0.00000000E+00  0.00000000E+00  0.00000000E+00
  0.00000000E+00  0.00000000E+00  0.00000000E+00
  0.00000000E+00  0.00000000E+00  0.00000000E+00
  0.00000000E+00  0.00000000E+00  0.00000000E+00
  0.00000000E+00  0.00000000E+00  0.00000000E+00
  0.00000000E+00  0.00000000E+00  0.00000000E+00
  0.00000000E+00  0.00000000E+00  0.00000000E+00
  0.00000000E+00  0.00000000E+00  0.00000000E+00
  0.00000000E+00  0.00000000E+00  0.00000000E+00
  0.00000000E+00  0.00000000E+00  0.00000000E+00
  0.00000000E+00  0.00000000E+00  0.00000000E+00
  0.00000000E+00  0.00000000E+00  0.00000000E+00
  0.00000000E+00  0.00000000E+00  0.00000000E+00
  0.00000000E+00  0.00000000E+00  0.00000000E+00
  0.00000000E+00  0.00000000E+00  0.00000000E+00
  0.00000000E+00  0.00000000E+00  0.00000000E+00
  0.00000000E+00  0.00000000E+00  0.00000000E+00
  0.00000000E+00  0.00000000E+00  0.00000000E+00
  0.00000000E+00  0.00000000E+00  0.00000000E+00
  0.00000000E+00  0.00000000E+00  0.00000000E+00
  0.00000000E+00  0.00000000E+00  0.00000000E+00
  0.00000000E+00  0.00000000E+00  0.00000000E+00
  0.00000000E+00  0.00000000E+00  0.00000000E+00
  0.00000000E+00  0.00000000E+00  0.00000000E+00
  0.00000000E+00  0.00000000E+00  0.00000000E+00
  0.00000000E+00  0.00000000E+00  0.00000000E+00
  0.00000000E+00  0.00000000E+00  0.00000000E+00
  0.00000000E+00  0.00000000E+00  0.00000000E+00
  0.00000000E+00  0.00000000E+00  0.00000000E+00
  0.00000000E+00  0.00000000E+00  0.00000000E+00
  0.00000000E+00  0.00000000E+00  0.00000000E+00
  0.00000000E+00  0.00000000E+00  0.00000000E+00
  0.00000000E+00  0.00000000E+00  0.00000000E+00
  0.00000000E+00  0.00000000E+00  0.00000000E+00
  0.00000000E+00  0.00000000E+00  0.00000000E+00
  0.00000000E+00  0.00000000E+00  0.00000000E+00
  0.00000000E+00  0.00000000E+00  0.00000000E+00
  0.00000000E+00  0.00000000E+00  0.00000000E+00
  0.00000000E+00  0.00000000E+00  0.00000000E+00
  0.00000000E+00  0.00000000E+00  0.00000000E+00
  0.00000000E+00  0.00000000E+00  0.00000000E+00
  0.00000000E+00  0.00000000E+00  0.00000000E+00
  0.00000000E+00  0.00000000E+00  0.00000000E+00
  0.00000000E+00  0.00000000E+00  0.00000000E+00
  0.00000000E+00  0.00000000E+00  0.00000000E+00
  0.00000000E+00  0.00000000E+00  0.00000000E+00
  0.00000000E+00  0.00000000E+00  0.00000000E+00
  0.00000000E+00  0.00000000E+00  0.00000000E+00
  0.00000000E+00  0.00000000E+00  0.00000000E+00
  0.00000000E+00  0.00000000E+00  0.00000000E+00
  0.00000000E+00  0.00000000E+00  0.00000000E+00
  0.00000000E+00  0.00000000E+00  0.00000000E+00
  0.00000000E+00  0.00000000E+00  0.00000000E+00
  0.00000000E+00  0.00000000E+00  0.00000000E+00
  0.00000000E+00  0.00000000E+00  0.00000000E+00
  0.00000000E+00  0.00000000E+00  0.00000000E+00
  0.00000000E+00  0.00000000E+00  0.00000000E+00
  0.00000000E+00  0.00000000E+00  0.00000000E+00
  0.00000000E+00  0.00000000E+00  0.00000000E+00
  0.00000000E+00  0.00000000E+00  0.00000000E+00
  0.00000000E+00  0.00000000E+00  0.00000000E+00
  0.00000000E+00  0.00000000E+00  0.00000000E+00
  0.00000000E+00  0.00000000E+00  0.00000000E+00
  0.00000000E+00  0.00000000E+00  0.00000000E+00
  0.00000000E+00  0.00000000E+00  0.00000000E+00
  0.00000000E+00  0.00000000E+00  0.00000000E+00
  0.00000000E+00  0.00000000E+00  0.00000000E+00
  0.00000000E+00  0.00000000E+00  0.00000000E+00
  0.00000000E+00  0.00000000E+00  0.00000000E+00
  0.00000000E+00  0.00000000E+00  0.00000000E+00
  0.00000000E+00  0.00000000E+00  0.00000000E+00
  0.00000000E+00  0.00000000E+00  0.00000000E+00
  0.00000000E+00  0.00000000E+00  0.00000000E+00
  0.00000000E+00  0.00000000E+00  0.00000000E+00
  0.00000000E+00  0.00000000E+00  0.00000000E+00
  0.00000000E+00  0.00000000E+00  0.00000000E+00
  0.00000000E+00  0.00000000E+00  0.00000000E+00
  0.00000000E+00  0.00000000E+00  0.00000000E+00
  0.00000000E+00  0.00000000E+00  0.00000000E+00
  0.00000000E+00  0.00000000E+00  0.00000000E+00
  0.00000000E+00  0.00000000E+00  0.00000000E+00
  0.00000000E+00  0.00000000E+00  0.00000000E+00
  0.00000000E+00  0.00000000E+00  0.00000000E+00
  0.00000000E+00  0.00000000E+00  0.00000000E+00
  0.00000000E+00  0.00000000E+00  0.00000000E+00
  0.00000000E+00  0.00000000E+00  0.00000000E+00
  0.00000000E+00  0.00000000E+00  0.00000000E+00
  0.00000000E+00  0.00000000E+00  0.00000000E+00
  0.00000000E+00  0.00000000E+00  0.00000000E+00
  0.00000000E+00  0.00000000E+00  0.00000000E+00
  0.00000000E+00  0.00000000E+00  0.00000000E+00
  0.00000000E+00  0.00000000E+00  0.00000000E+00
  0.00000000E+00  0.00000000E+00  0.00000000E+00
  0.00000000E+00  0.00000000E+00  0.00000000E+00
  0.00000000E+00  0.00000000E+00  0.00000000E+00
  0.00000000E+00  0.00000000E+00  0.00000000E+00
  0.00000000E+00  0.00000000E+00  0.00000000E+00
  0.00000000E+00  0.00000000E+00  0.00000000E+00
  0.00000000E+00  0.00000000E+00  0.00000000E+00
  0.00000000E+00  0.00000000E+00  0.00000000E+00
  0.00000000E+00  0.00000000E+00  0.00000000E+00
  0.00000000E+00  0.00000000E+00  0.00000000E+00
  0.00000000E+00  0.00000000E+00  0.00000000E+00
  0.00000000E+00  0.00000000E+00  0.00000000E+00
  0.00000000E+00  0.00000000E+00  0.00000000E+00
  0.00000000E+00  0.00000000E+00  0.00000000E+00
  0.00000000E+00  0.00000000E+00  0.00000000E+00
  0.00000000E+00  0.00000000E+00  0.00000000E+00
  0.00000000E+00  0.00000000E+00  0.00000000E+00
  0.00000000E+00  0.00000000E+00  0.00000000E+00
  0.00000000E+00  0.00000000E+00  0.00000000E+00
  0.00000000E+00  0.00000000E+00  0.00000000E+00
  0.00000000E+00  0.00000000E+00  0.00000000E+00
  0.00000000E+00  0.00000000E+00  0.00000000E+00
  0.00000000E+00  0.00000000E+00  0.00000000E+00
  0.00000000E+00  0.00000000E+00  0.00000000E+00
  0.00000000E+00  0.00000000E+00  0.00000000E+00
  0.00000000E+00  0.00000000E+00  0.00000000E+00
  0.00000000E+00  0.00000000E+00  0.00000000E+00
  0.00000000E+00  0.00000000E+00  0.00000000E+00
  0.00000000E+00  0.00000000E+00  0.00000000E+00
  0.00000000E+00  0.00000000E+00  0.00000000E+00
  0.00000000E+00  0.00000000E+00  0.00000000E+00
  0.00000000E+00  0.00000000E+00  0.00000000E+00
  0.00000000E+00  0.00000000E+00  0.00000000E+00
  0.00000000E+00  0.00000000E+00  0.00000000E+00
  0.00000000E+00  0.00000000E+00  0.00000000E+00
  0.00000000E+00  0.00000000E+00  0.00000000E+00
  0.00000000E+00  0.00000000E+00  0.00000000E+00
  0.00000000E+00  0.00000000E+00  0.00000000E+00
  0.00000000E+00  0.00000000E+00  0.00000000E+00
  0.00000000E+00  0.00000000E+00  0.00000000E+00
  0.00000000E+00  0.00000000E+00  0.00000000E+00
  0.00000000E+00  0.00000000E+00  0.00000000E+00
  0.00000000E+00  0.00000000E+00  0.00000000E+00
  0.00000000E+00  0.00000000E+00  0.00000000E+00
  0.00000000E+00  0.00000000E+00  0.00000000E+00
  0.00000000E+00  0.00000000E+00  0.00000000E+00
  0.00000000E+00  0.00000000E+00  0.00000000E+00
  0.00000000E+00  0.00000000E+00  0.00000000E+00
  0.00000000E+00  0.00000000E+00  0.00000000E+00
  0.00000000E+00  0.00000000E+00  0.00000000E+00
  0.00000000E+00  0.00000000E+00  0.00000000E+00
  0.00000000E+00  0.00000000E+00  0.00000000E+00
  0.00000000E+00  0.00000000E+00  0.00000000E+00
  0.00000000E+00  0.00000000E+00  0.00000000E+00
  0.00000000E+00  0.00000000E+00  0.00000000E+00
  0.00000000E+00  0.00000000E+00  0.00000000E+00
  0.00000000E+00  0.00000000E+00  0.00000000E+00
  0.00000000E+00  0.00000000E+00  0.00000000E+00
  0.00000000E+00  0.00000000E+00  0.00000000E+00
  0.00000000E+00  0.00000000E+00  0.00000000E+00
  0.00000000E+00  0.00000000E+00  0.00000000E+00
  0.00000000E+00  0.00000000E+00  0.00000000E+00
