Na Sn Cl                                
   1.00000000000000     
    11.0719949999999994  -11.0719949999999994    0.0000000000000000
    11.0719949999999994   11.0719949999999994    0.0000000000000000
     0.0000000000000000    0.0000000000000000   22.1439899999999987
   Na   Sn   Cl
    32    32    96
Direct
  0.0472940510112729  0.0076822813014081  0.9487009560180194
  0.9127443249805502  0.9812128189391303  0.2708708699627855
 -0.0025855485116378  0.0050073225432840  0.5264653809299440
  0.0618300367546784  0.9642507319617423  0.7680850931912093
  0.5296479399847573  0.0153561379374200  0.0024653329249791
  0.4412114715684486  0.9628814284602563  0.2415779535772974
  0.5352421689397994  0.0562240181512771  0.5605749652720683
  0.5732320269578904  0.0502059313137053  0.7576873738822004
  0.2584812157703328  0.2652267357111301  0.9814660464150634
  0.1655973861534359  0.3129018744135630  0.2469279292243191
  0.2951519060597464  0.1753298626472829  0.5106960982556297
  0.3119051836843702  0.1882295021712852  0.7078471205121908
  0.0106628752220885  0.4652403234571210  0.9836213245658297
  0.0235907762591392  0.5494710944352672  0.1759935022736585
  0.0039605691833055  0.5719284388138405  0.5144700912375699
  0.0116314292206915  0.4854655935624450  0.7422331625461811
  0.7261118202947935  0.2894465203709233  0.9731584918980897
  0.7077191706793279  0.1913451510815922  0.2938957090690794
  0.7825088926527188  0.2494137273838376  0.4848017784304505
  0.7772755443686417  0.2291550141995971  0.7229804224095872
  0.5803926236847822  0.4964513720784100  0.0348110850639455
  0.4727669890353153  0.4563729715984670  0.2663562954561062
  0.5366565009366638  0.5487694756249570  0.4408965810073488
  0.3875733628104976  0.5026225600777374  0.7495873512091753
  0.2170856439394862  0.7978340157099999  0.9850314241463787
  0.2609132002287407  0.7794715347623393  0.2190795605992922
  0.2364142037073307  0.7260834697533074  0.4967041927939130
  0.2252463880154322  0.6983611730699881  0.7482483871671110
  0.7518463167258768  0.7532193669868368  0.0440652714303903
  0.8190254602772459  0.7350231723822287  0.2358693425643775
  0.8024657719796974  0.7202209564766164  0.4643669292265418
  0.7403824596228171  0.6988495581384767  0.7594555493650411
  0.0173554217245497  0.2076820992249606  0.1387305209178857
  0.9795289981116211  0.2090563570852025  0.3787279462888256
  0.9718397718712003  0.2614716543251668  0.6259800265137716
  0.9767669032495517  0.2351636067512943  0.8824779714949794
  0.5704822864218013  0.2369148371206706  0.1369557012303210
  0.5025299596865951  0.2314895430345781  0.3844315966401654
  0.5633775765973231  0.3380814145122896  0.6473446619647253
  0.4609131460910416  0.2529698829856012  0.8622206584547372
  0.2825225266601228  0.4748727324406053  0.1278860477878874
  0.2556360081180004  0.4473150953280535  0.4102315781787857
  0.2110115013812273  0.4555491658642102  0.6169985682556678
  0.2073969226858771  0.5129222320297515  0.8838611075153949
  0.0278195942652368  0.7978040747856919  0.1062858857165558
  0.0124440782953900  0.8028391384423635  0.3719941283445864
  0.9549626278884443  0.7831478955115281  0.6170577145440969
  0.0031303659244345  0.7602452390305450  0.8684568805995405
  0.7948030898362423  0.5321140307678843  0.1372264049165398
  0.7610417260181189  0.5031057029114285  0.3842253975097233
  0.7614551804768959  0.5207483953595994  0.6344362756240485
  0.7474960639445710  0.5164492017217446  0.8954335234510974
  0.5043801327915450  0.6990748547839322  0.1233154548677110
  0.4325306197101505  0.7604814497876256  0.3628577543594160
  0.4389987595936140  0.6847314577208150  0.6150402001590176
  0.4557884858384429  0.6787296307028715  0.8711047339128317
  0.2967128592031615  0.9764657446108210  0.1010992467093800
  0.2404244821700876  0.9665891978400079  0.3724100930013391
  0.2309818526599502  0.9791546699944818  0.6153379399365791
  0.2848336724359593  0.0375847386912345  0.8992369124340668
  0.7831034774672236  0.9871654474730127  0.0986191081422418
  0.6998945661371927  0.9828275595359103  0.4281324069652210
  0.7540755756362340  0.9784537472424154  0.6500604865876424
  0.7435627175480297  0.0588082384462373  0.9014878835493398
  0.0876199934821245  0.3117998945335774  0.9503623500382153
  0.9870748252607457  0.2718279250441140  0.2433870999926565
  0.9398566305708594  0.1622338383804003  0.4906541705730714
  0.9419171166456366  0.3219397526800113  0.7346707636077201
  0.4253585056741663  0.1664044526212984  0.9595003648185723
  0.5728057115540507  0.3127182782322553  0.2403694236532291
  0.4748195694290678  0.2077624118661517  0.4971304439048465
  0.4380890315976000  0.3334337826507955  0.7234702624993645
  0.1838902871778066  0.5148655053881458  0.9982046169139370
  0.3159667778891332  0.4072976564757675  0.2342886568902185
  0.2475009958324599  0.3477273628918386  0.5033199063147137
  0.2060883948466978  0.5231271435034004  0.7330590504306862
  0.0591833483880023  0.7143308965609264  0.0106044823589787
  0.0249602385930273  0.8457213906894737  0.2615744318919416
  0.8651013251386958  0.8668932057122373  0.5355032670039354
  0.0628543360943464  0.7688967815460787  0.7555536232432010
  0.7410589525936672  0.5825801719295638  0.0033896241022637
  0.8635258961885478  0.5569737693439138  0.2450476889515059
  0.6930039987894729  0.4744706543485442  0.4883239688650508
  0.8508575888850264  0.5632323371412666  0.7278779488614255
  0.5202442579054054  0.6578559172459228  0.0103327424169720
  0.4451425692146291  0.7881952967119320  0.2466242316069376
  0.4169312030367658  0.6611326460052475  0.4972960519327780
  0.4054386925218597  0.6842799645921411  0.7562589619455227
  0.2004887880880834  0.1007215565101659  0.9883248948779459
  0.2683021157283669  0.9543432902962270  0.2177301782805555
  0.2560293457452951  0.9053226145645104  0.4816398749385393
  0.2079545182912689  0.0430912898881816  0.7228480681706893
  0.6790775428919765  0.1238911562592576  0.0028829716054527
  0.7881552440812748  0.9004136122748122  0.1999905133015449
  0.6966560736510122  0.0986661554225067  0.5105294811224115
  0.7473402613409181  0.0477743104764782  0.7566800813400074
  0.1668363735979735  0.1713246840370155  0.1720554150733937
  0.2530431675109760  0.1256797241280625  0.3970027612070751
  0.1499555121685010  0.0973919394651244  0.5611863293118858
  0.0794348635958820  0.1183271456808321  0.8462460258529524
  0.6963961247827906  0.1502003440679462  0.1748265336497739
  0.6104985862384266  0.0599433837533048  0.3460956548475299
  0.6037265272682748  0.1818910150370377  0.6649107624845919
  0.7286006936851160  0.2109203623385545  0.8586104202789479
  0.3431678212630212  0.3463374448689548  0.0732692198220786
  0.4643281934143468  0.3935433832908395  0.3908094707590715
  0.1975844738639938  0.3088766593328645  0.6647008107698871
  0.3058214624011047  0.2993166253333898  0.8619811418521552
  0.1340528402668047  0.6823313555489574  0.1668104758844994
  0.1694871698623877  0.5606765544564491  0.4710263017606092
  0.0566313500152492  0.7409306626517912  0.5243444827639577
  0.2360798577334867  0.6777387262887645  0.8797079834137950
  0.9267852512424837  0.4536175612941288  0.0975850800288937
  0.8811291557498437  0.3348397316403617  0.3974523862759246
  0.8159927325170313  0.3070968040479978  0.5997465192016298
  0.8547548302511035  0.3998735839688717  0.9375555570799747
  0.6658220947223131  0.6904074716593874  0.1516551107200662
  0.6755541660589918  0.6473563465667481  0.3912896453439175
  0.6504716603421435  0.6336600941929373  0.6604436820670327
  0.6122361827779831  0.6490079310682472  0.8422516546134415
  0.3190153467741665  0.8095496982129153  0.0962516314456983
  0.2686242577030484  0.7494503860553814  0.3497615064753942
  0.2765871829633398  0.7176365773012696  0.6221641696388006
  0.3716678625269721  0.9349077337876862  0.9682281101783285
  0.8790512339423875  0.8795843231513579  0.0366569136668318
  0.8486875441786899  0.8079975512270023  0.3563615989752569
  0.8058107973862469  0.8391330780116080  0.6996385753068942
  0.9488317350745619  0.9160464450441324  0.8595720004726825
  0.9556876086917677  0.0592077811392178  0.1637320087955541
  0.8518338897913686  0.1147512832562577  0.3388503773972547
  0.9128550385138898  0.1206465218949520  0.6643491738763188
  0.9243848491012604  0.1370281255125996  0.9689798347048850
  0.4610018224646097  0.0173472922973302  0.1261468024833835
  0.4036574821806170  0.9586509380655373  0.3604905786459243
  0.3670421124566197  0.0857271474711323  0.6088974449160521
  0.4246775123412213  0.1239737054292997  0.7928187134884666
  0.1313051305680272  0.4147661244532555  0.1468308747903773
  0.1287060453533858  0.3743409217510013  0.3608440599859202
  0.0439283051215311  0.4747392542361034  0.6153515320120644
  0.0426878560464623  0.5347405580334927  0.8642430163698978
  0.8791179602869427  0.6746846111563772  0.1187717207604950
  0.8971182716340812  0.5827848626548957  0.4158871473524645
  0.8515149517150115  0.6342707298864302  0.5694028226046435
  0.8487443448352910  0.7046958595881376  0.8604618399171670
  0.6646642285676541  0.3527207980021198  0.0865654133205609
  0.6584908707932856  0.2781418347315512  0.3953538874727426
  0.6695010845874650  0.3839686069124476  0.7274381270280083
  0.6221855153339841  0.4180651950275540  0.9272743639351712
  0.4925952966990935  0.5349334661838020  0.1466751001945131
  0.4484032942846062  0.5980874853942710  0.3369223508622622
  0.4209940375771727  0.5236978964179276  0.6284038784773587
  0.4191078215675326  0.5205114868760198  0.8710960294671520
  0.1225527865988671  0.9182149554512485  0.0559919854583374
  0.0172203848423847  0.9598532494670191  0.4023751977109400
  0.0422883090634259  0.9275634311828000  0.6347836601691355
  0.1762447746591264  0.9091749962037727  0.8879973670360688
  0.6532672946243712  0.8977593935676698  0.0555691939956482
  0.5735310523703258  0.9161310692787594  0.4797582221125426
  0.5909241112160275  0.9465682978469305  0.6580234257805275
  0.5905716544668733  0.0059985997549713  0.8795523320003921
 
  0.00000000E+00  0.00000000E+00  0.00000000E+00
  0.00000000E+00  0.00000000E+00  0.00000000E+00
  0.00000000E+00  0.00000000E+00  0.00000000E+00
  0.00000000E+00  0.00000000E+00  0.00000000E+00
  0.00000000E+00  0.00000000E+00  0.00000000E+00
  0.00000000E+00  0.00000000E+00  0.00000000E+00
  0.00000000E+00  0.00000000E+00  0.00000000E+00
  0.00000000E+00  0.00000000E+00  0.00000000E+00
  0.00000000E+00  0.00000000E+00  0.00000000E+00
  0.00000000E+00  0.00000000E+00  0.00000000E+00
  0.00000000E+00  0.00000000E+00  0.00000000E+00
  0.00000000E+00  0.00000000E+00  0.00000000E+00
  0.00000000E+00  0.00000000E+00  0.00000000E+00
  0.00000000E+00  0.00000000E+00  0.00000000E+00
  0.00000000E+00  0.00000000E+00  0.00000000E+00
  0.00000000E+00  0.00000000E+00  0.00000000E+00
  0.00000000E+00  0.00000000E+00  0.00000000E+00
  0.00000000E+00  0.00000000E+00  0.00000000E+00
  0.00000000E+00  0.00000000E+00  0.00000000E+00
  0.00000000E+00  0.00000000E+00  0.00000000E+00
  0.00000000E+00  0.00000000E+00  0.00000000E+00
  0.00000000E+00  0.00000000E+00  0.00000000E+00
  0.00000000E+00  0.00000000E+00  0.00000000E+00
  0.00000000E+00  0.00000000E+00  0.00000000E+00
  0.00000000E+00  0.00000000E+00  0.00000000E+00
  0.00000000E+00  0.00000000E+00  0.00000000E+00
  0.00000000E+00  0.00000000E+00  0.00000000E+00
  0.00000000E+00  0.00000000E+00  0.00000000E+00
  0.00000000E+00  0.00000000E+00  0.00000000E+00
  0.00000000E+00  0.00000000E+00  0.00000000E+00
  0.00000000E+00  0.00000000E+00  0.00000000E+00
  0.00000000E+00  0.00000000E+00  0.00000000E+00
  0.00000000E+00  0.00000000E+00  0.00000000E+00
  0.00000000E+00  0.00000000E+00  0.00000000E+00
  0.00000000E+00  0.00000000E+00  0.00000000E+00
  0.00000000E+00  0.00000000E+00  0.00000000E+00
  0.00000000E+00  0.00000000E+00  0.00000000E+00
  0.00000000E+00  0.00000000E+00  0.00000000E+00
  0.00000000E+00  0.00000000E+00  0.00000000E+00
  0.00000000E+00  0.00000000E+00  0.00000000E+00
  0.00000000E+00  0.00000000E+00  0.00000000E+00
  0.00000000E+00  0.00000000E+00  0.00000000E+00
  0.00000000E+00  0.00000000E+00  0.00000000E+00
  0.00000000E+00  0.00000000E+00  0.00000000E+00
  0.00000000E+00  0.00000000E+00  0.00000000E+00
  0.00000000E+00  0.00000000E+00  0.00000000E+00
  0.00000000E+00  0.00000000E+00  0.00000000E+00
  0.00000000E+00  0.00000000E+00  0.00000000E+00
  0.00000000E+00  0.00000000E+00  0.00000000E+00
  0.00000000E+00  0.00000000E+00  0.00000000E+00
  0.00000000E+00  0.00000000E+00  0.00000000E+00
  0.00000000E+00  0.00000000E+00  0.00000000E+00
  0.00000000E+00  0.00000000E+00  0.00000000E+00
  0.00000000E+00  0.00000000E+00  0.00000000E+00
  0.00000000E+00  0.00000000E+00  0.00000000E+00
  0.00000000E+00  0.00000000E+00  0.00000000E+00
  0.00000000E+00  0.00000000E+00  0.00000000E+00
  0.00000000E+00  0.00000000E+00  0.00000000E+00
  0.00000000E+00  0.00000000E+00  0.00000000E+00
  0.00000000E+00  0.00000000E+00  0.00000000E+00
  0.00000000E+00  0.00000000E+00  0.00000000E+00
  0.00000000E+00  0.00000000E+00  0.00000000E+00
  0.00000000E+00  0.00000000E+00  0.00000000E+00
  0.00000000E+00  0.00000000E+00  0.00000000E+00
  0.00000000E+00  0.00000000E+00  0.00000000E+00
  0.00000000E+00  0.00000000E+00  0.00000000E+00
  0.00000000E+00  0.00000000E+00  0.00000000E+00
  0.00000000E+00  0.00000000E+00  0.00000000E+00
  0.00000000E+00  0.00000000E+00  0.00000000E+00
  0.00000000E+00  0.00000000E+00  0.00000000E+00
  0.00000000E+00  0.00000000E+00  0.00000000E+00
  0.00000000E+00  0.00000000E+00  0.00000000E+00
  0.00000000E+00  0.00000000E+00  0.00000000E+00
  0.00000000E+00  0.00000000E+00  0.00000000E+00
  0.00000000E+00  0.00000000E+00  0.00000000E+00
  0.00000000E+00  0.00000000E+00  0.00000000E+00
  0.00000000E+00  0.00000000E+00  0.00000000E+00
  0.00000000E+00  0.00000000E+00  0.00000000E+00
  0.00000000E+00  0.00000000E+00  0.00000000E+00
  0.00000000E+00  0.00000000E+00  0.00000000E+00
  0.00000000E+00  0.00000000E+00  0.00000000E+00
  0.00000000E+00  0.00000000E+00  0.00000000E+00
  0.00000000E+00  0.00000000E+00  0.00000000E+00
  0.00000000E+00  0.00000000E+00  0.00000000E+00
  0.00000000E+00  0.00000000E+00  0.00000000E+00
  0.00000000E+00  0.00000000E+00  0.00000000E+00
  0.00000000E+00  0.00000000E+00  0.00000000E+00
  0.00000000E+00  0.00000000E+00  0.00000000E+00
  0.00000000E+00  0.00000000E+00  0.00000000E+00
  0.00000000E+00  0.00000000E+00  0.00000000E+00
  0.00000000E+00  0.00000000E+00  0.00000000E+00
  0.00000000E+00  0.00000000E+00  0.00000000E+00
  0.00000000E+00  0.00000000E+00  0.00000000E+00
  0.00000000E+00  0.00000000E+00  0.00000000E+00
  0.00000000E+00  0.00000000E+00  0.00000000E+00
  0.00000000E+00  0.00000000E+00  0.00000000E+00
  0.00000000E+00  0.00000000E+00  0.00000000E+00
  0.00000000E+00  0.00000000E+00  0.00000000E+00
  0.00000000E+00  0.00000000E+00  0.00000000E+00
  0.00000000E+00  0.00000000E+00  0.00000000E+00
  0.00000000E+00  0.00000000E+00  0.00000000E+00
  0.00000000E+00  0.00000000E+00  0.00000000E+00
  0.00000000E+00  0.00000000E+00  0.00000000E+00
  0.00000000E+00  0.00000000E+00  0.00000000E+00
  0.00000000E+00  0.00000000E+00  0.00000000E+00
  0.00000000E+00  0.00000000E+00  0.00000000E+00
  0.00000000E+00  0.00000000E+00  0.00000000E+00
  0.00000000E+00  0.00000000E+00  0.00000000E+00
  0.00000000E+00  0.00000000E+00  0.00000000E+00
  0.00000000E+00  0.00000000E+00  0.00000000E+00
  0.00000000E+00  0.00000000E+00  0.00000000E+00
  0.00000000E+00  0.00000000E+00  0.00000000E+00
  0.00000000E+00  0.00000000E+00  0.00000000E+00
  0.00000000E+00  0.00000000E+00  0.00000000E+00
  0.00000000E+00  0.00000000E+00  0.00000000E+00
  0.00000000E+00  0.00000000E+00  0.00000000E+00
  0.00000000E+00  0.00000000E+00  0.00000000E+00
  0.00000000E+00  0.00000000E+00  0.00000000E+00
  0.00000000E+00  0.00000000E+00  0.00000000E+00
  0.00000000E+00  0.00000000E+00  0.00000000E+00
  0.00000000E+00  0.00000000E+00  0.00000000E+00
  0.00000000E+00  0.00000000E+00  0.00000000E+00
  0.00000000E+00  0.00000000E+00  0.00000000E+00
  0.00000000E+00  0.00000000E+00  0.00000000E+00
  0.00000000E+00  0.00000000E+00  0.00000000E+00
  0.00000000E+00  0.00000000E+00  0.00000000E+00
  0.00000000E+00  0.00000000E+00  0.00000000E+00
  0.00000000E+00  0.00000000E+00  0.00000000E+00
  0.00000000E+00  0.00000000E+00  0.00000000E+00
  0.00000000E+00  0.00000000E+00  0.00000000E+00
  0.00000000E+00  0.00000000E+00  0.00000000E+00
  0.00000000E+00  0.00000000E+00  0.00000000E+00
  0.00000000E+00  0.00000000E+00  0.00000000E+00
  0.00000000E+00  0.00000000E+00  0.00000000E+00
  0.00000000E+00  0.00000000E+00  0.00000000E+00
  0.00000000E+00  0.00000000E+00  0.00000000E+00
  0.00000000E+00  0.00000000E+00  0.00000000E+00
  0.00000000E+00  0.00000000E+00  0.00000000E+00
  0.00000000E+00  0.00000000E+00  0.00000000E+00
  0.00000000E+00  0.00000000E+00  0.00000000E+00
  0.00000000E+00  0.00000000E+00  0.00000000E+00
  0.00000000E+00  0.00000000E+00  0.00000000E+00
  0.00000000E+00  0.00000000E+00  0.00000000E+00
  0.00000000E+00  0.00000000E+00  0.00000000E+00
  0.00000000E+00  0.00000000E+00  0.00000000E+00
  0.00000000E+00  0.00000000E+00  0.00000000E+00
  0.00000000E+00  0.00000000E+00  0.00000000E+00
  0.00000000E+00  0.00000000E+00  0.00000000E+00
  0.00000000E+00  0.00000000E+00  0.00000000E+00
  0.00000000E+00  0.00000000E+00  0.00000000E+00
  0.00000000E+00  0.00000000E+00  0.00000000E+00
  0.00000000E+00  0.00000000E+00  0.00000000E+00
  0.00000000E+00  0.00000000E+00  0.00000000E+00
  0.00000000E+00  0.00000000E+00  0.00000000E+00
  0.00000000E+00  0.00000000E+00  0.00000000E+00
  0.00000000E+00  0.00000000E+00  0.00000000E+00
  0.00000000E+00  0.00000000E+00  0.00000000E+00
  0.00000000E+00  0.00000000E+00  0.00000000E+00
  0.00000000E+00  0.00000000E+00  0.00000000E+00
  0.00000000E+00  0.00000000E+00  0.00000000E+00
