Mg In Br                                
   1.00000000000000     
    11.2474340000000002  -11.2474340000000002    0.0000000000000000
    11.2474340000000002   11.2474340000000002    0.0000000000000000
     0.0000000000000000    0.0000000000000000   22.4948669999999993
   Mg   In   Br
    32    32    96
Direct
  0.8793937358095795  0.0456235042694368  0.9442217572978461
  0.0378038610964434  0.9671947083604312  0.2112076903952707
  0.9620250921631863  0.9856872106405167  0.4181903616291980
  0.0585676480218137  0.0249823928952532  0.5585830244709054
  0.6353002461976097  0.0009833215711444  0.0310661356590407
  0.3986353232131240  0.1245192663838678  0.2487064347236973
  0.4561801447522733  0.1338386872287361  0.4708300247012893
  0.6283361801398192  0.0413788581573639  0.7395542702429028
  0.1217366720345820  0.1505510686509983  0.9354025981274202
  0.3255437113993555  0.2831743619442559  0.1809900764009082
  0.3167361106130517  0.2716687998516983  0.3171101081192840
  0.1975318322251809  0.1082978056287517  0.7855060789852576
  0.0474626199159871  0.4320146318725262  0.9085219172999696
  0.8810869584486926  0.4168227262646383  0.2402981627389497
  0.1441579557726103  0.5899857956056105  0.5779329518153666
  0.0311964590920320  0.4861606591443932  0.7094625667460285
  0.7521144732930459  0.2612201685582251  0.0741281472902055
  0.7317083942976241  0.1387108738552860  0.4292011586221215
  0.6659149558451742  0.1147979694113454  0.5825439926386781
  0.7683784398710399  0.4262097092393127  0.7026530597556020
  0.3639120742142514  0.5505554108320536  0.9333127380126559
  0.4636673252591570  0.6079728561601873  0.2130666126045965
  0.4608196088892768  0.6261463462240701  0.5318303853000157
  0.5731673420004464  0.3091277584742629  0.7418097877499256
  0.2439486153223681  0.7252049255235786  0.9324098797947674
  0.2313126189159309  0.6173193781784622  0.2665093966376427
  0.1865267555458820  0.8235379374446868  0.5875186433557420
  0.3767312575852423  0.8454281705065716  0.7928200758395886
  0.7889327219073622  0.8282883383357278  0.9510188894947065
  0.6937480784832156  0.6298480635853310  0.2792921204049396
  0.5731391521422783  0.8807421278985599  0.4768224772979434
  0.6291891239049320  0.8265854789622569  0.8331624214937806
  0.0022402526664196  0.2183235223480668  0.1309427225951852
  0.9482305215252552  0.3021146319882462  0.3885404387043415
  0.9559787379881128  0.3081376782808875  0.5422093533840854
  0.9144704444915286  0.2816335201637509  0.8312363469113681
  0.5696562318090281  0.3752869537037722  0.1619078979590198
  0.5697338514258645  0.2930471666770066  0.3133722132805907
  0.4224849832245146  0.3677882773873308  0.5786350854559398
  0.4899931968986129  0.3511482544784130  0.9492355439580795
  0.2230969541336688  0.4711659105057766  0.0776516645987242
  0.2211577955708105  0.4572760456205049  0.3908816548922326
  0.3631275923318580  0.5192175884900521  0.6812393446559525
  0.3112894276924597  0.3475489824685177  0.7559580455754004
  0.0319364596993838  0.7273958654299830  0.1014225805589989
 -0.0014862640693067  0.6880008308544199  0.3118864485381283
  0.9611931259538558  0.7296939639101514  0.6774670287181450
  0.9676839759420484  0.6764493934704173  0.9126725877371722
  0.7664005279829844  0.5726487743081979  0.1087123386563570
  0.7255660294234565  0.4680972553778266  0.4074727195176984
  0.7047832391248069  0.5906031469605594  0.5650487542358231
  0.6524295933627626  0.5575626945648117  0.8376723509122204
  0.4869791611359243  0.7619282366702158  0.0701119178964302
  0.4350494425956177  0.8042314636489680  0.3311060588405198
  0.5369400820761084  0.8198403811015195  0.6659744496411618
  0.3425155576324236  0.7001110192508820  0.7197012543520221
  0.2585068051909628  0.0166245584707729  0.1249549003648413
  0.2419089579871044  0.9201650772176803  0.3661998744262326
  0.3264409392386356  0.0563054203913739  0.6202123045058975
  0.3627585750633278  0.0214245935351741  0.9358927827561894
  0.7143019376657306  0.0143801680972858  0.2060344360538249
  0.7935863864440541  0.8508620293008508  0.3063129253245815
  0.9007428337594132  0.9859813756330740  0.6697342211942658
  0.6733510427910063  0.2255572549028688  0.9164614060831556
  0.0188161855914357  0.0583454200272584  0.9960663214455274
  0.9849374585679608  0.2946487700349030  0.2621156129253179
  0.8183735076168025  0.4388910913101783  0.5199650763960268
  0.2134255972650299  0.1889124852699677  0.6925421567096874
  0.6619948178758823  0.3820357817817717  0.0427733436534812
  0.5570637342770007  0.1380904036666570  0.2381015871177983
  0.5598629873631280  0.2185880588770206  0.5383954969034834
  0.5740483942019375  0.1666597778137881  0.8009982906188056
  0.3097872405886187  0.4047085461513436  0.9368096519691635
  0.3466042358883446  0.5067822721805546  0.2323800297936516
  0.1234150792490822  0.4700194582176285  0.4839248413910667
  0.0938667666784062  0.3942198398522483  0.8033237010787958
  0.9035960039550489  0.9012589821190701  0.8915045029148712
  0.1797068922199689  0.7656606230941625  0.2951854862269997
  0.1265820702083851  0.7210332837299012  0.5108773784340384
  0.9949567176837489  0.6088901409027696  0.7755051060411405
  0.8503293065994936  0.2161244955656765  0.9948425985968525
  0.7187469848388912  0.4791778088175177  0.2455516835413882
  0.5474960873803388  0.5084245342964255  0.4914008283043798
  0.7591054978887112  0.5808712119526241  0.7058188507481775
  0.5186964635616292  0.5436270668317833  0.9505061275867739
  0.4014996222882092  0.7483766236941488  0.1928642086654869
  0.4579812977231693  0.7519339360632484  0.4643567332326236
  0.5088862541152586  0.9448638629270607  0.8084638665859643
  0.2303910616413290  0.1127075944259973  0.0214735446527675
  0.3357578006117911  0.9736204232866982  0.2357025557188405
  0.3280315255891445  0.1942943015848042  0.5241942777225643
  0.2615275352551455  0.9629446870567566  0.7785136890711307
  0.7948565907536547  0.9666995158132532  0.0269835261742365
  0.8351167332883792  0.0531694322422091  0.3651889388854023
  0.6913938099428003  0.0032690408401443  0.5009722952070442
  0.7149856176796076  0.9061731800469924  0.7527525594638264
  0.1495440251863390  0.1044602381796608  0.1914872505641952
  0.0741577352535331 -0.0063601062094343  0.3229249975554405
  0.0419537995296555  0.1133651218055991  0.4607752579564214
  0.0532379991268757  0.1023280377646077  0.8339104812571984
  0.6620996483068774  0.1350018307226803  0.0987796712842392
  0.5779443956457527  0.1323054513623391  0.3921681314509479
  0.7452709282171631  0.1269716450283553  0.6820454885189559
  0.5482101978104732  0.0852853706030166  0.9602805506580365
  0.4060462973886897  0.3632355268435558  0.0982283863529068
  0.3765347398266954  0.3874674680676854  0.3899452950509689
  0.4425171748525762  0.2511938030040732  0.6858641930984672
  0.4962172665651771  0.4158473389519117  0.8062815993653545
  0.1723922907277307  0.6284701202409610  0.1599042918535340
  0.1259433707580041  0.5014827758319448  0.2991254617615202
  0.1598577984808182  0.7005099991211846  0.6705543314494951
  0.0986152304697259  0.5533632285909786  0.9687823160302373
  0.9359492078023283  0.5232438904447384  0.1673982418839941
  0.9025594772367056  0.4742530145255848  0.3477585278895274
  0.9169678425389758  0.3681896752711896  0.6906488283141394
  0.8919567716186031  0.4483395690390751  0.9016873662502689
  0.5496131375186993  0.5630399581231219  0.1271254846505026
  0.5393704707618142  0.6238848902737155  0.3119373889175046
  0.5212924223124433  0.6258745116547616  0.6363523360328543
  0.5365329112304257  0.7057363823362874  0.8018056006522161
  0.3526228839257857  0.9159012434790273  0.0591088997866060
  0.4436797591352174  0.9774001326298477  0.4936461050301180
  0.3442060730114036  0.8161436245426155  0.6077638294742396
  0.3685159207122832  0.8209283918863236  0.9071822279435452
  0.9559059669134342  0.8234522784406607  0.2143186627353072
  0.9386890836731624  0.8298712898252244  0.3951921742260299
  0.9277562111819343  0.9383918948607324  0.5319421643533762
  0.7585413945995433  0.7285053196587244  0.8587387100891557
  0.9142995990540269  0.0563125112100857  0.1791335335352159
  0.7927361120954916  0.1965596143633777  0.5257328051281960
  0.9971636996409582  0.1355990167975163  0.6291210862106362
  0.7935210208054087  0.1033116204715124  0.8584792664986883
  0.3830683596421931  0.1383894346386525  0.1300690025768705
  0.3562414472754163  0.1241257068547571  0.3662710028627651
  0.5471895348848275  0.0272404281079167  0.6423827535580733
  0.2620711756623599  0.1859463211669240  0.8727032762900732
  0.1772243960062443  0.3309422999738340  0.1621925585282611
  0.1726085772589683  0.2956053611160686  0.3694056067573772
  0.1671281344004290  0.4570964417112721  0.6515929845800618
  0.0774295333819606  0.2984320930827195  0.9683787620135330
  0.7238380294305143  0.7237911402815317  0.1944900047469014
  0.7703062458761073  0.6759556748946561  0.3690668680139483
  0.9833204829578481  0.5688697598849349  0.6073028090078171
  0.8427426923297024  0.7231857915748104  0.0251636675309702
  0.8011922387672324  0.2932125682443038  0.1766399202963124
  0.7536165274737754  0.2737676447615325  0.3610521939269348
  0.6428195537077870  0.3702698918394137  0.6466465498714934
  0.7238367420888797  0.3511741171950354  0.7984515812884888
  0.3167813358719555  0.6482613510371278  0.0180506189390388
  0.2939008784723225  0.6070284262217933  0.3811113378985485
  0.3133515051224647  0.5688790362903232  0.5527606318637648
  0.2738968791405475  0.6160044230794756  0.8510831285693203
  0.1356998460305288  0.8983333760893679  0.1299889794526780
  0.1953701241132067  0.9567650198606688  0.5141426894808764
  0.0962408135651413  0.9249500442085867  0.6534043305754150
  0.1134304125919447  0.8003200083482056  0.9511622921076058
  0.5918402299175030  0.9147603406433719  0.1192500431420453
  0.6004989847442339  0.8811756247308721  0.3650471089909224
  0.6494088411897631  0.7974410435397642  0.5567424843509745
  0.6260368486621666  0.8595259535353907  0.9490074032608441
 
  0.00000000E+00  0.00000000E+00  0.00000000E+00
  0.00000000E+00  0.00000000E+00  0.00000000E+00
  0.00000000E+00  0.00000000E+00  0.00000000E+00
  0.00000000E+00  0.00000000E+00  0.00000000E+00
  0.00000000E+00  0.00000000E+00  0.00000000E+00
  0.00000000E+00  0.00000000E+00  0.00000000E+00
  0.00000000E+00  0.00000000E+00  0.00000000E+00
  0.00000000E+00  0.00000000E+00  0.00000000E+00
  0.00000000E+00  0.00000000E+00  0.00000000E+00
  0.00000000E+00  0.00000000E+00  0.00000000E+00
  0.00000000E+00  0.00000000E+00  0.00000000E+00
  0.00000000E+00  0.00000000E+00  0.00000000E+00
  0.00000000E+00  0.00000000E+00  0.00000000E+00
  0.00000000E+00  0.00000000E+00  0.00000000E+00
  0.00000000E+00  0.00000000E+00  0.00000000E+00
  0.00000000E+00  0.00000000E+00  0.00000000E+00
  0.00000000E+00  0.00000000E+00  0.00000000E+00
  0.00000000E+00  0.00000000E+00  0.00000000E+00
  0.00000000E+00  0.00000000E+00  0.00000000E+00
  0.00000000E+00  0.00000000E+00  0.00000000E+00
  0.00000000E+00  0.00000000E+00  0.00000000E+00
  0.00000000E+00  0.00000000E+00  0.00000000E+00
  0.00000000E+00  0.00000000E+00  0.00000000E+00
  0.00000000E+00  0.00000000E+00  0.00000000E+00
  0.00000000E+00  0.00000000E+00  0.00000000E+00
  0.00000000E+00  0.00000000E+00  0.00000000E+00
  0.00000000E+00  0.00000000E+00  0.00000000E+00
  0.00000000E+00  0.00000000E+00  0.00000000E+00
  0.00000000E+00  0.00000000E+00  0.00000000E+00
  0.00000000E+00  0.00000000E+00  0.00000000E+00
  0.00000000E+00  0.00000000E+00  0.00000000E+00
  0.00000000E+00  0.00000000E+00  0.00000000E+00
  0.00000000E+00  0.00000000E+00  0.00000000E+00
  0.00000000E+00  0.00000000E+00  0.00000000E+00
  0.00000000E+00  0.00000000E+00  0.00000000E+00
  0.00000000E+00  0.00000000E+00  0.00000000E+00
  0.00000000E+00  0.00000000E+00  0.00000000E+00
  0.00000000E+00  0.00000000E+00  0.00000000E+00
  0.00000000E+00  0.00000000E+00  0.00000000E+00
  0.00000000E+00  0.00000000E+00  0.00000000E+00
  0.00000000E+00  0.00000000E+00  0.00000000E+00
  0.00000000E+00  0.00000000E+00  0.00000000E+00
  0.00000000E+00  0.00000000E+00  0.00000000E+00
  0.00000000E+00  0.00000000E+00  0.00000000E+00
  0.00000000E+00  0.00000000E+00  0.00000000E+00
  0.00000000E+00  0.00000000E+00  0.00000000E+00
  0.00000000E+00  0.00000000E+00  0.00000000E+00
  0.00000000E+00  0.00000000E+00  0.00000000E+00
  0.00000000E+00  0.00000000E+00  0.00000000E+00
  0.00000000E+00  0.00000000E+00  0.00000000E+00
  0.00000000E+00  0.00000000E+00  0.00000000E+00
  0.00000000E+00  0.00000000E+00  0.00000000E+00
  0.00000000E+00  0.00000000E+00  0.00000000E+00
  0.00000000E+00  0.00000000E+00  0.00000000E+00
  0.00000000E+00  0.00000000E+00  0.00000000E+00
  0.00000000E+00  0.00000000E+00  0.00000000E+00
  0.00000000E+00  0.00000000E+00  0.00000000E+00
  0.00000000E+00  0.00000000E+00  0.00000000E+00
  0.00000000E+00  0.00000000E+00  0.00000000E+00
  0.00000000E+00  0.00000000E+00  0.00000000E+00
  0.00000000E+00  0.00000000E+00  0.00000000E+00
  0.00000000E+00  0.00000000E+00  0.00000000E+00
  0.00000000E+00  0.00000000E+00  0.00000000E+00
  0.00000000E+00  0.00000000E+00  0.00000000E+00
  0.00000000E+00  0.00000000E+00  0.00000000E+00
  0.00000000E+00  0.00000000E+00  0.00000000E+00
  0.00000000E+00  0.00000000E+00  0.00000000E+00
  0.00000000E+00  0.00000000E+00  0.00000000E+00
  0.00000000E+00  0.00000000E+00  0.00000000E+00
  0.00000000E+00  0.00000000E+00  0.00000000E+00
  0.00000000E+00  0.00000000E+00  0.00000000E+00
  0.00000000E+00  0.00000000E+00  0.00000000E+00
  0.00000000E+00  0.00000000E+00  0.00000000E+00
  0.00000000E+00  0.00000000E+00  0.00000000E+00
  0.00000000E+00  0.00000000E+00  0.00000000E+00
  0.00000000E+00  0.00000000E+00  0.00000000E+00
  0.00000000E+00  0.00000000E+00  0.00000000E+00
  0.00000000E+00  0.00000000E+00  0.00000000E+00
  0.00000000E+00  0.00000000E+00  0.00000000E+00
  0.00000000E+00  0.00000000E+00  0.00000000E+00
  0.00000000E+00  0.00000000E+00  0.00000000E+00
  0.00000000E+00  0.00000000E+00  0.00000000E+00
  0.00000000E+00  0.00000000E+00  0.00000000E+00
  0.00000000E+00  0.00000000E+00  0.00000000E+00
  0.00000000E+00  0.00000000E+00  0.00000000E+00
  0.00000000E+00  0.00000000E+00  0.00000000E+00
  0.00000000E+00  0.00000000E+00  0.00000000E+00
  0.00000000E+00  0.00000000E+00  0.00000000E+00
  0.00000000E+00  0.00000000E+00  0.00000000E+00
  0.00000000E+00  0.00000000E+00  0.00000000E+00
  0.00000000E+00  0.00000000E+00  0.00000000E+00
  0.00000000E+00  0.00000000E+00  0.00000000E+00
  0.00000000E+00  0.00000000E+00  0.00000000E+00
  0.00000000E+00  0.00000000E+00  0.00000000E+00
  0.00000000E+00  0.00000000E+00  0.00000000E+00
  0.00000000E+00  0.00000000E+00  0.00000000E+00
  0.00000000E+00  0.00000000E+00  0.00000000E+00
  0.00000000E+00  0.00000000E+00  0.00000000E+00
  0.00000000E+00  0.00000000E+00  0.00000000E+00
  0.00000000E+00  0.00000000E+00  0.00000000E+00
  0.00000000E+00  0.00000000E+00  0.00000000E+00
  0.00000000E+00  0.00000000E+00  0.00000000E+00
  0.00000000E+00  0.00000000E+00  0.00000000E+00
  0.00000000E+00  0.00000000E+00  0.00000000E+00
  0.00000000E+00  0.00000000E+00  0.00000000E+00
  0.00000000E+00  0.00000000E+00  0.00000000E+00
  0.00000000E+00  0.00000000E+00  0.00000000E+00
  0.00000000E+00  0.00000000E+00  0.00000000E+00
  0.00000000E+00  0.00000000E+00  0.00000000E+00
  0.00000000E+00  0.00000000E+00  0.00000000E+00
  0.00000000E+00  0.00000000E+00  0.00000000E+00
  0.00000000E+00  0.00000000E+00  0.00000000E+00
  0.00000000E+00  0.00000000E+00  0.00000000E+00
  0.00000000E+00  0.00000000E+00  0.00000000E+00
  0.00000000E+00  0.00000000E+00  0.00000000E+00
  0.00000000E+00  0.00000000E+00  0.00000000E+00
  0.00000000E+00  0.00000000E+00  0.00000000E+00
  0.00000000E+00  0.00000000E+00  0.00000000E+00
  0.00000000E+00  0.00000000E+00  0.00000000E+00
  0.00000000E+00  0.00000000E+00  0.00000000E+00
  0.00000000E+00  0.00000000E+00  0.00000000E+00
  0.00000000E+00  0.00000000E+00  0.00000000E+00
  0.00000000E+00  0.00000000E+00  0.00000000E+00
  0.00000000E+00  0.00000000E+00  0.00000000E+00
  0.00000000E+00  0.00000000E+00  0.00000000E+00
  0.00000000E+00  0.00000000E+00  0.00000000E+00
  0.00000000E+00  0.00000000E+00  0.00000000E+00
  0.00000000E+00  0.00000000E+00  0.00000000E+00
  0.00000000E+00  0.00000000E+00  0.00000000E+00
  0.00000000E+00  0.00000000E+00  0.00000000E+00
  0.00000000E+00  0.00000000E+00  0.00000000E+00
  0.00000000E+00  0.00000000E+00  0.00000000E+00
  0.00000000E+00  0.00000000E+00  0.00000000E+00
  0.00000000E+00  0.00000000E+00  0.00000000E+00
  0.00000000E+00  0.00000000E+00  0.00000000E+00
  0.00000000E+00  0.00000000E+00  0.00000000E+00
  0.00000000E+00  0.00000000E+00  0.00000000E+00
  0.00000000E+00  0.00000000E+00  0.00000000E+00
  0.00000000E+00  0.00000000E+00  0.00000000E+00
  0.00000000E+00  0.00000000E+00  0.00000000E+00
  0.00000000E+00  0.00000000E+00  0.00000000E+00
  0.00000000E+00  0.00000000E+00  0.00000000E+00
  0.00000000E+00  0.00000000E+00  0.00000000E+00
  0.00000000E+00  0.00000000E+00  0.00000000E+00
  0.00000000E+00  0.00000000E+00  0.00000000E+00
  0.00000000E+00  0.00000000E+00  0.00000000E+00
  0.00000000E+00  0.00000000E+00  0.00000000E+00
  0.00000000E+00  0.00000000E+00  0.00000000E+00
  0.00000000E+00  0.00000000E+00  0.00000000E+00
  0.00000000E+00  0.00000000E+00  0.00000000E+00
  0.00000000E+00  0.00000000E+00  0.00000000E+00
  0.00000000E+00  0.00000000E+00  0.00000000E+00
  0.00000000E+00  0.00000000E+00  0.00000000E+00
  0.00000000E+00  0.00000000E+00  0.00000000E+00
  0.00000000E+00  0.00000000E+00  0.00000000E+00
  0.00000000E+00  0.00000000E+00  0.00000000E+00
  0.00000000E+00  0.00000000E+00  0.00000000E+00
  0.00000000E+00  0.00000000E+00  0.00000000E+00
  0.00000000E+00  0.00000000E+00  0.00000000E+00
  0.00000000E+00  0.00000000E+00  0.00000000E+00
