Na Zn Cl                                
   1.00000000000000     
     9.8253400000000006   -9.8253400000000006    0.0000000000000000
     9.8253400000000006    9.8253400000000006    0.0000000000000000
     0.0000000000000000    0.0000000000000000   19.6506800000000013
   Cl   Na   Zn
    96    32    32
Direct
  0.8724498026057391  0.2396231611309134  0.0158606554397891
  0.9900916756344113  0.1911422948779963  0.2295737183034307
  0.0253581447817922  0.1686902065562762  0.4147620597985896
  0.0854900050175376  0.3251482580715900  0.7255691721733561
  0.5299714866597481  0.2265303046493045  0.0617681390713048
  0.5001357059459909  0.2840414677959109  0.2608577955955859
  0.6130285390036030  0.3193450895597335  0.5845769047932692
  0.4840828986482096  0.2353317579192375  0.7558402808577629
  0.2878678021435186  0.5002774987886541  0.9895409652827147
  0.3046849339880755  0.4400364955670328  0.2915900525274667
  0.1768617652829472  0.4570399033702216  0.4610164460486507
  0.2565782928810222  0.4632612465700091  0.7965760802178198
  0.0131543711308889  0.6615336223914418  0.0097162475851854
  0.9306869630278646  0.6951553669024250  0.2086157955752981
  0.1086001883701279  0.7688007421463569  0.5013543330576484
  0.9955160951726354  0.5511898378650478  0.7678041140116005
  0.6555125446749640  0.4313016562392749  0.9831251835336126
  0.7672407853766579  0.5144714892206655  0.2805261699319146
  0.7842950322304721  0.4881053611664407  0.4926468939827922
  0.7487450296861956  0.5838074193186936  0.6917847231921994
  0.2911535605229253  0.7376752158024931  0.0391510119741104
  0.6086841156230440  0.7095801054242874  0.2151292968732023
  0.4476681743182735  0.7969459570962659  0.5176335393878083
  0.5808857614592150  0.7802106088700964  0.6998596162731319
  0.2660823239317385  0.9793428719107561  0.0263166065391765
  0.2403566999755235  0.9250680979863790  0.2354326182820390
  0.2458021331810567  0.9848942483032053  0.4317522478604511
  0.2406055761200176  0.1364427620804345  0.7389566149463703
  0.9648145606903549  0.9311523135735813  0.9707804716866444
  0.7660842000839191  0.8894834240478335  0.2251198482515145
  0.7886941895840578  0.1000727834272152  0.5256427106909217
  0.7296348354448029  0.9249725166362633  0.8522644077181050
  0.1087172239946743  0.1548547880687016  0.0717228002510995
  0.2234314195904363  0.1879546972908059  0.3068161135521318
  0.1928064186398090  0.2085498346275208  0.5640236097069783
  0.1478992147257810  0.2306842173677177  0.8961813376921937
  0.6179711903694745  0.0758886414899624  0.2001614216919415
  0.6059447151783199  0.1603916414849710  0.4192220611278392
  0.6644031114664136  0.0996451224312412  0.6994673961985365
  0.6618449908713797  0.1765494502633699  0.8864130435166894
  0.3104124837012912  0.3704200676315371  0.1255181604124149
  0.3759392672720943  0.2781947336721112  0.4412984654204861
  0.3831621848660752  0.3932291405222876  0.6401112235504917
  0.4403869963607252  0.3591831836899563  0.9068186007452348
  0.1380386945234107  0.5825950871889367  0.1619709699581410
  0.1792685048052517  0.6720358689983535  0.3416099807867622
  0.1605304753802486  0.5297714923560852  0.6206207207590501
  0.1531686692265109  0.6878397185684783  0.8702665031186404
  0.7618760726705629  0.2918169696964992  0.1821750644740566
  0.8078922767874082  0.3040275837130409  0.3827980383543269
  0.8298702429715009  0.2885262481921909  0.6769966324083694
  0.8864181544697155  0.3072834743768600  0.8536094934067362
  0.5366676923144039  0.6728670792768817  0.0313372635380857
  0.6343892438584490  0.6541442500019451  0.3900838056618914
  0.7374977729976298  0.7495167328740111  0.5392784057556080
  0.6365180179165399  0.6753000206801025  0.8592171405342013
  0.4619522080573815  0.8858943479353381  0.1392762183157533
  0.4234105816323148  0.8061524763326934  0.3405614739217925
  0.2232071131265932  0.9536007483837207  0.6149942516170488
  0.4229012115264260  0.9498284479510448  0.7442510677165015
  0.7936623080055866  0.7815060251007626  0.0590702516011739
  0.9211528950932766  0.9193947605539242  0.4747763316286092
  0.8380403115171446  0.9053550094038001  0.6731133414492947
  0.9241277289453729  0.7693224619320413  0.8270553803186369
  0.8729890421977778  0.0493078297606942  0.1156914222689556
  0.8328876340376101  0.0749298665239296  0.3316159775581229
  0.9917874159572213  0.0965024857066852  0.6334961479020661
  0.9551382657947042  0.0547542096226943  0.8169342061219443
  0.3455933300237408  0.1236812547749454  0.1553695987868811
  0.4375589230915873  0.0500005973190269  0.3251690179601419
  0.4372989933556564  0.1201098607736509  0.5881964051833003
  0.3878256775434599  0.1143079155220447  0.8922144696398377
  0.0326951622710044  0.3802825318638814  0.1116438138392710
  0.0233878360773176  0.4173106027842942  0.3215096841589615
  0.9834733672527138  0.3439945923569042  0.5433437122741028
  0.0645547148794400  0.4579695301967530  0.9186770938565785
  0.8178149433262911  0.5299020704016125  0.1054044805258567
  0.9094465800550489  0.6681594261306819  0.3942068476303943
  0.9363020634334622  0.6172358038878654  0.5870232664514706
  0.8445149370531404  0.5513636559204772  0.9017313014337561
  0.5562351885550297  0.4712314789312488  0.1593701010949373
  0.5671218177473356  0.4182053921666423  0.3893168929976286
  0.5608664338352672  0.5851570593246327  0.5749748183331965
  0.6425812980975856  0.4291432179804601  0.8003690577357851
  0.3732574897454050  0.6416835047226808  0.2014191932279124
  0.3867364631495522  0.5825361852482518  0.4392547848966233
  0.3683943095061548  0.6550022745833933  0.6907552995861650
  0.3992762903080121  0.6613266006947459  0.8658346163008633
  0.0570629704326567  0.8661250849208312  0.1209910472792948
  0.0467469977836944  0.8833669765585351  0.3225718207188977
  0.0868846785858904  0.7808304043110840  0.6889066297788670
  0.1935688803218477  0.9213096625835460  0.8351978185139530
  0.6534986760885857  0.9850158595127626  0.0353102752864145
  0.6644151451162689  0.9033325913717480  0.3983422996478072
  0.6029999813514347  0.9504439400713900  0.5703590707799833
  0.4799127607244578  0.8853449616366661  0.9276552357301675
  0.0083787649311644  0.1164957827700936  0.9523009974458859
  0.9426734406590322  0.9856086284504646  0.2349708484822981
  0.0911448585837586  0.0469619794371120  0.5159731772351238
  0.0870875998668442  0.9887617290338906  0.7250010061497353
  0.4566061552145050  0.0434409130830988  0.0117110314777871
  0.5734016976865389  0.9016043632691967  0.2683329208243210
  0.5026355386039862  0.9933297461862057  0.4550660799487659
  0.5588124032798802  0.0289108210481931  0.8233934199835458
  0.1741888348199137  0.3457881454245427  0.0141625252902818
  0.1800292432870337  0.2480194958621111  0.1838341625909290
  0.1854711353380256  0.2702226865718904  0.4333781815207096
  0.3113768606677922  0.2775109860618003  0.8221785576173627
  0.8978663985888384  0.4312429690811822  0.0028355018260099
  0.9625748390922518  0.5049862015428792  0.2057673294685539
  0.9960493067797742  0.5222544271482855  0.4714016675242934
  0.8368914331947743  0.4409630356937734  0.7588488698188610
  0.7149781806284209  0.1647363558141042  0.0766977568070692
  0.6923076628789335  0.1968701939225270  0.2956196039931304
  0.7948302809441820  0.2957369117961336  0.5355282450197573
  0.8037965670433969  0.1644792812412078  0.7844418667358709
  0.4697516600563584  0.4227834600934979  0.0363142457973312
  0.5227686953403226  0.5528025374991929  0.2859513678606201
  0.4674124702613769  0.4206107865835296  0.5161417646827791
  0.5490015042924411  0.5887653760536224  0.7209725724273054
  0.1375591257570469  0.8318609137765328  0.9862267147210317
  0.1203800364847671  0.7549818444324404  0.2261876909565272
  0.2695825433119420  0.7920005690304375  0.4304606296089217
  0.2788067251441272  0.8174790325726445  0.7217892369987017
  0.6583051267974952  0.8158773500948296  0.9577866435656577
  0.7760302455068158  0.7191344135168907  0.2964461573664094
  0.9506461147625473  0.8076459660476971  0.5856318873772427
  0.7530477475833803  0.7657929870596517  0.7581027501100137
  0.9681924602019490  0.2250301850436847  0.1106778382351675
  0.9638485777055760  0.2689607642612245  0.3370352287138231
  0.9883151689860207  0.2596655067685929  0.6413232208566245
  0.0453862164567544  0.3332904884884941  0.8389959725509073
  0.4996271933118778  0.1791912104062710  0.1707668525611414
  0.4713525014506040  0.2105637157445939  0.3649443316165064
  0.5472129092510993  0.2077216985811642  0.6500900169869231
  0.5680566078976607  0.2983069281563064  0.8545389694788621
  0.2739949756353396  0.5067770873243252  0.1837071909944338
  0.2474469403058913  0.5354324379358943  0.3764808958426152
  0.2957792304611095  0.5114741452663245  0.6834620612233222
  0.2659928072314784  0.5678059893181134  0.8885269093503514
  0.9476132561047151  0.7473029652586499  0.0985510162418100
  0.0065565147536637  0.7939872181467285  0.4130336806883664
  0.0495911770897576  0.6243303961850966  0.6715953584571595
  0.9967906570271381  0.6280938646021031  0.8830188243003240
  0.7138600127423580  0.4458810146957896  0.1671892166498953
  0.7228729131581051  0.4519861797967086  0.3840123944116425
  0.7278586906795927  0.5933311797496312  0.5765490060004218
  0.6771138882822988  0.5299203906835258  0.8968387251954565
  0.4888770887516197  0.7174278895864394  0.1374939651928134
  0.4919537303252226  0.7113788278718823  0.4200690856219797
  0.5868475765433280  0.7796839970549403  0.5864136201326414
  0.4101867781471742  0.7473950860052432  0.9649716779554227
  0.3102707680278268  0.9593621483078482  0.1334168231219025
  0.2696941554039342  0.0359491662157359  0.3241071092388670
  0.2813501267933686  0.1059767627244087  0.6253110666810219
  0.3158691920977441  0.0220155540673880  0.8131013714207814
  0.7613018503398626  0.9273857000137774  0.1129765971639486
  0.7875781357578946  0.0006559229259335  0.4270214646928633
  0.7419713105462638  0.0059146075509925  0.6165608135074639
  0.8931005373861598  0.9206322455748376  0.8695505855273374
 
  0.00000000E+00  0.00000000E+00  0.00000000E+00
  0.00000000E+00  0.00000000E+00  0.00000000E+00
  0.00000000E+00  0.00000000E+00  0.00000000E+00
  0.00000000E+00  0.00000000E+00  0.00000000E+00
  0.00000000E+00  0.00000000E+00  0.00000000E+00
  0.00000000E+00  0.00000000E+00  0.00000000E+00
  0.00000000E+00  0.00000000E+00  0.00000000E+00
  0.00000000E+00  0.00000000E+00  0.00000000E+00
  0.00000000E+00  0.00000000E+00  0.00000000E+00
  0.00000000E+00  0.00000000E+00  0.00000000E+00
  0.00000000E+00  0.00000000E+00  0.00000000E+00
  0.00000000E+00  0.00000000E+00  0.00000000E+00
  0.00000000E+00  0.00000000E+00  0.00000000E+00
  0.00000000E+00  0.00000000E+00  0.00000000E+00
  0.00000000E+00  0.00000000E+00  0.00000000E+00
  0.00000000E+00  0.00000000E+00  0.00000000E+00
  0.00000000E+00  0.00000000E+00  0.00000000E+00
  0.00000000E+00  0.00000000E+00  0.00000000E+00
  0.00000000E+00  0.00000000E+00  0.00000000E+00
  0.00000000E+00  0.00000000E+00  0.00000000E+00
  0.00000000E+00  0.00000000E+00  0.00000000E+00
  0.00000000E+00  0.00000000E+00  0.00000000E+00
  0.00000000E+00  0.00000000E+00  0.00000000E+00
  0.00000000E+00  0.00000000E+00  0.00000000E+00
  0.00000000E+00  0.00000000E+00  0.00000000E+00
  0.00000000E+00  0.00000000E+00  0.00000000E+00
  0.00000000E+00  0.00000000E+00  0.00000000E+00
  0.00000000E+00  0.00000000E+00  0.00000000E+00
  0.00000000E+00  0.00000000E+00  0.00000000E+00
  0.00000000E+00  0.00000000E+00  0.00000000E+00
  0.00000000E+00  0.00000000E+00  0.00000000E+00
  0.00000000E+00  0.00000000E+00  0.00000000E+00
  0.00000000E+00  0.00000000E+00  0.00000000E+00
  0.00000000E+00  0.00000000E+00  0.00000000E+00
  0.00000000E+00  0.00000000E+00  0.00000000E+00
  0.00000000E+00  0.00000000E+00  0.00000000E+00
  0.00000000E+00  0.00000000E+00  0.00000000E+00
  0.00000000E+00  0.00000000E+00  0.00000000E+00
  0.00000000E+00  0.00000000E+00  0.00000000E+00
  0.00000000E+00  0.00000000E+00  0.00000000E+00
  0.00000000E+00  0.00000000E+00  0.00000000E+00
  0.00000000E+00  0.00000000E+00  0.00000000E+00
  0.00000000E+00  0.00000000E+00  0.00000000E+00
  0.00000000E+00  0.00000000E+00  0.00000000E+00
  0.00000000E+00  0.00000000E+00  0.00000000E+00
  0.00000000E+00  0.00000000E+00  0.00000000E+00
  0.00000000E+00  0.00000000E+00  0.00000000E+00
  0.00000000E+00  0.00000000E+00  0.00000000E+00
  0.00000000E+00  0.00000000E+00  0.00000000E+00
  0.00000000E+00  0.00000000E+00  0.00000000E+00
  0.00000000E+00  0.00000000E+00  0.00000000E+00
  0.00000000E+00  0.00000000E+00  0.00000000E+00
  0.00000000E+00  0.00000000E+00  0.00000000E+00
  0.00000000E+00  0.00000000E+00  0.00000000E+00
  0.00000000E+00  0.00000000E+00  0.00000000E+00
  0.00000000E+00  0.00000000E+00  0.00000000E+00
  0.00000000E+00  0.00000000E+00  0.00000000E+00
  0.00000000E+00  0.00000000E+00  0.00000000E+00
  0.00000000E+00  0.00000000E+00  0.00000000E+00
  0.00000000E+00  0.00000000E+00  0.00000000E+00
  0.00000000E+00  0.00000000E+00  0.00000000E+00
  0.00000000E+00  0.00000000E+00  0.00000000E+00
  0.00000000E+00  0.00000000E+00  0.00000000E+00
  0.00000000E+00  0.00000000E+00  0.00000000E+00
  0.00000000E+00  0.00000000E+00  0.00000000E+00
  0.00000000E+00  0.00000000E+00  0.00000000E+00
  0.00000000E+00  0.00000000E+00  0.00000000E+00
  0.00000000E+00  0.00000000E+00  0.00000000E+00
  0.00000000E+00  0.00000000E+00  0.00000000E+00
  0.00000000E+00  0.00000000E+00  0.00000000E+00
  0.00000000E+00  0.00000000E+00  0.00000000E+00
  0.00000000E+00  0.00000000E+00  0.00000000E+00
  0.00000000E+00  0.00000000E+00  0.00000000E+00
  0.00000000E+00  0.00000000E+00  0.00000000E+00
  0.00000000E+00  0.00000000E+00  0.00000000E+00
  0.00000000E+00  0.00000000E+00  0.00000000E+00
  0.00000000E+00  0.00000000E+00  0.00000000E+00
  0.00000000E+00  0.00000000E+00  0.00000000E+00
  0.00000000E+00  0.00000000E+00  0.00000000E+00
  0.00000000E+00  0.00000000E+00  0.00000000E+00
  0.00000000E+00  0.00000000E+00  0.00000000E+00
  0.00000000E+00  0.00000000E+00  0.00000000E+00
  0.00000000E+00  0.00000000E+00  0.00000000E+00
  0.00000000E+00  0.00000000E+00  0.00000000E+00
  0.00000000E+00  0.00000000E+00  0.00000000E+00
  0.00000000E+00  0.00000000E+00  0.00000000E+00
  0.00000000E+00  0.00000000E+00  0.00000000E+00
  0.00000000E+00  0.00000000E+00  0.00000000E+00
  0.00000000E+00  0.00000000E+00  0.00000000E+00
  0.00000000E+00  0.00000000E+00  0.00000000E+00
  0.00000000E+00  0.00000000E+00  0.00000000E+00
  0.00000000E+00  0.00000000E+00  0.00000000E+00
  0.00000000E+00  0.00000000E+00  0.00000000E+00
  0.00000000E+00  0.00000000E+00  0.00000000E+00
  0.00000000E+00  0.00000000E+00  0.00000000E+00
  0.00000000E+00  0.00000000E+00  0.00000000E+00
  0.00000000E+00  0.00000000E+00  0.00000000E+00
  0.00000000E+00  0.00000000E+00  0.00000000E+00
  0.00000000E+00  0.00000000E+00  0.00000000E+00
  0.00000000E+00  0.00000000E+00  0.00000000E+00
  0.00000000E+00  0.00000000E+00  0.00000000E+00
  0.00000000E+00  0.00000000E+00  0.00000000E+00
  0.00000000E+00  0.00000000E+00  0.00000000E+00
  0.00000000E+00  0.00000000E+00  0.00000000E+00
  0.00000000E+00  0.00000000E+00  0.00000000E+00
  0.00000000E+00  0.00000000E+00  0.00000000E+00
  0.00000000E+00  0.00000000E+00  0.00000000E+00
  0.00000000E+00  0.00000000E+00  0.00000000E+00
  0.00000000E+00  0.00000000E+00  0.00000000E+00
  0.00000000E+00  0.00000000E+00  0.00000000E+00
  0.00000000E+00  0.00000000E+00  0.00000000E+00
  0.00000000E+00  0.00000000E+00  0.00000000E+00
  0.00000000E+00  0.00000000E+00  0.00000000E+00
  0.00000000E+00  0.00000000E+00  0.00000000E+00
  0.00000000E+00  0.00000000E+00  0.00000000E+00
  0.00000000E+00  0.00000000E+00  0.00000000E+00
  0.00000000E+00  0.00000000E+00  0.00000000E+00
  0.00000000E+00  0.00000000E+00  0.00000000E+00
  0.00000000E+00  0.00000000E+00  0.00000000E+00
  0.00000000E+00  0.00000000E+00  0.00000000E+00
  0.00000000E+00  0.00000000E+00  0.00000000E+00
  0.00000000E+00  0.00000000E+00  0.00000000E+00
  0.00000000E+00  0.00000000E+00  0.00000000E+00
  0.00000000E+00  0.00000000E+00  0.00000000E+00
  0.00000000E+00  0.00000000E+00  0.00000000E+00
  0.00000000E+00  0.00000000E+00  0.00000000E+00
  0.00000000E+00  0.00000000E+00  0.00000000E+00
  0.00000000E+00  0.00000000E+00  0.00000000E+00
  0.00000000E+00  0.00000000E+00  0.00000000E+00
  0.00000000E+00  0.00000000E+00  0.00000000E+00
  0.00000000E+00  0.00000000E+00  0.00000000E+00
  0.00000000E+00  0.00000000E+00  0.00000000E+00
  0.00000000E+00  0.00000000E+00  0.00000000E+00
  0.00000000E+00  0.00000000E+00  0.00000000E+00
  0.00000000E+00  0.00000000E+00  0.00000000E+00
  0.00000000E+00  0.00000000E+00  0.00000000E+00
  0.00000000E+00  0.00000000E+00  0.00000000E+00
  0.00000000E+00  0.00000000E+00  0.00000000E+00
  0.00000000E+00  0.00000000E+00  0.00000000E+00
  0.00000000E+00  0.00000000E+00  0.00000000E+00
  0.00000000E+00  0.00000000E+00  0.00000000E+00
  0.00000000E+00  0.00000000E+00  0.00000000E+00
  0.00000000E+00  0.00000000E+00  0.00000000E+00
  0.00000000E+00  0.00000000E+00  0.00000000E+00
  0.00000000E+00  0.00000000E+00  0.00000000E+00
  0.00000000E+00  0.00000000E+00  0.00000000E+00
  0.00000000E+00  0.00000000E+00  0.00000000E+00
  0.00000000E+00  0.00000000E+00  0.00000000E+00
  0.00000000E+00  0.00000000E+00  0.00000000E+00
  0.00000000E+00  0.00000000E+00  0.00000000E+00
  0.00000000E+00  0.00000000E+00  0.00000000E+00
  0.00000000E+00  0.00000000E+00  0.00000000E+00
  0.00000000E+00  0.00000000E+00  0.00000000E+00
  0.00000000E+00  0.00000000E+00  0.00000000E+00
  0.00000000E+00  0.00000000E+00  0.00000000E+00
  0.00000000E+00  0.00000000E+00  0.00000000E+00
  0.00000000E+00  0.00000000E+00  0.00000000E+00
  0.00000000E+00  0.00000000E+00  0.00000000E+00
  0.00000000E+00  0.00000000E+00  0.00000000E+00
  0.00000000E+00  0.00000000E+00  0.00000000E+00
