Ag Ge Cl                                
   1.00000000000000     
    10.3409399999999998  -10.3409399999999998    0.0000000000000000
    10.3409399999999998   10.3409399999999998    0.0000000000000000
     0.0000000000000000    0.0000000000000000   20.6818789999999986
   Ag   Ge   Cl
    32    32    96
Direct
  0.9844418913984557  0.9740291090655863  0.9895183710475763
  0.9697690765265621  0.9927943380650821  0.2387622731135156
  0.9789939577642958  0.0808730279226602  0.5147518086716563
  0.9887671215737655  0.0021850295823041  0.7440742194358013
  0.4883580944727592  0.0330749715751785  0.9680441436090336
  0.4854229005417655  0.9752468330094217  0.2181019631165387
  0.4991893224236120  0.0735625085412153  0.5235742519682266
  0.5045792032475670  0.9609974928993514  0.7566386363359612
  0.2503307881268262  0.2747389225908465  0.9911063678207982
  0.2503336780756518  0.1210143112415774  0.2941516522649981
  0.2694330196241777  0.2904298235325207  0.5483824581396156
  0.2308910609319413  0.2693268328296740  0.7401503675231635
  0.9693665932343623  0.4739334191132604  0.0150766074183745
  0.0539390322003148  0.5376036625861698  0.2669790877158085
  0.9993220636793236  0.5911081588842103  0.4869777660625036
  0.9884239867380986  0.4766789266115741  0.7434627670649122
  0.7510328635676714  0.2801088612657696  0.9712254409018500
  0.7592660265218902  0.2231552066341653  0.2526330244267053
  0.6303464584534330  0.2875070216752108  0.4462908843669118
  0.7634715650590287  0.2622992588158443  0.7516094603712411
  0.4902148888406815  0.4152104695556482  0.0283672852373207
  0.3396028438172652  0.4604958900801409  0.3072963825515043
  0.5008506719069099  0.5518028133771010  0.5418558227129830
  0.4994511925999702  0.5617349197289493  0.7338618848155319
  0.2516278583266453  0.7880199283556072  0.9870454053166297
  0.2582556046770845  0.7380793916948561  0.2338273506252746
  0.2714057568106202  0.8254477150532711  0.5034924525939490
  0.2428914600854393  0.7998778925141364  0.7204585808049643
  0.7420503517845149  0.6196472865284665  0.0749664213329315
  0.5681050348937932  0.7852602334685798  0.1943626402136534
  0.7445718046890961  0.7547527271973689  0.3540869054314956
  0.7733612366009315  0.7743358649286172  0.9563014079900396
  0.9557574093824274  0.1981048475283556  0.1149751137304569
  0.0141937307959273  0.2140680853266081  0.3700676548463622
  0.9720042186468657  0.2721596662220058  0.6389313985884940
  0.0233934909409564  0.2634841765583580  0.8859906253086228
  0.4779619579991500  0.1917165342418491  0.1234731820088737
  0.5266942476897114  0.2883862273555044  0.3437519185510214
  0.5277516415129717  0.3072255889768287  0.6188663000462231
  0.5193425166395406  0.2609111578014588  0.8710620376616880
  0.2374684856149923  0.4356675939468375  0.1097071271886822
  0.2465749187613772  0.4716083658890363  0.4102032624739213
  0.1897060133012326  0.5560397330852662  0.6371900532435406
  0.2847890841605640  0.4908424836473515  0.8584498277556318
  0.9976793820345685  0.7078113760355639  0.1270290709591087
  0.0030054253807893  0.7699261342686192  0.3755072874023878
  0.0035475880420387  0.7941523697988985  0.6295234941623921
  0.0248868695079851  0.7389287612796939  0.8878079157801489
  0.7470909425863427  0.4483980628006951  0.1274705944248475
  0.8169380078063174  0.4626188403904620  0.3668006277371278
  0.7622178869830222  0.6007375382316080  0.6314609175482033
  0.7584287960758938  0.5048678441917706  0.8612431212856758
  0.4659897617131773  0.6986824875875686  0.1173447739308450
  0.5002642281271242  0.6978990520410678  0.3780555248229225
  0.4879322413697758  0.7859445770418345  0.6359202927480315
  0.5181807199359605  0.7685047942276825  0.8806562142610133
  0.2202030258062220  0.9716843688577447  0.1286612846350169
  0.3085431478880359  0.9970643610187911  0.3699579752722623
  0.2319649418396845  0.0532909755346148  0.6371184252835068
  0.2632333464812834  0.9886115503466992  0.8653526685632592
  0.7405029932131005  0.9463330936215687  0.1205083249568384
  0.7395846141685848  0.0033119952848768  0.3948079618921651
  0.7216882951192553  0.0244987438406067  0.6321371398546951
  0.7736882060758072  0.9892056914338582  0.8675995957882374
  0.9106938692888404  0.2087633773006358  0.0054885395640814
  0.1184672310693490  0.2298194127476842  0.2828575811192647
  0.9077327934574486  0.2426714127032399  0.5373368121783728
  0.0675167313282542  0.3143902205861169  0.7777627325265847
  0.4109049035789809  0.1890153770976898  0.0147214178960100
  0.5789541768923341  0.1856898744014199  0.2632830409321591
  0.4369476506773483  0.2523279057286160  0.5252513028844443
  0.5959788586381557  0.2934106605637669  0.7709334541764366
  0.3251579321337534  0.4363020141686453  0.9668384775181692
  0.2051092085808637  0.4476847872689469  0.2254787790250908
  0.3029844573433044  0.5315888742182577  0.5033844790518562
  0.1465239431106319  0.5667931173702765  0.7485389733704234
  0.9394603434532425  0.7316008170268250  0.9895970502886221
  0.0877979620474973  0.7015598284202484  0.2361588064424842
  0.9523446257259968  0.7657105988488878  0.4853817683515057
  0.0579725522190907  0.8196003518247315  0.7393893711532321
  0.8044694959761260  0.5158607309836793  0.9778220545423377
  0.7256755793086568  0.3985879896413231  0.2326451734539523
  0.8687226991581318  0.4765365295082120  0.4741551711475901
  0.6721315067585709  0.5504422078540346  0.7249077173237840
  0.4236805965139507  0.7489867017035708  0.0169779145425363
  0.6089132105700885  0.6725353015032001  0.2888287439612189
  0.4304256183010813  0.7639542164090954  0.5259343237462710
  0.5741946082373232  0.7937555274054384  0.7740857491786582
  0.3105213117193532  0.9638147957324866  0.9762006970537407
  0.1449457511349803  0.9705514189134122  0.2327533590934765
  0.3373469262522549  0.0156082458169550  0.4809308630421160
  0.1554190023373137  0.0756861086378038  0.7380807308827875
  0.8107435197757520  0.9629894558264780  0.9866619083206385
  0.6638312181871336  0.9225374470505885  0.2311380850985456
  0.8148136777549568  0.0058792288536605  0.4944035761193640
  0.6611191493955429  0.0394280888655863  0.7416259438997883
  0.0441078448128174  0.0584375379230449  0.0869981406148836
  0.0780832828941882  0.0750315709472945  0.4106328149551129
  0.1433844383621355  0.1599333290476301  0.5749731887055883
  0.1676912097293785  0.1855640528303128  0.9037381566315196
  0.5396435946724114  0.0380067529911179  0.1002657782133739
  0.6123378983717633  0.1034692262640074  0.4280493148791297
  0.6681697942584376  0.1677410956067094  0.5991760959987888
  0.6363718149121118  0.1632187369763809  0.9174465354887519
  0.3894516346516345  0.3722105771039829  0.1283948076187330
  0.4970829665852476  0.4104914536273674  0.2746950554811635
  0.4418114480034865  0.4503762736975024  0.6351274856999937
  0.3505711297743411  0.3619434714399669  0.8048811010667141
  0.0716892649089388  0.5704991085085398  0.0917362262929888
  0.1274562645876161  0.5792724632120747  0.3996398377812212
  0.0295824602345580  0.5675799571384775  0.6094838462548506
  0.1580215345407275  0.6648645189794732  0.9297383929180441
  0.8957378890847058  0.3886041464329315  0.1204265455691005
  0.9575847596225003  0.4161504410441233  0.3157029244369130
  0.8653139792432119  0.3906839044178271  0.6731044840107313
  0.8231225375178807  0.3477870311410258  0.8607512747275001
  0.5510265826942075  0.5728486999795226  0.0812957318008833
  0.5319954763320356  0.5513640960649296  0.4185747545838492
  0.6341840155944058  0.6635424060788883  0.5749766434392869
  0.6454893056465658  0.6728960949010689  0.9132106729161038
  0.3430519949091483  0.8732517822797032  0.1788609376831383
  0.4490037022122704  0.9368441325844029  0.3415665510989718
  0.3832135525840881  0.9105921479267427  0.6681928663192779
  0.3083736283304493  0.8365620177919870  0.8340660194887476
  0.8825585612479067  0.8896760866970288  0.1579396452237701
  0.9093346213328659  0.8926101365853506  0.3433516045811824
  0.9852566730769613  0.9582227091807335  0.6173408079749345
  0.8261293700859947  0.8450744278241406  0.8372812460213312
  0.8080432826793383  0.1320221761819415  0.1456465703300516
  0.9048165473179248  0.1320199371465226  0.2999503586427244
  0.8788819499943863  0.1580588461063629  0.6955727616896452
  0.9233057994071409  0.0601782002803785  0.8502841381260596
  0.3545277348202692  0.1230361341449591  0.1847623246244579
  0.3765374452713827  0.2409955465205215  0.3526990756374048
  0.3396666571200135  0.1668176600603741  0.6700233459834750
  0.4106743190673363  0.0578999217635679  0.8383101687430008
  0.1641669119073543  0.2900022125521839  0.0995856342066915
  0.1613644239950128  0.3546101928624300  0.4543068544295333
  0.1879747033773084  0.3909103590427770  0.6380111096692305
  0.0765544264415194  0.4036388045697442  0.9328575693613920
  0.8669975886759825  0.6315089823230590  0.1700806837007574
  0.8857373888367552  0.6618255815828845  0.3423949621745924
  0.8098370121616075  0.7413575780557193  0.6714293663140227
  0.8954257022783856  0.5744297043373781  0.8258184456513716
  0.6668698654932470  0.3242009534616061  0.0785096946509083
  0.7829352322499914  0.3008308480499527  0.3828024068534494
  0.6298376871593833  0.3860566717920437  0.5473916111539681
  0.5783842065571321  0.3962454895748553  0.9222603471648942
  0.3331914673034002  0.6235761876831477  0.1399075675513272
  0.3665387895895697  0.6517177288216189  0.3169139678583256
  0.3770939685158780  0.6755872614926115  0.6807649621410945
  0.4224745953243781  0.5766088694153423  0.8462259033593530
  0.1508796645159874  0.8359282784008270  0.0887916866607971
  0.2312605720783290  0.8586765261373952  0.3851596090982302
  0.1707919073310244  0.7897806981082223  0.5984260649024585
  0.0857340826658438  0.8889478629398797  0.9118541513269506
  0.6888231300577862  0.7896616993346043  0.0823370635596571
  0.6591758924819945  0.8657873290001070  0.4213471160203521
  0.5864111464824483  0.9515316072603542  0.5878275292245072
  0.5914050123054139  0.9054232114527471  0.9236220591135730
 
  0.00000000E+00  0.00000000E+00  0.00000000E+00
  0.00000000E+00  0.00000000E+00  0.00000000E+00
  0.00000000E+00  0.00000000E+00  0.00000000E+00
  0.00000000E+00  0.00000000E+00  0.00000000E+00
  0.00000000E+00  0.00000000E+00  0.00000000E+00
  0.00000000E+00  0.00000000E+00  0.00000000E+00
  0.00000000E+00  0.00000000E+00  0.00000000E+00
  0.00000000E+00  0.00000000E+00  0.00000000E+00
  0.00000000E+00  0.00000000E+00  0.00000000E+00
  0.00000000E+00  0.00000000E+00  0.00000000E+00
  0.00000000E+00  0.00000000E+00  0.00000000E+00
  0.00000000E+00  0.00000000E+00  0.00000000E+00
  0.00000000E+00  0.00000000E+00  0.00000000E+00
  0.00000000E+00  0.00000000E+00  0.00000000E+00
  0.00000000E+00  0.00000000E+00  0.00000000E+00
  0.00000000E+00  0.00000000E+00  0.00000000E+00
  0.00000000E+00  0.00000000E+00  0.00000000E+00
  0.00000000E+00  0.00000000E+00  0.00000000E+00
  0.00000000E+00  0.00000000E+00  0.00000000E+00
  0.00000000E+00  0.00000000E+00  0.00000000E+00
  0.00000000E+00  0.00000000E+00  0.00000000E+00
  0.00000000E+00  0.00000000E+00  0.00000000E+00
  0.00000000E+00  0.00000000E+00  0.00000000E+00
  0.00000000E+00  0.00000000E+00  0.00000000E+00
  0.00000000E+00  0.00000000E+00  0.00000000E+00
  0.00000000E+00  0.00000000E+00  0.00000000E+00
  0.00000000E+00  0.00000000E+00  0.00000000E+00
  0.00000000E+00  0.00000000E+00  0.00000000E+00
  0.00000000E+00  0.00000000E+00  0.00000000E+00
  0.00000000E+00  0.00000000E+00  0.00000000E+00
  0.00000000E+00  0.00000000E+00  0.00000000E+00
  0.00000000E+00  0.00000000E+00  0.00000000E+00
  0.00000000E+00  0.00000000E+00  0.00000000E+00
  0.00000000E+00  0.00000000E+00  0.00000000E+00
  0.00000000E+00  0.00000000E+00  0.00000000E+00
  0.00000000E+00  0.00000000E+00  0.00000000E+00
  0.00000000E+00  0.00000000E+00  0.00000000E+00
  0.00000000E+00  0.00000000E+00  0.00000000E+00
  0.00000000E+00  0.00000000E+00  0.00000000E+00
  0.00000000E+00  0.00000000E+00  0.00000000E+00
  0.00000000E+00  0.00000000E+00  0.00000000E+00
  0.00000000E+00  0.00000000E+00  0.00000000E+00
  0.00000000E+00  0.00000000E+00  0.00000000E+00
  0.00000000E+00  0.00000000E+00  0.00000000E+00
  0.00000000E+00  0.00000000E+00  0.00000000E+00
  0.00000000E+00  0.00000000E+00  0.00000000E+00
  0.00000000E+00  0.00000000E+00  0.00000000E+00
  0.00000000E+00  0.00000000E+00  0.00000000E+00
  0.00000000E+00  0.00000000E+00  0.00000000E+00
  0.00000000E+00  0.00000000E+00  0.00000000E+00
  0.00000000E+00  0.00000000E+00  0.00000000E+00
  0.00000000E+00  0.00000000E+00  0.00000000E+00
  0.00000000E+00  0.00000000E+00  0.00000000E+00
  0.00000000E+00  0.00000000E+00  0.00000000E+00
  0.00000000E+00  0.00000000E+00  0.00000000E+00
  0.00000000E+00  0.00000000E+00  0.00000000E+00
  0.00000000E+00  0.00000000E+00  0.00000000E+00
  0.00000000E+00  0.00000000E+00  0.00000000E+00
  0.00000000E+00  0.00000000E+00  0.00000000E+00
  0.00000000E+00  0.00000000E+00  0.00000000E+00
  0.00000000E+00  0.00000000E+00  0.00000000E+00
  0.00000000E+00  0.00000000E+00  0.00000000E+00
  0.00000000E+00  0.00000000E+00  0.00000000E+00
  0.00000000E+00  0.00000000E+00  0.00000000E+00
  0.00000000E+00  0.00000000E+00  0.00000000E+00
  0.00000000E+00  0.00000000E+00  0.00000000E+00
  0.00000000E+00  0.00000000E+00  0.00000000E+00
  0.00000000E+00  0.00000000E+00  0.00000000E+00
  0.00000000E+00  0.00000000E+00  0.00000000E+00
  0.00000000E+00  0.00000000E+00  0.00000000E+00
  0.00000000E+00  0.00000000E+00  0.00000000E+00
  0.00000000E+00  0.00000000E+00  0.00000000E+00
  0.00000000E+00  0.00000000E+00  0.00000000E+00
  0.00000000E+00  0.00000000E+00  0.00000000E+00
  0.00000000E+00  0.00000000E+00  0.00000000E+00
  0.00000000E+00  0.00000000E+00  0.00000000E+00
  0.00000000E+00  0.00000000E+00  0.00000000E+00
  0.00000000E+00  0.00000000E+00  0.00000000E+00
  0.00000000E+00  0.00000000E+00  0.00000000E+00
  0.00000000E+00  0.00000000E+00  0.00000000E+00
  0.00000000E+00  0.00000000E+00  0.00000000E+00
  0.00000000E+00  0.00000000E+00  0.00000000E+00
  0.00000000E+00  0.00000000E+00  0.00000000E+00
  0.00000000E+00  0.00000000E+00  0.00000000E+00
  0.00000000E+00  0.00000000E+00  0.00000000E+00
  0.00000000E+00  0.00000000E+00  0.00000000E+00
  0.00000000E+00  0.00000000E+00  0.00000000E+00
  0.00000000E+00  0.00000000E+00  0.00000000E+00
  0.00000000E+00  0.00000000E+00  0.00000000E+00
  0.00000000E+00  0.00000000E+00  0.00000000E+00
  0.00000000E+00  0.00000000E+00  0.00000000E+00
  0.00000000E+00  0.00000000E+00  0.00000000E+00
  0.00000000E+00  0.00000000E+00  0.00000000E+00
  0.00000000E+00  0.00000000E+00  0.00000000E+00
  0.00000000E+00  0.00000000E+00  0.00000000E+00
  0.00000000E+00  0.00000000E+00  0.00000000E+00
  0.00000000E+00  0.00000000E+00  0.00000000E+00
  0.00000000E+00  0.00000000E+00  0.00000000E+00
  0.00000000E+00  0.00000000E+00  0.00000000E+00
  0.00000000E+00  0.00000000E+00  0.00000000E+00
  0.00000000E+00  0.00000000E+00  0.00000000E+00
  0.00000000E+00  0.00000000E+00  0.00000000E+00
  0.00000000E+00  0.00000000E+00  0.00000000E+00
  0.00000000E+00  0.00000000E+00  0.00000000E+00
  0.00000000E+00  0.00000000E+00  0.00000000E+00
  0.00000000E+00  0.00000000E+00  0.00000000E+00
  0.00000000E+00  0.00000000E+00  0.00000000E+00
  0.00000000E+00  0.00000000E+00  0.00000000E+00
  0.00000000E+00  0.00000000E+00  0.00000000E+00
  0.00000000E+00  0.00000000E+00  0.00000000E+00
  0.00000000E+00  0.00000000E+00  0.00000000E+00
  0.00000000E+00  0.00000000E+00  0.00000000E+00
  0.00000000E+00  0.00000000E+00  0.00000000E+00
  0.00000000E+00  0.00000000E+00  0.00000000E+00
  0.00000000E+00  0.00000000E+00  0.00000000E+00
  0.00000000E+00  0.00000000E+00  0.00000000E+00
  0.00000000E+00  0.00000000E+00  0.00000000E+00
  0.00000000E+00  0.00000000E+00  0.00000000E+00
  0.00000000E+00  0.00000000E+00  0.00000000E+00
  0.00000000E+00  0.00000000E+00  0.00000000E+00
  0.00000000E+00  0.00000000E+00  0.00000000E+00
  0.00000000E+00  0.00000000E+00  0.00000000E+00
  0.00000000E+00  0.00000000E+00  0.00000000E+00
  0.00000000E+00  0.00000000E+00  0.00000000E+00
  0.00000000E+00  0.00000000E+00  0.00000000E+00
  0.00000000E+00  0.00000000E+00  0.00000000E+00
  0.00000000E+00  0.00000000E+00  0.00000000E+00
  0.00000000E+00  0.00000000E+00  0.00000000E+00
  0.00000000E+00  0.00000000E+00  0.00000000E+00
  0.00000000E+00  0.00000000E+00  0.00000000E+00
  0.00000000E+00  0.00000000E+00  0.00000000E+00
  0.00000000E+00  0.00000000E+00  0.00000000E+00
  0.00000000E+00  0.00000000E+00  0.00000000E+00
  0.00000000E+00  0.00000000E+00  0.00000000E+00
  0.00000000E+00  0.00000000E+00  0.00000000E+00
  0.00000000E+00  0.00000000E+00  0.00000000E+00
  0.00000000E+00  0.00000000E+00  0.00000000E+00
  0.00000000E+00  0.00000000E+00  0.00000000E+00
  0.00000000E+00  0.00000000E+00  0.00000000E+00
  0.00000000E+00  0.00000000E+00  0.00000000E+00
  0.00000000E+00  0.00000000E+00  0.00000000E+00
  0.00000000E+00  0.00000000E+00  0.00000000E+00
  0.00000000E+00  0.00000000E+00  0.00000000E+00
  0.00000000E+00  0.00000000E+00  0.00000000E+00
  0.00000000E+00  0.00000000E+00  0.00000000E+00
  0.00000000E+00  0.00000000E+00  0.00000000E+00
  0.00000000E+00  0.00000000E+00  0.00000000E+00
  0.00000000E+00  0.00000000E+00  0.00000000E+00
  0.00000000E+00  0.00000000E+00  0.00000000E+00
  0.00000000E+00  0.00000000E+00  0.00000000E+00
  0.00000000E+00  0.00000000E+00  0.00000000E+00
  0.00000000E+00  0.00000000E+00  0.00000000E+00
  0.00000000E+00  0.00000000E+00  0.00000000E+00
  0.00000000E+00  0.00000000E+00  0.00000000E+00
  0.00000000E+00  0.00000000E+00  0.00000000E+00
  0.00000000E+00  0.00000000E+00  0.00000000E+00
  0.00000000E+00  0.00000000E+00  0.00000000E+00
  0.00000000E+00  0.00000000E+00  0.00000000E+00
  0.00000000E+00  0.00000000E+00  0.00000000E+00
  0.00000000E+00  0.00000000E+00  0.00000000E+00
