I Tl Hg                                 
   1.00000000000000     
    11.9846409999999999  -11.9846409999999999    0.0000000000000000
    11.9846409999999999   11.9846409999999999    0.0000000000000000
     0.0000000000000000    0.0000000000000000   23.9692819999999998
   Hg   I    Tl
    32    96    32
Direct
  0.9624005556218760  0.0403515962729745  0.8827346074963013
  0.0261707182831356  0.9634803405719233  0.2339098522986414
  0.9903192055713809  0.0556175747682500  0.5194288610320591
  0.0226503645787414  0.9415611135197359  0.7019736242503518
  0.4998882973221470 -0.0003181887865126  0.0350604978248425
  0.5106249883465379  0.9900052573179097  0.2555844428164051
  0.6122336310397500  0.0900706082842052  0.4857536203099868
  0.4911082416774911  0.0314607529351337  0.7785672368531286
  0.2233663514241641  0.2900138560079946  0.0211000617812091
  0.2690178321710924  0.2965138324665764  0.3029465894568791
  0.2815870962293569  0.2834134761086682  0.5222178552834402
  0.2572979342832931  0.2654199286358858  0.7674459212812059
  0.9574036315967269  0.4005200627988584  0.0482584819055840
  0.0080217715234668  0.5313023165418173  0.2237920944182764
  0.9201154031102815  0.5268360530008874  0.5258585862705252
  0.0129524397920065  0.4456495877597370  0.7626035320977198
  0.7403362855013094  0.2324099544317872  0.0414588226838370
  0.7765681848824436  0.2405646620019438  0.2485678143565860
  0.7091759885488129  0.2938739141672598  0.4290862408428449
  0.7661846257439794  0.2851862475766716  0.7522601254072845
  0.5133724159438938  0.5362869134721054  0.9927629952786086
  0.4402661981531146  0.4735676363099030  0.2828753217371411
  0.4592696386608992  0.5563896048993887  0.5163392824186805
  0.4874084661099496  0.5079045749730434  0.7104385406986837
  0.1684047807812604  0.7758278038856666  0.9928233506756148
  0.2079054540438203  0.7461176974768524  0.2369010966085648
  0.2477683279549421  0.7961102201921159  0.5216424602205372
  0.2524687195639432  0.7544960088071641  0.7414886089933449
  0.8440212579157786  0.8050331620633011  0.9632780737831208
  0.7047531477129050  0.7943143263089811  0.2606406728954908
  0.6904307084969370  0.6878636914074830  0.4608367291940551
  0.6651517665896717  0.7033332906759439  0.7198335800044490
  0.0666764603640291  0.0954062092066846  0.9618321590294088
  0.1643642708065653  0.0652586289406170  0.2456187677921227
  0.1557125131332242  0.0616744221048797  0.4986670728472875
  0.1747295666074411  0.1221192974013197  0.7809273902050501
  0.6672395071903610  0.1433294091618948  0.9567507473179471
  0.6714574694437530  0.1729240674084661  0.3267180496898853
  0.7656623336956568  0.1404825592271618  0.4885274466452874
  0.6196736826767687  0.1443464751595274  0.7738941651539545
  0.3383567613095398  0.4062319493030656  0.0435595827115924
  0.3443049861914760  0.3556582674515660  0.2079097199032188
  0.4087650255777214  0.4134396569324028  0.5690965534634413
  0.4183552513599938  0.2871590000660210  0.7747691983664372
  0.1590053215414793  0.6153420505309252  0.0286865593652358
  0.1749444190015418  0.5695444404025579  0.2298392036178561
  0.0611097548011282  0.5876890611525317  0.4927000720179528
  0.1235687385092660  0.6658994212667805  0.7594482587026650
  0.9076815903391255  0.2382392753886529  0.0434054041969565
  0.8113913114112409  0.3830146162183434  0.1993393376581543
  0.8335617494106421  0.4019912295690227  0.5599974088670594
  0.9602687119258563  0.2885714221131273  0.7514637700547504
  0.6569957677183970  0.6252681914897078  0.9808426703861907
  0.6326969956224092  0.6679839779087801  0.2127541321033305
  0.6128822689454819  0.5354404475490532  0.4577164381027012
  0.5716832995339165  0.6306515393918585  0.7977335272733109
  0.3478309631995724  0.9226769263337317  0.0209147019851695
  0.3603915151062279  0.9168499328422671  0.2837304290946965
  0.3612790693148521  0.8981122236839962  0.4812156910167317
  0.3980712867675191  0.8112900569398999  0.7539526832865162
  0.9896427571478010  0.7323958164545449  0.9380851676982350
  0.8153823953187241  0.9059497651105904  0.2325481661952324
  0.8862765437689113  0.9348035734419021  0.5017885601523224
  0.9051009771737216  0.8343811174735172  0.6708458086675957
  0.8551893097861938  0.9752785931263332  0.9730483853549113
  0.9092496794027847  0.1534454186480568  0.2925543827452601
  0.9642292102699901  0.2152201020881256  0.4823362216911391
  0.8534953592603205  0.0915049087926250  0.8049907442333220
  0.4542234214981725  0.1541154438559222  0.0537362271276273
  0.4575979494214699  0.1413453818645145  0.2298815091652829
  0.3734108305683265  0.1599192674978486  0.5447472103357222
  0.3886877324543564  0.0476767113287135  0.6898150450059496
  0.0987018094538770  0.3909893773920779  0.9746606604207351
  0.1080239122535194  0.3388469274360338  0.3077057433820351
  0.1658867436188081  0.3811159420550642  0.4901134946989783
  0.1779890043448543  0.4066510466193044  0.8096667555663182
  0.8717705107042695  0.5247064525513563  0.0090603789821686
  0.8769089943411154  0.6158190422173883  0.1859281990501185
  0.8259238948162497  0.6742776984650795  0.5361284517591830
  0.8040064064091043  0.6013152054291696  0.7187120517130040
  0.6523022745820689  0.3720796542450301  0.0308616691627630
  0.5873871001722222  0.4019403306247408  0.2725672733794284
  0.5696300582843630  0.2943968917317125  0.4855361566250669
  0.6069204204414320  0.4054938067418751  0.6899295485808847
  0.3972267491967829  0.6694188323005205  0.9942788432059336
  0.4014414651775763  0.6271180263543980  0.2610407701494408
  0.3459818517316908  0.6300298521028269  0.4510633307386767
  0.3380373006500410  0.5411280191150727  0.7392493404306745
  0.1007246634885385  0.8866201477770420  0.0598962398537624
  0.0394933802593884  0.7903696730005938  0.2218254549070498
  0.0914150247205534  0.8247857303715381  0.4944945391279532
  0.1762440279375339  0.8919327603409009  0.6632378251924280
  0.6069552804135393  0.8939029460940759  0.9868205555084305
  0.6079776919976545  0.9034218907839763  0.3296032611438218
  0.5790086340148589  0.8039035318712312  0.4808394739814068
  0.5920838366066351  0.8949337188613317  0.7745708736428163
  0.9580652957319926  0.0259094674401019  0.1375119622680981
  0.0030702947321794  0.9499356142507347  0.3524831076941310
  0.9931084011889966  0.0885570743894481  0.6468946585712126
  0.0474827343102393  0.9171961921221350  0.8200261673479713
  0.5565458991039743  0.9245651204412110  0.1476382492349184
  0.4922767128166877  0.0613004181189535  0.4139903463123540
  0.5832921611389544  0.0280575958480624  0.5961145358918407
  0.4379264869666771  0.0392659947892958  0.8890703159572466
  0.1910471206816808  0.1749783374332960  0.0995521111602840
  0.2921103075517775  0.1679481131935406  0.3741634413235073
  0.2029730550855287  0.2948291192175351  0.6492564711099048
  0.2780559525972093  0.2190002567192977  0.9191637256002760
  0.0529661667481802  0.4076159192954167  0.1465693432057383
  0.9727577014601084  0.5329244667087332  0.3400998298164344
  0.0294300398102938  0.5050617140348879  0.6520273129863589
  0.9645494294892992  0.5386130306217616  0.8499747925926805
  0.6962747721959648  0.1604083221833883  0.1483649692309789
  0.8278910301772592  0.3767021063958388  0.3839694716851159
  0.7619245937219377  0.2246684168822498  0.6486724422216175
  0.7441656069950394  0.3504361336742742  0.8521477782514773
  0.5135849364880903  0.5225417679403174  0.1124996227666563
  0.3597360334563787  0.4127988451236929  0.3811892666534050
  0.5155757107100269  0.6364810300346481  0.6159106673353723
  0.4759417346955290  0.4519085386680645  0.8978907082444395
  0.2975472846932920  0.7862693830279748  0.1470697182579347
  0.2088054264325008  0.7529429874118846  0.3541107061548191
  0.2760261754976853  0.6908796429577460  0.6095081886604420
  0.2412956684840054  0.7977056203741383  0.8899616164817000
  0.7921180591785881  0.7704966940599848  0.0729998680687309
  0.7871744702234279  0.7195001132799119  0.3636601199784650
  0.6806189176233780  0.8090571745584455  0.6348171499314885
  0.7557484376973113  0.7779018361697607  0.8640281339495128
  0.0313687271160606  0.2042450657682040  0.1838001722816993
  0.0822077730677356  0.1600813586290618  0.3752399915369586
  0.0054232819126414  0.3026909647722191  0.6118639279137759
  0.0792404616019216  0.2520702018438409  0.8723080444870607
  0.5382499768419349  0.2999801605774038  0.1419457163957669
  0.4852215784121611  0.2479033448789394  0.3540571753683465
  0.5114855524423164  0.2078667107949137  0.6573534432595115
  0.4863882171946963  0.2398335997280940  0.9183860337964402
  0.3158323912331613  0.5862314912884922  0.1195067310584199
  0.1782756741187994  0.5149639249627669  0.3715196144102434
  0.2313244411822057  0.4891590083942347  0.6157046767048531
  0.2821529926760424  0.5165164098438133  0.9320293528270193
  0.9913940516068094  0.7151815779797273  0.0834744359392835
  0.0043625756949668  0.7428251755481635  0.3714405658390796
  0.0657056132622073  0.7219833316522793  0.6204339244951360
  0.9329330047316038  0.7342485969443074  0.7978124148625535
  0.7231264390078794  0.5325337223824947  0.1022058530957634
  0.7634423472505958  0.5284423353616167  0.2949628465553302
  0.6973866311359771  0.5400091725146107  0.6013722088576147
  0.7562348956213001  0.5579730183992755  0.8563586728879902
  0.5574612013837638  0.7337485614268068  0.0795137171871348
  0.4382429703047378  0.7744082504686629  0.3713916489743556
  0.4832140692143583  0.8492328071014699  0.6107683506634727
  0.4399732476750401  0.8292995321172052  0.9055515016220657
  0.3174126223506694  0.0203325057504076  0.1522983337107113
  0.2162609206544349  0.9624452191468417  0.3771624301995445
  0.2051980497849580  0.0917640720251660  0.6365679566289948
  0.2350579415408803  0.0152537423234447  0.9049409892218409
  0.7549246179936542  0.9678256425926606  0.1036780414093768
  0.8076614583250400  0.0104907644794043  0.3665665098948363
  0.7276906862285922  0.0043912049788265  0.6935316270750930
  0.7057137483808965  0.9900962417944736  0.8751622502887686
 
  0.00000000E+00  0.00000000E+00  0.00000000E+00
  0.00000000E+00  0.00000000E+00  0.00000000E+00
  0.00000000E+00  0.00000000E+00  0.00000000E+00
  0.00000000E+00  0.00000000E+00  0.00000000E+00
  0.00000000E+00  0.00000000E+00  0.00000000E+00
  0.00000000E+00  0.00000000E+00  0.00000000E+00
  0.00000000E+00  0.00000000E+00  0.00000000E+00
  0.00000000E+00  0.00000000E+00  0.00000000E+00
  0.00000000E+00  0.00000000E+00  0.00000000E+00
  0.00000000E+00  0.00000000E+00  0.00000000E+00
  0.00000000E+00  0.00000000E+00  0.00000000E+00
  0.00000000E+00  0.00000000E+00  0.00000000E+00
  0.00000000E+00  0.00000000E+00  0.00000000E+00
  0.00000000E+00  0.00000000E+00  0.00000000E+00
  0.00000000E+00  0.00000000E+00  0.00000000E+00
  0.00000000E+00  0.00000000E+00  0.00000000E+00
  0.00000000E+00  0.00000000E+00  0.00000000E+00
  0.00000000E+00  0.00000000E+00  0.00000000E+00
  0.00000000E+00  0.00000000E+00  0.00000000E+00
  0.00000000E+00  0.00000000E+00  0.00000000E+00
  0.00000000E+00  0.00000000E+00  0.00000000E+00
  0.00000000E+00  0.00000000E+00  0.00000000E+00
  0.00000000E+00  0.00000000E+00  0.00000000E+00
  0.00000000E+00  0.00000000E+00  0.00000000E+00
  0.00000000E+00  0.00000000E+00  0.00000000E+00
  0.00000000E+00  0.00000000E+00  0.00000000E+00
  0.00000000E+00  0.00000000E+00  0.00000000E+00
  0.00000000E+00  0.00000000E+00  0.00000000E+00
  0.00000000E+00  0.00000000E+00  0.00000000E+00
  0.00000000E+00  0.00000000E+00  0.00000000E+00
  0.00000000E+00  0.00000000E+00  0.00000000E+00
  0.00000000E+00  0.00000000E+00  0.00000000E+00
  0.00000000E+00  0.00000000E+00  0.00000000E+00
  0.00000000E+00  0.00000000E+00  0.00000000E+00
  0.00000000E+00  0.00000000E+00  0.00000000E+00
  0.00000000E+00  0.00000000E+00  0.00000000E+00
  0.00000000E+00  0.00000000E+00  0.00000000E+00
  0.00000000E+00  0.00000000E+00  0.00000000E+00
  0.00000000E+00  0.00000000E+00  0.00000000E+00
  0.00000000E+00  0.00000000E+00  0.00000000E+00
  0.00000000E+00  0.00000000E+00  0.00000000E+00
  0.00000000E+00  0.00000000E+00  0.00000000E+00
  0.00000000E+00  0.00000000E+00  0.00000000E+00
  0.00000000E+00  0.00000000E+00  0.00000000E+00
  0.00000000E+00  0.00000000E+00  0.00000000E+00
  0.00000000E+00  0.00000000E+00  0.00000000E+00
  0.00000000E+00  0.00000000E+00  0.00000000E+00
  0.00000000E+00  0.00000000E+00  0.00000000E+00
  0.00000000E+00  0.00000000E+00  0.00000000E+00
  0.00000000E+00  0.00000000E+00  0.00000000E+00
  0.00000000E+00  0.00000000E+00  0.00000000E+00
  0.00000000E+00  0.00000000E+00  0.00000000E+00
  0.00000000E+00  0.00000000E+00  0.00000000E+00
  0.00000000E+00  0.00000000E+00  0.00000000E+00
  0.00000000E+00  0.00000000E+00  0.00000000E+00
  0.00000000E+00  0.00000000E+00  0.00000000E+00
  0.00000000E+00  0.00000000E+00  0.00000000E+00
  0.00000000E+00  0.00000000E+00  0.00000000E+00
  0.00000000E+00  0.00000000E+00  0.00000000E+00
  0.00000000E+00  0.00000000E+00  0.00000000E+00
  0.00000000E+00  0.00000000E+00  0.00000000E+00
  0.00000000E+00  0.00000000E+00  0.00000000E+00
  0.00000000E+00  0.00000000E+00  0.00000000E+00
  0.00000000E+00  0.00000000E+00  0.00000000E+00
  0.00000000E+00  0.00000000E+00  0.00000000E+00
  0.00000000E+00  0.00000000E+00  0.00000000E+00
  0.00000000E+00  0.00000000E+00  0.00000000E+00
  0.00000000E+00  0.00000000E+00  0.00000000E+00
  0.00000000E+00  0.00000000E+00  0.00000000E+00
  0.00000000E+00  0.00000000E+00  0.00000000E+00
  0.00000000E+00  0.00000000E+00  0.00000000E+00
  0.00000000E+00  0.00000000E+00  0.00000000E+00
  0.00000000E+00  0.00000000E+00  0.00000000E+00
  0.00000000E+00  0.00000000E+00  0.00000000E+00
  0.00000000E+00  0.00000000E+00  0.00000000E+00
  0.00000000E+00  0.00000000E+00  0.00000000E+00
  0.00000000E+00  0.00000000E+00  0.00000000E+00
  0.00000000E+00  0.00000000E+00  0.00000000E+00
  0.00000000E+00  0.00000000E+00  0.00000000E+00
  0.00000000E+00  0.00000000E+00  0.00000000E+00
  0.00000000E+00  0.00000000E+00  0.00000000E+00
  0.00000000E+00  0.00000000E+00  0.00000000E+00
  0.00000000E+00  0.00000000E+00  0.00000000E+00
  0.00000000E+00  0.00000000E+00  0.00000000E+00
  0.00000000E+00  0.00000000E+00  0.00000000E+00
  0.00000000E+00  0.00000000E+00  0.00000000E+00
  0.00000000E+00  0.00000000E+00  0.00000000E+00
  0.00000000E+00  0.00000000E+00  0.00000000E+00
  0.00000000E+00  0.00000000E+00  0.00000000E+00
  0.00000000E+00  0.00000000E+00  0.00000000E+00
  0.00000000E+00  0.00000000E+00  0.00000000E+00
  0.00000000E+00  0.00000000E+00  0.00000000E+00
  0.00000000E+00  0.00000000E+00  0.00000000E+00
  0.00000000E+00  0.00000000E+00  0.00000000E+00
  0.00000000E+00  0.00000000E+00  0.00000000E+00
  0.00000000E+00  0.00000000E+00  0.00000000E+00
  0.00000000E+00  0.00000000E+00  0.00000000E+00
  0.00000000E+00  0.00000000E+00  0.00000000E+00
  0.00000000E+00  0.00000000E+00  0.00000000E+00
  0.00000000E+00  0.00000000E+00  0.00000000E+00
  0.00000000E+00  0.00000000E+00  0.00000000E+00
  0.00000000E+00  0.00000000E+00  0.00000000E+00
  0.00000000E+00  0.00000000E+00  0.00000000E+00
  0.00000000E+00  0.00000000E+00  0.00000000E+00
  0.00000000E+00  0.00000000E+00  0.00000000E+00
  0.00000000E+00  0.00000000E+00  0.00000000E+00
  0.00000000E+00  0.00000000E+00  0.00000000E+00
  0.00000000E+00  0.00000000E+00  0.00000000E+00
  0.00000000E+00  0.00000000E+00  0.00000000E+00
  0.00000000E+00  0.00000000E+00  0.00000000E+00
  0.00000000E+00  0.00000000E+00  0.00000000E+00
  0.00000000E+00  0.00000000E+00  0.00000000E+00
  0.00000000E+00  0.00000000E+00  0.00000000E+00
  0.00000000E+00  0.00000000E+00  0.00000000E+00
  0.00000000E+00  0.00000000E+00  0.00000000E+00
  0.00000000E+00  0.00000000E+00  0.00000000E+00
  0.00000000E+00  0.00000000E+00  0.00000000E+00
  0.00000000E+00  0.00000000E+00  0.00000000E+00
  0.00000000E+00  0.00000000E+00  0.00000000E+00
  0.00000000E+00  0.00000000E+00  0.00000000E+00
  0.00000000E+00  0.00000000E+00  0.00000000E+00
  0.00000000E+00  0.00000000E+00  0.00000000E+00
  0.00000000E+00  0.00000000E+00  0.00000000E+00
  0.00000000E+00  0.00000000E+00  0.00000000E+00
  0.00000000E+00  0.00000000E+00  0.00000000E+00
  0.00000000E+00  0.00000000E+00  0.00000000E+00
  0.00000000E+00  0.00000000E+00  0.00000000E+00
  0.00000000E+00  0.00000000E+00  0.00000000E+00
  0.00000000E+00  0.00000000E+00  0.00000000E+00
  0.00000000E+00  0.00000000E+00  0.00000000E+00
  0.00000000E+00  0.00000000E+00  0.00000000E+00
  0.00000000E+00  0.00000000E+00  0.00000000E+00
  0.00000000E+00  0.00000000E+00  0.00000000E+00
  0.00000000E+00  0.00000000E+00  0.00000000E+00
  0.00000000E+00  0.00000000E+00  0.00000000E+00
  0.00000000E+00  0.00000000E+00  0.00000000E+00
  0.00000000E+00  0.00000000E+00  0.00000000E+00
  0.00000000E+00  0.00000000E+00  0.00000000E+00
  0.00000000E+00  0.00000000E+00  0.00000000E+00
  0.00000000E+00  0.00000000E+00  0.00000000E+00
  0.00000000E+00  0.00000000E+00  0.00000000E+00
  0.00000000E+00  0.00000000E+00  0.00000000E+00
  0.00000000E+00  0.00000000E+00  0.00000000E+00
  0.00000000E+00  0.00000000E+00  0.00000000E+00
  0.00000000E+00  0.00000000E+00  0.00000000E+00
  0.00000000E+00  0.00000000E+00  0.00000000E+00
  0.00000000E+00  0.00000000E+00  0.00000000E+00
  0.00000000E+00  0.00000000E+00  0.00000000E+00
  0.00000000E+00  0.00000000E+00  0.00000000E+00
  0.00000000E+00  0.00000000E+00  0.00000000E+00
  0.00000000E+00  0.00000000E+00  0.00000000E+00
  0.00000000E+00  0.00000000E+00  0.00000000E+00
  0.00000000E+00  0.00000000E+00  0.00000000E+00
  0.00000000E+00  0.00000000E+00  0.00000000E+00
  0.00000000E+00  0.00000000E+00  0.00000000E+00
  0.00000000E+00  0.00000000E+00  0.00000000E+00
  0.00000000E+00  0.00000000E+00  0.00000000E+00
  0.00000000E+00  0.00000000E+00  0.00000000E+00
  0.00000000E+00  0.00000000E+00  0.00000000E+00
  0.00000000E+00  0.00000000E+00  0.00000000E+00
