Ge Rb Cl                                
   1.00000000000000     
    10.5845620000000000  -10.5845620000000000    0.0000000000000000
    10.5845620000000000   10.5845620000000000    0.0000000000000000
     0.0000000000000000    0.0000000000000000   21.1691240000000001
   Cl   Ge   Rb
    96    32    32
Direct
  0.1538363054537432  0.1168658017534374  0.9858826467287440
  0.1166312653711103  0.1509228441819211  0.2682229006545514
  0.1577213750953274  0.1101072319094291  0.4802720681867625
  0.1136046370227744  0.1532934894130399  0.7691821720267625
  0.6335441850468849  0.0975541204020198 -0.0274769939107369
  0.6190928632765497  0.1520034351861286  0.2639001400954438
  0.6348208391175867  0.0954670458336636  0.4760256382029459
  0.5884314054986280  0.1317527517962769  0.7641888791323515
  0.3619507526315209  0.4062958598514499  0.0180502160016494
  0.4023096635372597  0.3668349984020077  0.2328468710242422
  0.3688096970145183  0.3998406434798124  0.5163900438359270
  0.4010367447558414  0.3679825616945144  0.7323357331572397
  0.1272368990580810  0.5997980283689175 -0.0208863794188901
  0.1177151315847426  0.6516380050619872  0.2666317838022887
  0.1326074887825748  0.5956681816439434  0.4829526167430662
  0.0908885756178364  0.6324209493590999  0.7675129360897547
  0.8454551473720474  0.3821905816367113  0.0202982886176951
  0.9066377306132828  0.3623697506944477  0.2312151953215668
  0.8486411561927593  0.3777119122162996  0.5200032375644824
  0.8782478812171353  0.3440813530509287  0.7311716017439399
  0.6539630230053441  0.6178204692429244  0.9864118780626403
  0.6158667642416609  0.6508217666605645  0.2733375088978913
  0.6591122212875855  0.6100667645539728  0.4834502590937769
  0.6136706948575421  0.6534453795862214  0.7711690767476185
  0.3480358761397905  0.8839921965337534  0.0184997733240228
  0.4051427472487664  0.8630745183801642  0.2282112175521286
  0.3496527871451703  0.8804344994941877  0.5225138143210027
  0.3826976824817192  0.8382204444737308  0.7292053530082654
  0.8610489676737498  0.9087074949225760  0.0204909819470584
  0.9000962779458965  0.8651536042991016  0.2325712590715159
  0.8655450209186351  0.9053153138990879  0.5184255565668549
  0.9020527677765648  0.8649797733656648  0.7325667792429975
  0.8846520085274617  0.1572486412599286 -0.0222983408973018
  0.8685041835848081  0.0938572224751294  0.2721752761276118
  0.9016231813325839  0.1339305318532452  0.4753303883882428
  0.8449164395950503  0.1178432454691923  0.7736418289783306
  0.3839242568277128  0.1501495242080442  0.0236897867902451
  0.3658073318590801  0.0973208451857270  0.2238987377252452
  0.4098133311624135  0.1303743087739327  0.5195046459565191
  0.3615900615921531  0.0968243746044821  0.7233019439170697
  0.0967226128798955  0.3655789557199652  0.9750255042429203
  0.1526823595999168  0.3850621635456640  0.2731660591223476
  0.1212608671482475  0.3420875865715755  0.4761560211186378
  0.1517212889461853  0.3856080001642538  0.7721037943694076
  0.8836466840519651  0.6502927327076666  0.0252727817095890
  0.8674644182954572  0.5959627406468989  0.2265543910874243
  0.9059776453645048  0.6308244146821561  0.5208150261568959
  0.8642648484772507  0.5971068767238950  0.7272780134354208
  0.5932696219900520  0.3659833894602721  0.0246270699208832
  0.6535069167337979  0.3820496654456653  0.2264483147817238
  0.6149382326822437  0.3445302073037190  0.5231364572421813
  0.6335497871807495  0.4047516927961863  0.7261633596514103
  0.3804377416329716  0.6564676238615551  0.9791511799943169
  0.3661651980598430  0.5940392696808970  0.2733595579004568
  0.4019228465110521  0.6296475432989350  0.4770508807194511
  0.3454558029984654  0.6126915796558214  0.7743437727697752
  0.0927755992322071  0.8688295239127397  0.0252526427802987
  0.1531585826052770  0.8800997780125627  0.2271026891261745
  0.1148127871340068  0.8469539527061225  0.5233025814379449
  0.1349756555112313  0.9036435049398752  0.7295301394775832
  0.5982200635154025  0.8631641867156892 -0.0257402785899789
  0.6516098735462940  0.8848612166411616  0.2722823394321671
  0.6184430296404354  0.8398297490330019  0.4725406777139046
  0.6519554103179493  0.8870365725434511  0.7711937429734894
 -0.0019958456579447  0.0418501179192710  0.1183860310538347
  0.0070858130382088  0.9560489513524942  0.3674572982619119
  0.9967831997194879  0.0451229360121073  0.6158863801616027
  0.0060699980486210 -0.0370906616157197  0.8651937677450470
  0.5446389818575913 -0.0052149348997328  0.1094106897748682
  0.4591304785802799  0.9982458113188341  0.3600907990010753
  0.5453848474169964 -0.0095305836043517  0.6122093966160848
  0.4519901261537175  0.9996576296688049  0.8618928145682575
  0.2095581861627767  0.2605710968282603  0.1354770713643884
  0.2937666164943333  0.2442592230411620  0.3832591218512754
  0.2111277820707272  0.2558712975597117  0.6358268489403944
  0.2930482255585913  0.2448642660196983  0.8852264596012794
  0.0399621428502229  0.4980449229791376  0.1324269385454622
  0.9622608957067290  0.5042125587656516  0.3847872536986358
  0.0370219248729216  0.4953216151996575  0.6352911827895013
 -0.0471404850966852  0.5049513577063587  0.8833776405727198
  0.7552974287701346  0.2074382815197483  0.1138207030080615
  0.7494112116325451  0.2898876676250218  0.3645304616243200
  0.7528140089067231  0.2049597619055756  0.6153532535942180
  0.7431966287608353  0.2920034353797122  0.8638721706592541
  0.4939894524987016  0.5411690422594466  0.1373304102799575
  0.5058825603151861  0.4581442573008046  0.3857924547666438
  0.4914360894483405  0.5413619624742247  0.6349456195324666
  0.5004903693540508  0.4634192891201020  0.8874334086577875
  0.2512142288284845  0.7098663151663157  0.1351294101009567
  0.2446621888246096  0.7912372075309581  0.3872599686323074
  0.2482518157209810  0.7017790960145991  0.6345260230060259
  0.2420386737478654  0.7937624193388405  0.8840411507943624
  0.7071933903020871  0.7566576450369048  0.1367499859593687
  0.7950640534695181  0.7448588448116336  0.3842943719914160
  0.7113825252148622  0.7556689857226080  0.6365322375079084
  0.7935456154169755  0.7470495016090636  0.8864455456369756
 -0.0045770137399075  0.9974873579074304  0.0084683163752002
 -0.0058526591548119 -0.0072732113335941  0.2555427338693066
  0.9922619142999234  0.0056897251259681  0.5037778681181561
  0.0019298710408097 -0.0095583993113088  0.7511564868729992
  0.5114277569099365 -0.0035372808772454 -0.0034869883842216
  0.4904129033128939 -0.0024508056739482  0.2471995706109373
  0.5072658244386538  0.0027700020169131  0.5015644356818277
  0.4892851333047097  0.0043104465874545  0.7504667433941800
  0.2564336727584922  0.2426059904028766 -0.0025202865781386
  0.2400812859756049  0.2527658629788316  0.2487390364296198
  0.2485515798279135  0.2432325228156560  0.4928219099797139
  0.2391516269325204  0.2523466257211861  0.7497280049297740
  0.0024981290347744  0.4966179893949180  0.9926424735368248
 -0.0042333242367200  0.4970838778386032  0.2426463565546748
  0.0003580662638747  0.5035384138965979  0.4968267178079666
 -0.0046979082903300  0.5044202823405908  0.7471767045499136
  0.7554377870448182  0.2490505902375590  0.0025559559263606
  0.7454545453591132  0.2539664775986596  0.2522367822700301
  0.7465335127530845  0.2515548294385299  0.5058896448158813
  0.7513092391989674  0.2479645345495435  0.7527128217735104
  0.4968673552392994  0.4916576586043477  0.0012176831115216
  0.4939484616078030  0.4993986442570864  0.2489877457533586
  0.4951699525300456  0.4984883592644317  0.4969661559156602
  0.5006921704751028  0.4958561416428627  0.7444672599566768
  0.2541614211550992  0.7567413593472483 -0.0044898563735741
  0.2450892958775012  0.7483549464104585  0.2463112537376939
  0.2469864320002374  0.7588508878531618  0.5007822932333613
  0.2545559360785371  0.7405533515963177  0.7457560728625939
  0.7563872737312679  0.7434790782071997 -0.0014653039147326
  0.7385233384540559  0.7519879068911398  0.2499950174980420
  0.7473199400810878  0.7450792701426777  0.4934611166374629
  0.7383852506740866  0.7530369423854320  0.7501534162487987
 -0.0077339664818933  0.2622376061247744  0.1053673055965374
  0.9842554591286633  0.2665377807124008  0.3640838022762042
  0.9922010735723967  0.2647359101008592  0.6090435983670714
 -0.0200550657906736  0.2702757226494991  0.8616568302099683
  0.5148251539964651  0.2320835755757434  0.1359246652664063
  0.5147337888396020  0.2376336233627042  0.3886119496981748
  0.5129476099758992  0.2348209434386413  0.6359908800837041
  0.5132668295495981  0.2420168819360702  0.8895058942594752
  0.2606905923703172  0.4896395982724850  0.1439319333273097
  0.2665677819219887  0.4821060490396329  0.3875652813516961
  0.2589218526079139  0.4835503647821101  0.6390634930953032
  0.2640244210963748  0.4834472924799118  0.8872019115431821
  0.0158167960338001  0.7326837156939087  0.1361163998596296
  0.0150915568350165  0.7373909293597047  0.3913480790744368
  0.0145894407043090  0.7317208311871399  0.6365090621449021
  0.0126855678054403  0.7433256679311362  0.8907883655359977
  0.7325968770068214  0.5167674495766515  0.1155944515425055
  0.7423566829659816  0.5102772516355523  0.3571641679065516
  0.7370093602821899  0.5143922446493178  0.6137245113573359
  0.7345649444350495  0.5132451485624842  0.8597810165566261
  0.4912815122244104  0.7588096416939442  0.1038530134023677
  0.4762581934843252  0.7653246997928589  0.3634643318749745
  0.4935854334894766  0.7586582364905222  0.6062555216211106
  0.4778243659506592  0.7672072793135163  0.8628781401679122
  0.2321333996591188  0.0146516307998454  0.1151550540485468
  0.2390074069059759  0.0084954629016813  0.3545964047507990
  0.2310602049866251  0.0156916662476780  0.6128941663680358
  0.2340132834710274  0.0136857267333263  0.8601236679107742
  0.7589207373946282 -0.0089244728758141  0.1461009127240961
  0.7700115889392539 -0.0203625268752263  0.3853127207995165
  0.7624278075519242 -0.0112383149477567  0.6435692051143175
  0.7716041656411380 -0.0191757036171989  0.8849192096688545
 
  0.00000000E+00  0.00000000E+00  0.00000000E+00
  0.00000000E+00  0.00000000E+00  0.00000000E+00
  0.00000000E+00  0.00000000E+00  0.00000000E+00
  0.00000000E+00  0.00000000E+00  0.00000000E+00
  0.00000000E+00  0.00000000E+00  0.00000000E+00
  0.00000000E+00  0.00000000E+00  0.00000000E+00
  0.00000000E+00  0.00000000E+00  0.00000000E+00
  0.00000000E+00  0.00000000E+00  0.00000000E+00
  0.00000000E+00  0.00000000E+00  0.00000000E+00
  0.00000000E+00  0.00000000E+00  0.00000000E+00
  0.00000000E+00  0.00000000E+00  0.00000000E+00
  0.00000000E+00  0.00000000E+00  0.00000000E+00
  0.00000000E+00  0.00000000E+00  0.00000000E+00
  0.00000000E+00  0.00000000E+00  0.00000000E+00
  0.00000000E+00  0.00000000E+00  0.00000000E+00
  0.00000000E+00  0.00000000E+00  0.00000000E+00
  0.00000000E+00  0.00000000E+00  0.00000000E+00
  0.00000000E+00  0.00000000E+00  0.00000000E+00
  0.00000000E+00  0.00000000E+00  0.00000000E+00
  0.00000000E+00  0.00000000E+00  0.00000000E+00
  0.00000000E+00  0.00000000E+00  0.00000000E+00
  0.00000000E+00  0.00000000E+00  0.00000000E+00
  0.00000000E+00  0.00000000E+00  0.00000000E+00
  0.00000000E+00  0.00000000E+00  0.00000000E+00
  0.00000000E+00  0.00000000E+00  0.00000000E+00
  0.00000000E+00  0.00000000E+00  0.00000000E+00
  0.00000000E+00  0.00000000E+00  0.00000000E+00
  0.00000000E+00  0.00000000E+00  0.00000000E+00
  0.00000000E+00  0.00000000E+00  0.00000000E+00
  0.00000000E+00  0.00000000E+00  0.00000000E+00
  0.00000000E+00  0.00000000E+00  0.00000000E+00
  0.00000000E+00  0.00000000E+00  0.00000000E+00
  0.00000000E+00  0.00000000E+00  0.00000000E+00
  0.00000000E+00  0.00000000E+00  0.00000000E+00
  0.00000000E+00  0.00000000E+00  0.00000000E+00
  0.00000000E+00  0.00000000E+00  0.00000000E+00
  0.00000000E+00  0.00000000E+00  0.00000000E+00
  0.00000000E+00  0.00000000E+00  0.00000000E+00
  0.00000000E+00  0.00000000E+00  0.00000000E+00
  0.00000000E+00  0.00000000E+00  0.00000000E+00
  0.00000000E+00  0.00000000E+00  0.00000000E+00
  0.00000000E+00  0.00000000E+00  0.00000000E+00
  0.00000000E+00  0.00000000E+00  0.00000000E+00
  0.00000000E+00  0.00000000E+00  0.00000000E+00
  0.00000000E+00  0.00000000E+00  0.00000000E+00
  0.00000000E+00  0.00000000E+00  0.00000000E+00
  0.00000000E+00  0.00000000E+00  0.00000000E+00
  0.00000000E+00  0.00000000E+00  0.00000000E+00
  0.00000000E+00  0.00000000E+00  0.00000000E+00
  0.00000000E+00  0.00000000E+00  0.00000000E+00
  0.00000000E+00  0.00000000E+00  0.00000000E+00
  0.00000000E+00  0.00000000E+00  0.00000000E+00
  0.00000000E+00  0.00000000E+00  0.00000000E+00
  0.00000000E+00  0.00000000E+00  0.00000000E+00
  0.00000000E+00  0.00000000E+00  0.00000000E+00
  0.00000000E+00  0.00000000E+00  0.00000000E+00
  0.00000000E+00  0.00000000E+00  0.00000000E+00
  0.00000000E+00  0.00000000E+00  0.00000000E+00
  0.00000000E+00  0.00000000E+00  0.00000000E+00
  0.00000000E+00  0.00000000E+00  0.00000000E+00
  0.00000000E+00  0.00000000E+00  0.00000000E+00
  0.00000000E+00  0.00000000E+00  0.00000000E+00
  0.00000000E+00  0.00000000E+00  0.00000000E+00
  0.00000000E+00  0.00000000E+00  0.00000000E+00
  0.00000000E+00  0.00000000E+00  0.00000000E+00
  0.00000000E+00  0.00000000E+00  0.00000000E+00
  0.00000000E+00  0.00000000E+00  0.00000000E+00
  0.00000000E+00  0.00000000E+00  0.00000000E+00
  0.00000000E+00  0.00000000E+00  0.00000000E+00
  0.00000000E+00  0.00000000E+00  0.00000000E+00
  0.00000000E+00  0.00000000E+00  0.00000000E+00
  0.00000000E+00  0.00000000E+00  0.00000000E+00
  0.00000000E+00  0.00000000E+00  0.00000000E+00
  0.00000000E+00  0.00000000E+00  0.00000000E+00
  0.00000000E+00  0.00000000E+00  0.00000000E+00
  0.00000000E+00  0.00000000E+00  0.00000000E+00
  0.00000000E+00  0.00000000E+00  0.00000000E+00
  0.00000000E+00  0.00000000E+00  0.00000000E+00
  0.00000000E+00  0.00000000E+00  0.00000000E+00
  0.00000000E+00  0.00000000E+00  0.00000000E+00
  0.00000000E+00  0.00000000E+00  0.00000000E+00
  0.00000000E+00  0.00000000E+00  0.00000000E+00
  0.00000000E+00  0.00000000E+00  0.00000000E+00
  0.00000000E+00  0.00000000E+00  0.00000000E+00
  0.00000000E+00  0.00000000E+00  0.00000000E+00
  0.00000000E+00  0.00000000E+00  0.00000000E+00
  0.00000000E+00  0.00000000E+00  0.00000000E+00
  0.00000000E+00  0.00000000E+00  0.00000000E+00
  0.00000000E+00  0.00000000E+00  0.00000000E+00
  0.00000000E+00  0.00000000E+00  0.00000000E+00
  0.00000000E+00  0.00000000E+00  0.00000000E+00
  0.00000000E+00  0.00000000E+00  0.00000000E+00
  0.00000000E+00  0.00000000E+00  0.00000000E+00
  0.00000000E+00  0.00000000E+00  0.00000000E+00
  0.00000000E+00  0.00000000E+00  0.00000000E+00
  0.00000000E+00  0.00000000E+00  0.00000000E+00
  0.00000000E+00  0.00000000E+00  0.00000000E+00
  0.00000000E+00  0.00000000E+00  0.00000000E+00
  0.00000000E+00  0.00000000E+00  0.00000000E+00
  0.00000000E+00  0.00000000E+00  0.00000000E+00
  0.00000000E+00  0.00000000E+00  0.00000000E+00
  0.00000000E+00  0.00000000E+00  0.00000000E+00
  0.00000000E+00  0.00000000E+00  0.00000000E+00
  0.00000000E+00  0.00000000E+00  0.00000000E+00
  0.00000000E+00  0.00000000E+00  0.00000000E+00
  0.00000000E+00  0.00000000E+00  0.00000000E+00
  0.00000000E+00  0.00000000E+00  0.00000000E+00
  0.00000000E+00  0.00000000E+00  0.00000000E+00
  0.00000000E+00  0.00000000E+00  0.00000000E+00
  0.00000000E+00  0.00000000E+00  0.00000000E+00
  0.00000000E+00  0.00000000E+00  0.00000000E+00
  0.00000000E+00  0.00000000E+00  0.00000000E+00
  0.00000000E+00  0.00000000E+00  0.00000000E+00
  0.00000000E+00  0.00000000E+00  0.00000000E+00
  0.00000000E+00  0.00000000E+00  0.00000000E+00
  0.00000000E+00  0.00000000E+00  0.00000000E+00
  0.00000000E+00  0.00000000E+00  0.00000000E+00
  0.00000000E+00  0.00000000E+00  0.00000000E+00
  0.00000000E+00  0.00000000E+00  0.00000000E+00
  0.00000000E+00  0.00000000E+00  0.00000000E+00
  0.00000000E+00  0.00000000E+00  0.00000000E+00
  0.00000000E+00  0.00000000E+00  0.00000000E+00
  0.00000000E+00  0.00000000E+00  0.00000000E+00
  0.00000000E+00  0.00000000E+00  0.00000000E+00
  0.00000000E+00  0.00000000E+00  0.00000000E+00
  0.00000000E+00  0.00000000E+00  0.00000000E+00
  0.00000000E+00  0.00000000E+00  0.00000000E+00
  0.00000000E+00  0.00000000E+00  0.00000000E+00
  0.00000000E+00  0.00000000E+00  0.00000000E+00
  0.00000000E+00  0.00000000E+00  0.00000000E+00
  0.00000000E+00  0.00000000E+00  0.00000000E+00
  0.00000000E+00  0.00000000E+00  0.00000000E+00
  0.00000000E+00  0.00000000E+00  0.00000000E+00
  0.00000000E+00  0.00000000E+00  0.00000000E+00
  0.00000000E+00  0.00000000E+00  0.00000000E+00
  0.00000000E+00  0.00000000E+00  0.00000000E+00
  0.00000000E+00  0.00000000E+00  0.00000000E+00
  0.00000000E+00  0.00000000E+00  0.00000000E+00
  0.00000000E+00  0.00000000E+00  0.00000000E+00
  0.00000000E+00  0.00000000E+00  0.00000000E+00
  0.00000000E+00  0.00000000E+00  0.00000000E+00
  0.00000000E+00  0.00000000E+00  0.00000000E+00
  0.00000000E+00  0.00000000E+00  0.00000000E+00
  0.00000000E+00  0.00000000E+00  0.00000000E+00
  0.00000000E+00  0.00000000E+00  0.00000000E+00
  0.00000000E+00  0.00000000E+00  0.00000000E+00
  0.00000000E+00  0.00000000E+00  0.00000000E+00
  0.00000000E+00  0.00000000E+00  0.00000000E+00
  0.00000000E+00  0.00000000E+00  0.00000000E+00
  0.00000000E+00  0.00000000E+00  0.00000000E+00
  0.00000000E+00  0.00000000E+00  0.00000000E+00
  0.00000000E+00  0.00000000E+00  0.00000000E+00
  0.00000000E+00  0.00000000E+00  0.00000000E+00
  0.00000000E+00  0.00000000E+00  0.00000000E+00
  0.00000000E+00  0.00000000E+00  0.00000000E+00
  0.00000000E+00  0.00000000E+00  0.00000000E+00
  0.00000000E+00  0.00000000E+00  0.00000000E+00
  0.00000000E+00  0.00000000E+00  0.00000000E+00
  0.00000000E+00  0.00000000E+00  0.00000000E+00
  0.00000000E+00  0.00000000E+00  0.00000000E+00
