Cs Ge Br                                
   1.00000000000000     
    11.2085650000000001  -11.2085650000000001    0.0000000000000000
    11.2085650000000001   11.2085650000000001    0.0000000000000000
     0.0000000000000000    0.0000000000000000   22.4171300000000002
   Br   Cs   Ge
    96    32    32
Direct
 -0.0010861206360405  0.2533926255283115  0.0040566940176434
  0.9990477648875903  0.2508217461136367  0.2541310096451362
  0.9987793988966297  0.2481996505282126  0.5039293061165915
  0.0019699490879032  0.2481557092678417  0.7539634981147346
  0.4977462822559292  0.2523487417550417  0.9953211162138280
  0.5022732082540103  0.2524797195768875  0.2452747996333042
  0.5011284242691465  0.2482208024327784  0.4952507060449757
  0.4983136726633410  0.2521756053005023  0.7452383378849317
  0.2515213489346628  0.5017168741744674  0.9947036817537177
  0.2476604930185200  0.5023658739787948  0.2446755585848502
  0.2502409216356832  0.4970166282228665  0.4946283280995984
  0.2478985549272347  0.5016810360575080  0.7447532305123474
  0.9969111234191848  0.7528752505648183  0.0041327592757095
  0.0013576072428740  0.7515736339498518  0.2539804242100691
  0.0003639689632038  0.7538100088211389  0.5039042226199122
 -0.0018386080144289  0.7469527404655651  0.7540724191584274
  0.7483221848867144  0.5056694595927770  0.0033789431425516
  0.7504954391678333  0.4999251663377443  0.2538471860656774
  0.7516585618152085  0.5016447626704743  0.5038348613800007
  0.7504150676505306  0.4961358721311870  0.7536382478883391
  0.4981871770890187  0.7533136818074904  0.0040286219323057
  0.4998456118651173  0.7504862581389055  0.2542207387893362
  0.4986459088577420  0.7480567062509030  0.5040206023711725
  0.5020755039686249  0.7483560712348644  0.7539656639147919
  0.2478067335449045  0.0031916981142886  0.0043985607970406
  0.2508158521501715  0.0006489805493874  0.2543538904275421
  0.2518505139770030  0.0016823346457510  0.5040540489885712
  0.2500218161695652  0.9958661675849128  0.7540899981367003
  0.7509136742614934  0.0016380268356787  0.9956667435609484
  0.7472980884061132  0.0025623542203649  0.2457289951952520
  0.7507245951594567  0.9983836635050071  0.4955575192670034
  0.7476154175478609  0.0021115347236520  0.7454843209207941
  0.1307499133188270  0.1234642210251055  0.1262773881649738
  0.1279671160490859  0.1200518793210319  0.3749752006600067
  0.1286743527805601  0.1198294753365623  0.6256327137046322
  0.1224171458502088  0.1316967593863124  0.8758221261798766
  0.6230508319450119  0.1327671702952408  0.1232573879781339
  0.6184635136365969  0.1279800495873995  0.3741086476811369
  0.6274245497906581  0.1191528791054124  0.6234901514882928
  0.6212819523339659  0.1320686444371504  0.8747843412835801
  0.3712411623975623  0.3810392025863645  0.1247216802943876
  0.3726317163611468  0.3820885065478774  0.3727106352164980
  0.3774523836686416  0.3690074032106352  0.6233934870381698
  0.3687840048937338  0.3796031046829986  0.8721542721763728
  0.1220773830908155  0.6316731598109414  0.1207450765954911
  0.1184479659287013  0.6282751841104741  0.3741262293425277
  0.1300299873272459  0.6215922990753817  0.6242865111781515
  0.1219912426153097  0.6318497759456625  0.8741895281443537
  0.8794694853544706  0.3724680680077415  0.1250809791755925
  0.8806896108237271  0.3728524364391760  0.3759437606550202
  0.8790962958658616  0.3703157972379182  0.6251696206086299
  0.8684570341875565  0.3777928169873818  0.8761683254786260
  0.6309432092669532  0.6240963445503073  0.1260627197461780
  0.6276673479279826  0.6195964525988927  0.3746864575652992
  0.6288346621687869  0.6197687608657895  0.6254723499805136
  0.6220398884759132  0.6315813642336657  0.8757992324271689
  0.3796782545335748  0.8724736581330865  0.1256593760160610
  0.3806845528113526  0.8725362572714566  0.3756462340518418
  0.3794849245182915  0.8703116036426235  0.6254398877257674
  0.3687853125820606  0.8783073616683471  0.8760049291138918
  0.8708860575044179  0.8808792031157563  0.1289506893098067
  0.8724784240285854  0.8824492651488846  0.3750581704933541
  0.8781510137663663  0.8699129075026392  0.6247036663119866
  0.8679771686646602  0.8783977906813795  0.8755511083848603
  0.8766867004489342  0.1317685338014433  0.1228866622678705
  0.8689118532455197  0.1222440691682513  0.3762414840001325
  0.8695914655949004  0.1214009092357716  0.6264727400495501
  0.8806960989459739  0.1279338262248986  0.8731323335771628
  0.3825744481949819  0.1262095330609815  0.1277378643335895
  0.3787152945067871  0.1307714308071524  0.3753820047107372
  0.3704968809761142  0.1202371763879324  0.6248633493863984
  0.3793173585494516  0.1290047373386441  0.8756923713809233
  0.1311860615564499  0.3771853211653237  0.1260351079822203
  0.1194255943124772  0.3719138824369563  0.3730454856704301
  0.1203535083007585  0.3708578386328970  0.6221308159734776
  0.1270339076181786  0.3815613128883665  0.8766464278522135
  0.8819290669981966  0.6267538734555177  0.1259594781539168
  0.8786612336260178  0.6315212934170061  0.3750816649447208
  0.8707318040910313  0.6205394270560167  0.6254490545749829
  0.8801800917175845  0.6276674366698870  0.8756764952662199
  0.6247452572160738  0.3840874325059532  0.1207855648804817
  0.6287910342586800  0.3805526821032727  0.3738507580489770
  0.6197268825467962  0.3707449194765896  0.6251153273920309
  0.6265581816149127  0.3816268160677611  0.8737260116092495
  0.3766144370116432  0.6317882500909440  0.1229893917801141
  0.3689327866121908  0.6219091104795812  0.3760339658006073
  0.3717002448407126  0.6194625173491765  0.6260089290421681
  0.3798892968798907  0.6287738430374203  0.8723710472181937
  0.1257629908055568  0.8827336045553565  0.1252699329387015
  0.1285466064449471  0.8810302656918125  0.3757233347372660
  0.1197673905723638  0.8713814268898082  0.6259254692092963
  0.1266430851088724  0.8811592559560752  0.8757989049263208
  0.6308829904669969  0.8776495145300013  0.1264919462636910
  0.6198853581882635  0.8713239539790696  0.3738612923134122
  0.6216913318499214  0.8694843901401575  0.6225530019626928
  0.6266406852375033  0.8818169510508765  0.8768879962938140
  0.9989772473587766  0.0005879477397137 -0.0000606882071220
 -0.0010663522155279  0.0016692145569322  0.2501820659567361
 -0.0001782609178264  0.0007237908600066  0.5000291250896459
  0.9995084253473104 -0.0004101093396195  0.7498752715538464
  0.4995484411861561  0.0002176689204942  0.0003165912672909
  0.4999213625477634 -0.0000106120023448  0.2501207733717906
  0.5001034504507295  0.0002769152385192  0.4997532108424985
  0.4996735181188567  0.0001466666252164  0.7499430287777682
  0.2496237541686759  0.2501213364157933  0.0001144058861654
  0.2501718308331598  0.2503211546497172  0.2501424197672292
  0.2498877915927608  0.2501875475957185  0.4993840753158380
  0.2496271254551596  0.2499938916702539  0.7496799404375429
 -0.0004291115328090  0.5000467686151119  0.9998649620044739
  0.9998054771312811  0.5001216627840865  0.2496155819846362
  0.0002152052977305  0.5012103081633804  0.4994310514816186
 -0.0001931234905965  0.4995631202787025  0.7497394614985633
  0.7488374021363859  0.2509863447994344  0.9992398111580123
  0.7495901068487594  0.2506714959044899  0.2497965835620391
  0.7496849082354796  0.2504760039693531  0.4999390919222961
  0.7495586736600635  0.2498667886814738  0.7498379790561749
  0.4984319767462280  0.5014174494606958 -0.0013361759538828
  0.4992171799058727  0.5012565668752883  0.2491885349088614
  0.4998720172174492  0.4998315831351567  0.4998800161281923
  0.4997419273934864  0.4998736948148866  0.7495587886611303
  0.2489590169150843  0.7509927806370271  0.9991098029100279
  0.2495955968370633  0.7505277167423240  0.2497226516612342
  0.2498374458901352  0.7505062782586708  0.4998714488494563
  0.2497581069718686  0.7497374635020569  0.7496277005363230
  0.7495545873028722  0.7504003548107927  0.0001569223584435
  0.7501055233010372  0.7502296545737800  0.2501820163256740
  0.7499138646980217  0.7504728200679724  0.4993368729149598
  0.7498243139606475  0.7498426918084642  0.7498395699399520
  0.9884292683083201  0.2503912865793991  0.1194141340667259
 -0.0005375085054773  0.2608533882111837  0.3695799472590853
  0.0000247313532590  0.2606219419156611  0.6191640630185876
 -0.0001652370830546  0.2395813607975921  0.8694197925539479
  0.4995010402856379  0.2394499221747802  0.1298076094003692
  0.4998958802935575  0.2403353940560067  0.3795485204534992
  0.4992992270500200  0.2600097177176727  0.6296755360265744
  0.4989151696954885  0.2403760971904771  0.8799106035636628
  0.2491388442392522  0.4894682571729211  0.1288875386834125
  0.2597468377092479  0.5001303478083639  0.3788476076913770
  0.2502299353558218  0.5106093676367284  0.6290121309098147
  0.2491412359661865  0.4902158427591043  0.8790021982248075
 -0.0007646491402532  0.7393191136531574  0.1194029284863945
  0.0000642858409786  0.7410319239958596  0.3692571240019931
 -0.0003809727532395  0.7606498700325492  0.6193758603883147
 -0.0007369348929873  0.7392368791789717  0.8696286780303099
  0.7381610964631596  0.5007545385903397  0.1186403749044563
  0.7396900530571034  0.5006497841785655  0.3690462732776016
  0.7500189948424467  0.5103982441422721  0.6191678486131983
  0.7492062940120808  0.4894718336268478  0.8689718032157553
  0.4885014066841027  0.7503004703817180  0.1193690440708591
  0.4996885459041615  0.7605472752595420  0.3696394883934353
  0.5002910514233866  0.7602779352153403  0.6192705800883406
  0.4997168297701010  0.7397861905510917  0.8693406738437927
  0.2382276612964457  0.0001151910303364  0.1197983153383753
  0.2396389994904548  0.0007257442363177  0.3695174438576270
  0.2496707454448212  0.0101732523151928  0.6192713918050565
  0.2489068904531729  0.9892860174073647  0.8694785544757683
  0.7490334022471888  0.9896792504754142  0.1303038023634309
  0.7595455426958033  0.0005332373839358  0.3799591167550524
  0.7496497483882182  0.0107657810042296  0.6297423516968350
  0.7489906256223959  0.9901248592254055  0.8802076391975898
 
  0.00000000E+00  0.00000000E+00  0.00000000E+00
  0.00000000E+00  0.00000000E+00  0.00000000E+00
  0.00000000E+00  0.00000000E+00  0.00000000E+00
  0.00000000E+00  0.00000000E+00  0.00000000E+00
  0.00000000E+00  0.00000000E+00  0.00000000E+00
  0.00000000E+00  0.00000000E+00  0.00000000E+00
  0.00000000E+00  0.00000000E+00  0.00000000E+00
  0.00000000E+00  0.00000000E+00  0.00000000E+00
  0.00000000E+00  0.00000000E+00  0.00000000E+00
  0.00000000E+00  0.00000000E+00  0.00000000E+00
  0.00000000E+00  0.00000000E+00  0.00000000E+00
  0.00000000E+00  0.00000000E+00  0.00000000E+00
  0.00000000E+00  0.00000000E+00  0.00000000E+00
  0.00000000E+00  0.00000000E+00  0.00000000E+00
  0.00000000E+00  0.00000000E+00  0.00000000E+00
  0.00000000E+00  0.00000000E+00  0.00000000E+00
  0.00000000E+00  0.00000000E+00  0.00000000E+00
  0.00000000E+00  0.00000000E+00  0.00000000E+00
  0.00000000E+00  0.00000000E+00  0.00000000E+00
  0.00000000E+00  0.00000000E+00  0.00000000E+00
  0.00000000E+00  0.00000000E+00  0.00000000E+00
  0.00000000E+00  0.00000000E+00  0.00000000E+00
  0.00000000E+00  0.00000000E+00  0.00000000E+00
  0.00000000E+00  0.00000000E+00  0.00000000E+00
  0.00000000E+00  0.00000000E+00  0.00000000E+00
  0.00000000E+00  0.00000000E+00  0.00000000E+00
  0.00000000E+00  0.00000000E+00  0.00000000E+00
  0.00000000E+00  0.00000000E+00  0.00000000E+00
  0.00000000E+00  0.00000000E+00  0.00000000E+00
  0.00000000E+00  0.00000000E+00  0.00000000E+00
  0.00000000E+00  0.00000000E+00  0.00000000E+00
  0.00000000E+00  0.00000000E+00  0.00000000E+00
  0.00000000E+00  0.00000000E+00  0.00000000E+00
  0.00000000E+00  0.00000000E+00  0.00000000E+00
  0.00000000E+00  0.00000000E+00  0.00000000E+00
  0.00000000E+00  0.00000000E+00  0.00000000E+00
  0.00000000E+00  0.00000000E+00  0.00000000E+00
  0.00000000E+00  0.00000000E+00  0.00000000E+00
  0.00000000E+00  0.00000000E+00  0.00000000E+00
  0.00000000E+00  0.00000000E+00  0.00000000E+00
  0.00000000E+00  0.00000000E+00  0.00000000E+00
  0.00000000E+00  0.00000000E+00  0.00000000E+00
  0.00000000E+00  0.00000000E+00  0.00000000E+00
  0.00000000E+00  0.00000000E+00  0.00000000E+00
  0.00000000E+00  0.00000000E+00  0.00000000E+00
  0.00000000E+00  0.00000000E+00  0.00000000E+00
  0.00000000E+00  0.00000000E+00  0.00000000E+00
  0.00000000E+00  0.00000000E+00  0.00000000E+00
  0.00000000E+00  0.00000000E+00  0.00000000E+00
  0.00000000E+00  0.00000000E+00  0.00000000E+00
  0.00000000E+00  0.00000000E+00  0.00000000E+00
  0.00000000E+00  0.00000000E+00  0.00000000E+00
  0.00000000E+00  0.00000000E+00  0.00000000E+00
  0.00000000E+00  0.00000000E+00  0.00000000E+00
  0.00000000E+00  0.00000000E+00  0.00000000E+00
  0.00000000E+00  0.00000000E+00  0.00000000E+00
  0.00000000E+00  0.00000000E+00  0.00000000E+00
  0.00000000E+00  0.00000000E+00  0.00000000E+00
  0.00000000E+00  0.00000000E+00  0.00000000E+00
  0.00000000E+00  0.00000000E+00  0.00000000E+00
  0.00000000E+00  0.00000000E+00  0.00000000E+00
  0.00000000E+00  0.00000000E+00  0.00000000E+00
  0.00000000E+00  0.00000000E+00  0.00000000E+00
  0.00000000E+00  0.00000000E+00  0.00000000E+00
  0.00000000E+00  0.00000000E+00  0.00000000E+00
  0.00000000E+00  0.00000000E+00  0.00000000E+00
  0.00000000E+00  0.00000000E+00  0.00000000E+00
  0.00000000E+00  0.00000000E+00  0.00000000E+00
  0.00000000E+00  0.00000000E+00  0.00000000E+00
  0.00000000E+00  0.00000000E+00  0.00000000E+00
  0.00000000E+00  0.00000000E+00  0.00000000E+00
  0.00000000E+00  0.00000000E+00  0.00000000E+00
  0.00000000E+00  0.00000000E+00  0.00000000E+00
  0.00000000E+00  0.00000000E+00  0.00000000E+00
  0.00000000E+00  0.00000000E+00  0.00000000E+00
  0.00000000E+00  0.00000000E+00  0.00000000E+00
  0.00000000E+00  0.00000000E+00  0.00000000E+00
  0.00000000E+00  0.00000000E+00  0.00000000E+00
  0.00000000E+00  0.00000000E+00  0.00000000E+00
  0.00000000E+00  0.00000000E+00  0.00000000E+00
  0.00000000E+00  0.00000000E+00  0.00000000E+00
  0.00000000E+00  0.00000000E+00  0.00000000E+00
  0.00000000E+00  0.00000000E+00  0.00000000E+00
  0.00000000E+00  0.00000000E+00  0.00000000E+00
  0.00000000E+00  0.00000000E+00  0.00000000E+00
  0.00000000E+00  0.00000000E+00  0.00000000E+00
  0.00000000E+00  0.00000000E+00  0.00000000E+00
  0.00000000E+00  0.00000000E+00  0.00000000E+00
  0.00000000E+00  0.00000000E+00  0.00000000E+00
  0.00000000E+00  0.00000000E+00  0.00000000E+00
  0.00000000E+00  0.00000000E+00  0.00000000E+00
  0.00000000E+00  0.00000000E+00  0.00000000E+00
  0.00000000E+00  0.00000000E+00  0.00000000E+00
  0.00000000E+00  0.00000000E+00  0.00000000E+00
  0.00000000E+00  0.00000000E+00  0.00000000E+00
  0.00000000E+00  0.00000000E+00  0.00000000E+00
  0.00000000E+00  0.00000000E+00  0.00000000E+00
  0.00000000E+00  0.00000000E+00  0.00000000E+00
  0.00000000E+00  0.00000000E+00  0.00000000E+00
  0.00000000E+00  0.00000000E+00  0.00000000E+00
  0.00000000E+00  0.00000000E+00  0.00000000E+00
  0.00000000E+00  0.00000000E+00  0.00000000E+00
  0.00000000E+00  0.00000000E+00  0.00000000E+00
  0.00000000E+00  0.00000000E+00  0.00000000E+00
  0.00000000E+00  0.00000000E+00  0.00000000E+00
  0.00000000E+00  0.00000000E+00  0.00000000E+00
  0.00000000E+00  0.00000000E+00  0.00000000E+00
  0.00000000E+00  0.00000000E+00  0.00000000E+00
  0.00000000E+00  0.00000000E+00  0.00000000E+00
  0.00000000E+00  0.00000000E+00  0.00000000E+00
  0.00000000E+00  0.00000000E+00  0.00000000E+00
  0.00000000E+00  0.00000000E+00  0.00000000E+00
  0.00000000E+00  0.00000000E+00  0.00000000E+00
  0.00000000E+00  0.00000000E+00  0.00000000E+00
  0.00000000E+00  0.00000000E+00  0.00000000E+00
  0.00000000E+00  0.00000000E+00  0.00000000E+00
  0.00000000E+00  0.00000000E+00  0.00000000E+00
  0.00000000E+00  0.00000000E+00  0.00000000E+00
  0.00000000E+00  0.00000000E+00  0.00000000E+00
  0.00000000E+00  0.00000000E+00  0.00000000E+00
  0.00000000E+00  0.00000000E+00  0.00000000E+00
  0.00000000E+00  0.00000000E+00  0.00000000E+00
  0.00000000E+00  0.00000000E+00  0.00000000E+00
  0.00000000E+00  0.00000000E+00  0.00000000E+00
  0.00000000E+00  0.00000000E+00  0.00000000E+00
  0.00000000E+00  0.00000000E+00  0.00000000E+00
  0.00000000E+00  0.00000000E+00  0.00000000E+00
  0.00000000E+00  0.00000000E+00  0.00000000E+00
  0.00000000E+00  0.00000000E+00  0.00000000E+00
  0.00000000E+00  0.00000000E+00  0.00000000E+00
  0.00000000E+00  0.00000000E+00  0.00000000E+00
  0.00000000E+00  0.00000000E+00  0.00000000E+00
  0.00000000E+00  0.00000000E+00  0.00000000E+00
  0.00000000E+00  0.00000000E+00  0.00000000E+00
  0.00000000E+00  0.00000000E+00  0.00000000E+00
  0.00000000E+00  0.00000000E+00  0.00000000E+00
  0.00000000E+00  0.00000000E+00  0.00000000E+00
  0.00000000E+00  0.00000000E+00  0.00000000E+00
  0.00000000E+00  0.00000000E+00  0.00000000E+00
  0.00000000E+00  0.00000000E+00  0.00000000E+00
  0.00000000E+00  0.00000000E+00  0.00000000E+00
  0.00000000E+00  0.00000000E+00  0.00000000E+00
  0.00000000E+00  0.00000000E+00  0.00000000E+00
  0.00000000E+00  0.00000000E+00  0.00000000E+00
  0.00000000E+00  0.00000000E+00  0.00000000E+00
  0.00000000E+00  0.00000000E+00  0.00000000E+00
  0.00000000E+00  0.00000000E+00  0.00000000E+00
  0.00000000E+00  0.00000000E+00  0.00000000E+00
  0.00000000E+00  0.00000000E+00  0.00000000E+00
  0.00000000E+00  0.00000000E+00  0.00000000E+00
  0.00000000E+00  0.00000000E+00  0.00000000E+00
  0.00000000E+00  0.00000000E+00  0.00000000E+00
  0.00000000E+00  0.00000000E+00  0.00000000E+00
  0.00000000E+00  0.00000000E+00  0.00000000E+00
  0.00000000E+00  0.00000000E+00  0.00000000E+00
  0.00000000E+00  0.00000000E+00  0.00000000E+00
  0.00000000E+00  0.00000000E+00  0.00000000E+00
  0.00000000E+00  0.00000000E+00  0.00000000E+00
  0.00000000E+00  0.00000000E+00  0.00000000E+00
  0.00000000E+00  0.00000000E+00  0.00000000E+00
