Ca Tl F                                 
   1.00000000000000     
     8.9933759999999996   -8.9933759999999996    0.0000000000000000
     8.9933759999999996    8.9933759999999996    0.0000000000000000
     0.0000000000000000    0.0000000000000000   17.9867519999999992
   Ca   F    Tl
    32    96    32
Direct
  0.0001321526842912  0.9996504151993516  0.0004600788930834
  0.9995927227009813  0.9994468029311053  0.2507531688305816
  0.9996535970921290 -0.0000084581844179  0.5003902039687687
  0.0001439838680588  0.0001701941662568  0.7501556559486262
  0.5001084365589981  0.9996891909331937  0.0004070559200866
  0.4994947681467652  0.9995073851079943  0.2506372863846027
  0.4997732934125939  0.0000221642132066  0.5003618885243222
  0.5002093983031681  0.0000644521559979  0.7502315638450273
  0.2496642816910450  0.2494528554651757  0.0006338508893098
  0.2496629854871824  0.2499933982951326  0.2504327946579895
  0.2499863867240539  0.2501891518399372  0.5002135042173212
  0.2501054653501320  0.2497106617075880  0.7503274098604907
  0.9996255990886133  0.4999125144413961  0.0004889700897979
  0.9999808154309887  0.5002010828823904  0.2501877632693441
  0.9999088829987174  0.4998305528789891  0.5004737608753554
  0.9995537695001473  0.4996654858237983  0.7507111057099026
  0.7496551149991298  0.2494841661888355  0.0007654552852313
  0.7496897747197799  0.2498301527287826  0.2504548393461228
  0.7499970941152109  0.2502309161966017  0.5002388834461322
  0.7501710153939850  0.2497949352734740  0.7504063005029057
  0.4999433053674417  0.4998206364509252  0.0005010493732780
  0.5000421568672526  0.5000627107626866  0.2501848637556968
  0.4999570406755700  0.4999317498489203  0.5003510315958196
  0.4997150046469180  0.4995653873962324  0.7506977828923502
  0.2501573871505544  0.7500166673913349  0.0002761371769797
  0.2498870559624346  0.7496711109512738  0.2504088998541893
  0.2495643322193960  0.7496020426280385  0.5005461012343121
  0.2497574697876939  0.7500901256271120  0.7504072277042986
  0.7500551704161245  0.7502101633279756  0.0002725702451354
  0.7498957261048670  0.7497969054078274  0.2504363048977281
  0.7496745077954645  0.7495853934809217  0.5006482602406607
  0.7499558072292927  0.7499437103076221  0.7505296382330952
  0.1057419349805484  0.1444708060940444  0.9972450528899440
  0.1459705826986737  0.1041642678952854  0.2476400439461219
  0.1028469270221623  0.1463877459785227  0.5025999848123871
  0.1447124429177756  0.1048225920334249  0.7528211579372220
  0.6059729114590247  0.1441968644813807  0.9966968339154315
  0.6461548781902894  0.1038971816893794  0.2481030066255179
  0.6030585465231971  0.1462215636184047  0.5030929794763934
  0.6446063406502678  0.1048045386318385  0.7528193352800474
  0.3963748380339620  0.3539096013333387  0.9978164116157252
  0.3530567378266968  0.3961629070445201  0.2528331797736165
  0.3943464080042055  0.3550524907058124  0.5035992972514478
  0.3560935312603689  0.3942562032937793  0.7465521826714674
  0.1032395147201142  0.6459644272776950  0.0031869266123487
  0.1445298125753188  0.6047099219636126  0.2525341670395641
  0.1054954183869753  0.6446763492682145  0.4979284221072638
  0.1459494756120688  0.6044619775792079  0.7471000871438104
  0.8967312340326252  0.3535187696722405  0.9985242427930526
  0.8531071401643395  0.3960099332653891  0.2527168444720769
  0.8945056280969470  0.3548744863588050  0.5031131534142474
  0.8555986340155741  0.3947291614182893  0.7475546375332224
  0.6031730875028471  0.6461089263972357  0.0030454480821269
  0.6445029528437420  0.6047750857713531  0.2528955835830155
  0.6059794556414240  0.6443431717932322  0.4964131459151178
  0.6466355138439831  0.6037367908549149  0.7487858551263088
  0.3945715861937069  0.8547635788583365  0.0030650980285648
  0.3554677390121375  0.8945203802027085  0.2478939706507689
  0.3956886137960751  0.8546019012816649  0.4963530372940405
  0.3531056659987230  0.8963370848348478  0.7532981312929843
  0.8944608133460180  0.8549316824052441  0.0032321840562412
  0.8553782430987779  0.8947159566098507  0.2475241738630519
  0.8963753878223500  0.8538413479840656  0.4981478545293990
  0.8532094370742014  0.8961116955780739  0.7527067757113701
  0.8659493430371169  0.1155673029137113  0.9757292615157996
  0.8985039595733393  0.1484140381503769  0.2609101627527698
  0.8510006479207880  0.1013736497700079  0.4902538116404134
  0.8849513980176450  0.1346420490433763  0.7747020668728831
  0.3658895210645066  0.1155819681702678  0.9758906852495373
  0.3985402409609314  0.1486625561186313  0.2604337610973456
  0.3511900630957766  0.1015613572100863  0.4898350672520163
  0.3850276302481677  0.1345945752807253  0.7746650696715827
  0.1489381085164476  0.3988556041735556  0.0097770653584028
  0.1009942846258711  0.3513832728589582  0.2397737579045398
  0.1347062155955466  0.3846679599093974  0.5249830576014506
  0.1161034010288604  0.3659815006052931  0.7257179890578228
  0.8511182256474706  0.6014206758446419  0.9899727729489146
  0.8847384787634244  0.6347361759295718  0.2747926938584617
  0.8654549001343689  0.6153393604018713  0.4757463264876164
  0.8987781204929768  0.6487864114945194  0.7611761700498845
  0.6485942893690547  0.3983082119825385  0.0106513927869285
  0.6010256191687964  0.3511846216532347  0.2396863462985457
  0.6346812040749183  0.3846503054417762  0.5248516717931004
  0.6157618235545657  0.3655038416427505  0.7260756376619897
  0.3511147062749039  0.6010939283180766  0.9900925376106430
  0.3846287114251922  0.6344697843116435  0.2748275317962675
  0.3656122244514532  0.6156396695930422  0.4759751961768887
  0.3988618278000144  0.6488375385005852  0.7599725366663527
  0.1349534330505256  0.8846010563772707  0.0248489970102692
  0.1155629815096468  0.8654829397321305  0.2256953396562942
  0.1485307317172774  0.8987236958172405  0.5101375857041063
  0.1011872983421814  0.8514593773210188  0.7398370924455743
  0.6348786011334596  0.8846839229771385  0.0249502211697544
  0.6153391491781356  0.8652884565390284  0.2261300723457179
  0.6483989881917650  0.8984312373989845  0.5105459411841723
  0.6009437900466610  0.8509480189980154  0.7397952981146345
  0.9806157089199182  0.0238413039463809  0.1252472104852287
  0.0223816400684261  0.9818873640150008  0.3751828280256725
  0.9771932565903230  0.0183661508220914  0.6256313367273770
  0.0201360112005493  0.9758134441963845  0.8755920295140004
  0.4808603986237491  0.0239620514518815  0.1251742051698772
  0.5227218606881111  0.9827526310223592  0.3751315547172499
  0.4767937246921654  0.0172665079345805  0.6256807466028088
  0.5203443095828697  0.9751636129328330  0.8755558321987470
  0.2725236344161013  0.2329746158130761  0.1252323689799582
  0.2270791721487042  0.2685726086035471  0.3756389766769466
  0.2697360844424566  0.2251616551261338  0.6256395364501093
  0.2326186215111940  0.2741674080872477  0.8749943818064179
  0.9769892094414933  0.5183605926248787  0.1257118716439619
  0.0200921835570497  0.4759100993947342  0.3756383453330947
  0.9805637234712468  0.5241170579019951  0.6252387201747194
  0.0226326537710955  0.4826035089623277  0.8752024649139324
  0.7723963584447493  0.2312565033742856  0.1253301453507803
  0.7269776009038404  0.2681521075637600  0.3756384429274516
  0.7701709069769720  0.2257587323041374  0.6256960806942162
  0.7328592197572185  0.2742556995230696  0.8751160315653133
  0.4769947601200865  0.5182455365671434  0.1257116570251341
  0.5196806144855780  0.4751150042373186  0.3755739753682307
  0.4826796680840065  0.5245974281396668  0.6252091085464988
  0.5225318159305206  0.4819445198470971  0.8751742436202118
  0.2702673166103298  0.7257857324729977  0.1257485892216490
  0.2297391604174708  0.7734494214797427  0.3750084293853122
  0.2730497888095382  0.7346906505990776  0.6251575245290713
  0.2270740901043320  0.7677966739339789  0.8756362994122132
  0.7699198924517656  0.7256630559940612  0.1257639730865394
  0.7308760111970628  0.7744411559625606  0.3750842109413218
  0.7723453777756206  0.7315999093595299  0.6253060796264619
  0.7271577439563829  0.7689100002113374  0.8756850652801066
  0.9892832650491953  0.2389432762323526  0.1295319637996832
  0.0103341321944499  0.2601975978958574  0.3720620840279170
  0.0026734937086179  0.2532343289706539  0.6150086402318704
  0.9946331619351148  0.2454692419995827  0.8862981735776291
  0.4890375342712657  0.2390898829970831  0.1293565267129077
  0.5101198744285897  0.2597881343956138  0.3720559920700683
  0.5026686401691838  0.2535426669606074  0.6152519722065127
  0.4951041058703092  0.2459944939863385  0.8860480303880938
  0.2603209068487571  0.5099776002683735  0.1221742134027946
  0.2530437264364697  0.5035690395515673  0.3650287704712256
  0.2453450287493918  0.4955386663260437  0.6362480225946939
  0.2388567214596600  0.4888415944637367  0.8799357771105532
  0.0026951701705194  0.7531186311084833  0.1152893401787326
  0.9959859127492507  0.7459293316125952  0.3860865357792806
  0.9894033785763966  0.7391695561825461  0.6291717536654036
  0.0101485938550925  0.7600383316147256  0.8721404987749122
  0.7602173990723540  0.5102247072499141  0.1220046952857278
  0.7526103206866768  0.5034075367832440  0.3651924431384257
  0.7453907048850159  0.4960110094770062  0.6359631099347761
  0.7391490047342779  0.4892570881466502  0.8786891714631464
  0.5027741355299872  0.7532703351874109  0.1152415000778633
  0.4963558311481111  0.7463858979927155  0.3857655450217870
  0.4892504162187785  0.7394773470112227  0.6292974127361739
  0.5103629250069340  0.7600060119269605  0.8719937861151146
  0.2457534923932507  0.9956499387218365  0.1362352777107425
  0.2395671196650936  0.9886396561722672  0.3797815607716043
  0.2602178708707212  0.0096917418502503  0.6223518877220634
  0.2525903193435793  0.0032380472445357  0.8651955139314178
  0.7460592423281099  0.9959058423987203  0.1360308891638295
  0.7391780456385798  0.9893735817270100  0.3788995733934510
  0.7603988376197939  0.0101809069729345  0.6219856462021055
  0.7526873153896962  0.0033411516861264  0.8652156954857627
 
  0.00000000E+00  0.00000000E+00  0.00000000E+00
  0.00000000E+00  0.00000000E+00  0.00000000E+00
  0.00000000E+00  0.00000000E+00  0.00000000E+00
  0.00000000E+00  0.00000000E+00  0.00000000E+00
  0.00000000E+00  0.00000000E+00  0.00000000E+00
  0.00000000E+00  0.00000000E+00  0.00000000E+00
  0.00000000E+00  0.00000000E+00  0.00000000E+00
  0.00000000E+00  0.00000000E+00  0.00000000E+00
  0.00000000E+00  0.00000000E+00  0.00000000E+00
  0.00000000E+00  0.00000000E+00  0.00000000E+00
  0.00000000E+00  0.00000000E+00  0.00000000E+00
  0.00000000E+00  0.00000000E+00  0.00000000E+00
  0.00000000E+00  0.00000000E+00  0.00000000E+00
  0.00000000E+00  0.00000000E+00  0.00000000E+00
  0.00000000E+00  0.00000000E+00  0.00000000E+00
  0.00000000E+00  0.00000000E+00  0.00000000E+00
  0.00000000E+00  0.00000000E+00  0.00000000E+00
  0.00000000E+00  0.00000000E+00  0.00000000E+00
  0.00000000E+00  0.00000000E+00  0.00000000E+00
  0.00000000E+00  0.00000000E+00  0.00000000E+00
  0.00000000E+00  0.00000000E+00  0.00000000E+00
  0.00000000E+00  0.00000000E+00  0.00000000E+00
  0.00000000E+00  0.00000000E+00  0.00000000E+00
  0.00000000E+00  0.00000000E+00  0.00000000E+00
  0.00000000E+00  0.00000000E+00  0.00000000E+00
  0.00000000E+00  0.00000000E+00  0.00000000E+00
  0.00000000E+00  0.00000000E+00  0.00000000E+00
  0.00000000E+00  0.00000000E+00  0.00000000E+00
  0.00000000E+00  0.00000000E+00  0.00000000E+00
  0.00000000E+00  0.00000000E+00  0.00000000E+00
  0.00000000E+00  0.00000000E+00  0.00000000E+00
  0.00000000E+00  0.00000000E+00  0.00000000E+00
  0.00000000E+00  0.00000000E+00  0.00000000E+00
  0.00000000E+00  0.00000000E+00  0.00000000E+00
  0.00000000E+00  0.00000000E+00  0.00000000E+00
  0.00000000E+00  0.00000000E+00  0.00000000E+00
  0.00000000E+00  0.00000000E+00  0.00000000E+00
  0.00000000E+00  0.00000000E+00  0.00000000E+00
  0.00000000E+00  0.00000000E+00  0.00000000E+00
  0.00000000E+00  0.00000000E+00  0.00000000E+00
  0.00000000E+00  0.00000000E+00  0.00000000E+00
  0.00000000E+00  0.00000000E+00  0.00000000E+00
  0.00000000E+00  0.00000000E+00  0.00000000E+00
  0.00000000E+00  0.00000000E+00  0.00000000E+00
  0.00000000E+00  0.00000000E+00  0.00000000E+00
  0.00000000E+00  0.00000000E+00  0.00000000E+00
  0.00000000E+00  0.00000000E+00  0.00000000E+00
  0.00000000E+00  0.00000000E+00  0.00000000E+00
  0.00000000E+00  0.00000000E+00  0.00000000E+00
  0.00000000E+00  0.00000000E+00  0.00000000E+00
  0.00000000E+00  0.00000000E+00  0.00000000E+00
  0.00000000E+00  0.00000000E+00  0.00000000E+00
  0.00000000E+00  0.00000000E+00  0.00000000E+00
  0.00000000E+00  0.00000000E+00  0.00000000E+00
  0.00000000E+00  0.00000000E+00  0.00000000E+00
  0.00000000E+00  0.00000000E+00  0.00000000E+00
  0.00000000E+00  0.00000000E+00  0.00000000E+00
  0.00000000E+00  0.00000000E+00  0.00000000E+00
  0.00000000E+00  0.00000000E+00  0.00000000E+00
  0.00000000E+00  0.00000000E+00  0.00000000E+00
  0.00000000E+00  0.00000000E+00  0.00000000E+00
  0.00000000E+00  0.00000000E+00  0.00000000E+00
  0.00000000E+00  0.00000000E+00  0.00000000E+00
  0.00000000E+00  0.00000000E+00  0.00000000E+00
  0.00000000E+00  0.00000000E+00  0.00000000E+00
  0.00000000E+00  0.00000000E+00  0.00000000E+00
  0.00000000E+00  0.00000000E+00  0.00000000E+00
  0.00000000E+00  0.00000000E+00  0.00000000E+00
  0.00000000E+00  0.00000000E+00  0.00000000E+00
  0.00000000E+00  0.00000000E+00  0.00000000E+00
  0.00000000E+00  0.00000000E+00  0.00000000E+00
  0.00000000E+00  0.00000000E+00  0.00000000E+00
  0.00000000E+00  0.00000000E+00  0.00000000E+00
  0.00000000E+00  0.00000000E+00  0.00000000E+00
  0.00000000E+00  0.00000000E+00  0.00000000E+00
  0.00000000E+00  0.00000000E+00  0.00000000E+00
  0.00000000E+00  0.00000000E+00  0.00000000E+00
  0.00000000E+00  0.00000000E+00  0.00000000E+00
  0.00000000E+00  0.00000000E+00  0.00000000E+00
  0.00000000E+00  0.00000000E+00  0.00000000E+00
  0.00000000E+00  0.00000000E+00  0.00000000E+00
  0.00000000E+00  0.00000000E+00  0.00000000E+00
  0.00000000E+00  0.00000000E+00  0.00000000E+00
  0.00000000E+00  0.00000000E+00  0.00000000E+00
  0.00000000E+00  0.00000000E+00  0.00000000E+00
  0.00000000E+00  0.00000000E+00  0.00000000E+00
  0.00000000E+00  0.00000000E+00  0.00000000E+00
  0.00000000E+00  0.00000000E+00  0.00000000E+00
  0.00000000E+00  0.00000000E+00  0.00000000E+00
  0.00000000E+00  0.00000000E+00  0.00000000E+00
  0.00000000E+00  0.00000000E+00  0.00000000E+00
  0.00000000E+00  0.00000000E+00  0.00000000E+00
  0.00000000E+00  0.00000000E+00  0.00000000E+00
  0.00000000E+00  0.00000000E+00  0.00000000E+00
  0.00000000E+00  0.00000000E+00  0.00000000E+00
  0.00000000E+00  0.00000000E+00  0.00000000E+00
  0.00000000E+00  0.00000000E+00  0.00000000E+00
  0.00000000E+00  0.00000000E+00  0.00000000E+00
  0.00000000E+00  0.00000000E+00  0.00000000E+00
  0.00000000E+00  0.00000000E+00  0.00000000E+00
  0.00000000E+00  0.00000000E+00  0.00000000E+00
  0.00000000E+00  0.00000000E+00  0.00000000E+00
  0.00000000E+00  0.00000000E+00  0.00000000E+00
  0.00000000E+00  0.00000000E+00  0.00000000E+00
  0.00000000E+00  0.00000000E+00  0.00000000E+00
  0.00000000E+00  0.00000000E+00  0.00000000E+00
  0.00000000E+00  0.00000000E+00  0.00000000E+00
  0.00000000E+00  0.00000000E+00  0.00000000E+00
  0.00000000E+00  0.00000000E+00  0.00000000E+00
  0.00000000E+00  0.00000000E+00  0.00000000E+00
  0.00000000E+00  0.00000000E+00  0.00000000E+00
  0.00000000E+00  0.00000000E+00  0.00000000E+00
  0.00000000E+00  0.00000000E+00  0.00000000E+00
  0.00000000E+00  0.00000000E+00  0.00000000E+00
  0.00000000E+00  0.00000000E+00  0.00000000E+00
  0.00000000E+00  0.00000000E+00  0.00000000E+00
  0.00000000E+00  0.00000000E+00  0.00000000E+00
  0.00000000E+00  0.00000000E+00  0.00000000E+00
  0.00000000E+00  0.00000000E+00  0.00000000E+00
  0.00000000E+00  0.00000000E+00  0.00000000E+00
  0.00000000E+00  0.00000000E+00  0.00000000E+00
  0.00000000E+00  0.00000000E+00  0.00000000E+00
  0.00000000E+00  0.00000000E+00  0.00000000E+00
  0.00000000E+00  0.00000000E+00  0.00000000E+00
  0.00000000E+00  0.00000000E+00  0.00000000E+00
  0.00000000E+00  0.00000000E+00  0.00000000E+00
  0.00000000E+00  0.00000000E+00  0.00000000E+00
  0.00000000E+00  0.00000000E+00  0.00000000E+00
  0.00000000E+00  0.00000000E+00  0.00000000E+00
  0.00000000E+00  0.00000000E+00  0.00000000E+00
  0.00000000E+00  0.00000000E+00  0.00000000E+00
  0.00000000E+00  0.00000000E+00  0.00000000E+00
  0.00000000E+00  0.00000000E+00  0.00000000E+00
  0.00000000E+00  0.00000000E+00  0.00000000E+00
  0.00000000E+00  0.00000000E+00  0.00000000E+00
  0.00000000E+00  0.00000000E+00  0.00000000E+00
  0.00000000E+00  0.00000000E+00  0.00000000E+00
  0.00000000E+00  0.00000000E+00  0.00000000E+00
  0.00000000E+00  0.00000000E+00  0.00000000E+00
  0.00000000E+00  0.00000000E+00  0.00000000E+00
  0.00000000E+00  0.00000000E+00  0.00000000E+00
  0.00000000E+00  0.00000000E+00  0.00000000E+00
  0.00000000E+00  0.00000000E+00  0.00000000E+00
  0.00000000E+00  0.00000000E+00  0.00000000E+00
  0.00000000E+00  0.00000000E+00  0.00000000E+00
  0.00000000E+00  0.00000000E+00  0.00000000E+00
  0.00000000E+00  0.00000000E+00  0.00000000E+00
  0.00000000E+00  0.00000000E+00  0.00000000E+00
  0.00000000E+00  0.00000000E+00  0.00000000E+00
  0.00000000E+00  0.00000000E+00  0.00000000E+00
  0.00000000E+00  0.00000000E+00  0.00000000E+00
  0.00000000E+00  0.00000000E+00  0.00000000E+00
  0.00000000E+00  0.00000000E+00  0.00000000E+00
  0.00000000E+00  0.00000000E+00  0.00000000E+00
  0.00000000E+00  0.00000000E+00  0.00000000E+00
  0.00000000E+00  0.00000000E+00  0.00000000E+00
  0.00000000E+00  0.00000000E+00  0.00000000E+00
  0.00000000E+00  0.00000000E+00  0.00000000E+00
  0.00000000E+00  0.00000000E+00  0.00000000E+00
  0.00000000E+00  0.00000000E+00  0.00000000E+00
