Cs Sn  F                                
   1.00000000000000     
     9.5681879999999992   -9.5681879999999992    0.0000000000000000
     9.5681879999999992    9.5681879999999992    0.0000000000000000
     0.0000000000000000    0.0000000000000000   19.1363769999999995
   Cs   Sn   F 
    32    32    96
Direct
  0.0018104731592280  0.9905018237635246  0.0055151903057449
  0.0007212822054159  0.0040692533517562  0.2560502944462638
  0.0077382383005450  0.0023154074007555  0.5045214993073383
  0.0077406645167094  0.0000248978428281  0.7560989331592721
  0.4994478657287316  0.9880362884521011  0.0078624537224197
  0.5002664894608123  0.9935291974260916  0.2604383535186039
  0.5000780689910409  0.9916511347672968  0.5090130938804902
  0.5062396283943709  0.9936503066330831  0.7483029560434854
  0.2569030465563577  0.2483973969947638  0.9855533663970282
  0.2464212550285965  0.2528601099121675  0.2406212681711263
  0.2425348715079710  0.2648573210612801  0.4833990177253455
  0.2471501572201515  0.2531552903339422  0.7384043911260183
  0.0044458623471842  0.5008509700396496  0.9875280780556670
  0.0028325437307883  0.4970306556830936  0.2377702925631988
  0.9943147214855633  0.5072359409001844  0.4895292579095927
  0.0016042965916960  0.4949586115062772  0.7437700947337255
  0.7494699300025468  0.2601766435072167  0.0005086323285888
  0.7575090956109235  0.2608689074698589  0.2485471065985098
  0.7440055862020565  0.2388252038292404  0.5007479858116997
  0.7644408692111198  0.2435474286951032  0.7612702527246952
  0.5005964320260673  0.4907650779966642  0.9956868061458093
  0.5000518902725677  0.4908632016026055  0.2395167666120920
  0.4896496558678565  0.4915265742581592  0.4907014760330110
  0.5151790930933037  0.5048119440205064  0.7511526437027785
  0.2442267325431584  0.7490291568452924  0.0039523706845180
  0.2511098859705807  0.7649715008568080  0.2552099386490371
  0.2332392152668729  0.7551084346050037  0.4994525715182887
  0.2432848451266916  0.7445981586281520  0.7449578191336189
  0.7358611898185193  0.7477553633539302  0.0031207446847442
  0.7303465012977735  0.7434345523982715  0.2547347084015005
  0.7555270075621128  0.7571170955025308  0.5043667695406961
  0.7580161470427109  0.7623253200714478  0.7615561413839970
  0.9886958179362075  0.2370669766613364  0.1239372192272284
  0.0008352286441644  0.2621097762584644  0.3729423202656845
  0.0037793200465170  0.2577041425245092  0.6211295046691008
  0.0156511065573614  0.2472714465231168  0.8774986807890222
  0.5097190141995053  0.2484354442125876  0.1266720885272225
  0.5003708770201154  0.2505162606306366  0.3762352466916286
  0.4815655489800486  0.2401856713596171  0.6220043354220030
  0.5040082076707789  0.2531527710097089  0.8655400017053674
  0.2358461090806471  0.4904228889460922  0.1062765341343469
  0.2486601079406247  0.5141774039518142  0.3540516275884210
  0.2497866557585043  0.5094807274129201  0.6052693169338871
  0.2577946298642473  0.5050299135447127  0.8554027634692180
  0.9921756942756159  0.7557740558587809  0.1246996437410271
  0.9944191937391277  0.7574623076940020  0.3644186105425552
  0.9813318523278413  0.7407277812737454  0.6197266322548765
  0.0051849825477005  0.7574371346247617  0.8715599114787113
  0.7544532855098807  0.5133281907043037  0.1216601496937492
  0.7453179263931473  0.5011906223232742  0.3762751890407836
  0.7380201000316541  0.4799003894302895  0.6229545982528968
  0.7568391672971249  0.5043141042056368  0.8728512420516163
  0.4782339881856177  0.7361046232975523  0.1310475498124340
  0.5005372637764468  0.7515231634858134  0.3887467003322981
  0.5080264041644644  0.7475971932144624  0.6301760397248753
  0.4949560170233905  0.7532358954814474  0.8773649559198703
  0.2545883731158805  0.0093127595600528  0.1321856384244664
  0.2550711255020352  0.0117467698112477  0.3814208510648317
  0.2373898111918930  0.9929457220078908  0.6298347410694243
  0.2618861693286311  0.9979225851046829  0.8796076716639232
  0.7338061500325711  0.9878458365148607  0.1363055588263197
  0.7573585662376865  0.0052671342099827  0.3838309972367761
  0.7606910277773116  0.0110678241153827  0.6373671062366679
  0.7528567738347103  0.0063328287546647  0.8883535793865918
  0.0238530508257274  0.2170792646120100  0.0152019950845705
  0.0018759130536221  0.2586219286149486  0.2604710340554787
  0.9756920170509190  0.2375584471881111  0.5127063257434571
  0.0070700518468899  0.2397988775059251  0.7659783037667866
  0.5064875334529282  0.2236158568632169  0.0169208662708406
  0.5347251046394942  0.2481995168169653  0.2673484523415475
  0.4546598028496928  0.2096265530575145  0.5142408735332599
  0.5435571908447797  0.2806391989936968  0.7607247494355452
  0.2597587287210512  0.4791378751929055  0.9651971611800413
  0.2639556283209565  0.4793875387842321  0.2148738471509823
  0.2399356502707381  0.4946157604564799  0.4641177326912105
  0.2334757680650922  0.4784532808866859  0.7136955532592025
  0.0125329473551612  0.7492423493841305  0.9823989410508912
  0.9501107704809256  0.7128783777496818  0.2275684796713446
  0.0084631366238294  0.7534093375668305  0.4756285781307537
  0.9982595052328262  0.7270086451408181  0.7294918274647390
  0.7402066230242379  0.5039026654166897  0.0103853330895005
  0.7315728452604893  0.4935447727044714  0.2644160959825098
  0.7662783798846505  0.4690167548581325  0.5124400592606495
  0.7645254647745962  0.4763369999620473  0.7613050692730943
  0.4794081874097860  0.7514231318700706  0.0211135238298343
  0.4871429497630178  0.7644379541285498  0.2785875888154988
  0.5427550696407359  0.6982206610392483  0.5255374336885018
  0.4771119386640545  0.7490911978438329  0.7656660406875546
  0.2357857647382055  0.9811481287528956  0.0217814949784426
  0.2581474085057978  0.9935212698894476  0.2692937261504366
  0.2478552029163809  0.9826161566871769  0.5185435819602248
  0.2503152556003483  0.9792534656808329  0.7700866946604061
  0.7219655753163171  0.9744335304952308  0.0249535692376081
  0.7761111111039737  0.9883155189907959  0.2740885935555150
  0.7656781066065467  0.9843463950100273  0.5270223125276269
  0.7732468676617946  0.9937215149068512  0.7774300599768836
  0.0958905194357784  0.1257783641299134  0.1408723369911487
  0.0966707543612700  0.1353948758914849  0.3676389993839058
  0.1346326598865699  0.1729344009485285  0.6050642316599188
  0.1352233802666883  0.1423829036277207  0.8668113526889908
  0.6460917280997212  0.1728385657348508  0.1241610302565234
  0.5835836750954997  0.1180955065643477  0.3846747875902797
  0.5957309267082089  0.1320115670743421  0.6138166130795116
  0.6084628686116041  0.1338070845755247  0.8592467434224560
  0.3352610455107843  0.3709207640398471  0.0979029274203752
  0.3667583982625926  0.4093335114293526  0.3568610535130343
  0.3487441811518108  0.3867222197559643  0.5976747909098169
  0.3633455830717169  0.3876663985700582  0.8464377916690613
  0.1169325970593805  0.6611013333383399  0.1396694798240343
  0.0789325323864313  0.6224813977786083  0.3666230435097029
  0.0972713170806428  0.6346053878236082  0.6147049370334401
  0.1230814908266263  0.6529611906897912  0.8767627872009198
  0.8667136090850437  0.4029573652222189  0.1103481411892040
  0.8737015290114831  0.4123376644504385  0.3591097959396957
  0.8205865627516254  0.3475797266389387  0.6302657027755113
  0.8612482253061606  0.3855623454250990  0.8830038770945788
  0.5930389894787694  0.6270904901170714  0.1160891001873165
  0.5770295186273430  0.6178694073653979  0.3629627108393837
  0.6303558648229012  0.6631211334439092  0.6600974154188539
  0.6120529851007157  0.6462617254261647  0.8643336433466672
  0.3577031917098885  0.8887615372377343  0.1290740686869943
  0.3708008269913978  0.9030110510853201  0.3825969199050567
  0.3228461706182567  0.8627179634502279  0.6276421069493732
  0.3329193767123726  0.8540478836669471  0.8763215237684640
  0.8197686526622100  0.8557711665661137  0.1318365947184433
  0.8786373687854886  0.9055720888810047  0.3949961711256786
  0.8692623786674502  0.8983149502686109  0.6468646581223517
  0.8470902080630605  0.8788371785102244  0.8979044248029986
  0.8683772688084870  0.0653111339134366  0.1212014469755542
  0.8825491976074421  0.1590252028143065  0.3640489017830164
  0.9298505401423491  0.1194155605151533  0.6311928983038927
  0.9177891174423553  0.1236049120130531  0.8765919577799752
  0.4421208454097272  0.1077759607285811  0.1344312041107139
  0.3804381098080847  0.1578015342639442  0.3474578599410786
  0.3744351124375719  0.0689603497571469  0.6306662607277581
  0.3973239277146646  0.1503886384581230  0.8279681647552084
  0.1066318772408337  0.3401532172405987  0.1253003066075644
  0.1537350345042338  0.3886195415822924  0.3477041710944782
  0.1353997459797736  0.4045136415924785  0.5899105886701516
  0.1470649682672265  0.3910660238891160  0.8551060544773923
  0.9099037491979749  0.6312915010529110  0.0919391553635706
  0.8675264276466378  0.6692054280473176  0.3795882243905428
  0.8714853724521300  0.5615479577932301  0.6252344515424748
  0.9124604888133225  0.6301411081463099  0.8707736845278301
  0.6494175457467078  0.3953153251822294  0.1206179352322261
  0.6655063453690003  0.3653096285275489  0.3781031960992216
  0.5880040976349690  0.3443771688822203  0.5872819591636879
  0.6482176084887368  0.3893286321515986  0.8790811693117134
  0.3619040415719747  0.5834214676335157  0.1001857046466901
  0.3724508424444031  0.6615705235368945  0.3934688927318374
  0.4204099141618227  0.6189950014556789  0.6380579337897301
  0.4046642873532642  0.6249154569103648  0.8847671382225080
  0.1468300609103050  0.9002320459429261  0.1498923625884002
  0.1549140417763805  0.8898740252564969  0.3799748943966936
  0.0946921389643626  0.8481978429490447  0.6216223061383358
  0.1314277055128732  0.9148236140535064  0.8857736300649356
  0.5927562229048967  0.8436218928635082  0.1300890410307057
  0.6660915217050436  0.8770078125494467  0.3773789185133659
  0.6561047767733971  0.8938104654711714  0.6413241261469088
  0.6383763603623855  0.9013367936297225  0.8726695201463884
 
  0.00000000E+00  0.00000000E+00  0.00000000E+00
  0.00000000E+00  0.00000000E+00  0.00000000E+00
  0.00000000E+00  0.00000000E+00  0.00000000E+00
  0.00000000E+00  0.00000000E+00  0.00000000E+00
  0.00000000E+00  0.00000000E+00  0.00000000E+00
  0.00000000E+00  0.00000000E+00  0.00000000E+00
  0.00000000E+00  0.00000000E+00  0.00000000E+00
  0.00000000E+00  0.00000000E+00  0.00000000E+00
  0.00000000E+00  0.00000000E+00  0.00000000E+00
  0.00000000E+00  0.00000000E+00  0.00000000E+00
  0.00000000E+00  0.00000000E+00  0.00000000E+00
  0.00000000E+00  0.00000000E+00  0.00000000E+00
  0.00000000E+00  0.00000000E+00  0.00000000E+00
  0.00000000E+00  0.00000000E+00  0.00000000E+00
  0.00000000E+00  0.00000000E+00  0.00000000E+00
  0.00000000E+00  0.00000000E+00  0.00000000E+00
  0.00000000E+00  0.00000000E+00  0.00000000E+00
  0.00000000E+00  0.00000000E+00  0.00000000E+00
  0.00000000E+00  0.00000000E+00  0.00000000E+00
  0.00000000E+00  0.00000000E+00  0.00000000E+00
  0.00000000E+00  0.00000000E+00  0.00000000E+00
  0.00000000E+00  0.00000000E+00  0.00000000E+00
  0.00000000E+00  0.00000000E+00  0.00000000E+00
  0.00000000E+00  0.00000000E+00  0.00000000E+00
  0.00000000E+00  0.00000000E+00  0.00000000E+00
  0.00000000E+00  0.00000000E+00  0.00000000E+00
  0.00000000E+00  0.00000000E+00  0.00000000E+00
  0.00000000E+00  0.00000000E+00  0.00000000E+00
  0.00000000E+00  0.00000000E+00  0.00000000E+00
  0.00000000E+00  0.00000000E+00  0.00000000E+00
  0.00000000E+00  0.00000000E+00  0.00000000E+00
  0.00000000E+00  0.00000000E+00  0.00000000E+00
  0.00000000E+00  0.00000000E+00  0.00000000E+00
  0.00000000E+00  0.00000000E+00  0.00000000E+00
  0.00000000E+00  0.00000000E+00  0.00000000E+00
  0.00000000E+00  0.00000000E+00  0.00000000E+00
  0.00000000E+00  0.00000000E+00  0.00000000E+00
  0.00000000E+00  0.00000000E+00  0.00000000E+00
  0.00000000E+00  0.00000000E+00  0.00000000E+00
  0.00000000E+00  0.00000000E+00  0.00000000E+00
  0.00000000E+00  0.00000000E+00  0.00000000E+00
  0.00000000E+00  0.00000000E+00  0.00000000E+00
  0.00000000E+00  0.00000000E+00  0.00000000E+00
  0.00000000E+00  0.00000000E+00  0.00000000E+00
  0.00000000E+00  0.00000000E+00  0.00000000E+00
  0.00000000E+00  0.00000000E+00  0.00000000E+00
  0.00000000E+00  0.00000000E+00  0.00000000E+00
  0.00000000E+00  0.00000000E+00  0.00000000E+00
  0.00000000E+00  0.00000000E+00  0.00000000E+00
  0.00000000E+00  0.00000000E+00  0.00000000E+00
  0.00000000E+00  0.00000000E+00  0.00000000E+00
  0.00000000E+00  0.00000000E+00  0.00000000E+00
  0.00000000E+00  0.00000000E+00  0.00000000E+00
  0.00000000E+00  0.00000000E+00  0.00000000E+00
  0.00000000E+00  0.00000000E+00  0.00000000E+00
  0.00000000E+00  0.00000000E+00  0.00000000E+00
  0.00000000E+00  0.00000000E+00  0.00000000E+00
  0.00000000E+00  0.00000000E+00  0.00000000E+00
  0.00000000E+00  0.00000000E+00  0.00000000E+00
  0.00000000E+00  0.00000000E+00  0.00000000E+00
  0.00000000E+00  0.00000000E+00  0.00000000E+00
  0.00000000E+00  0.00000000E+00  0.00000000E+00
  0.00000000E+00  0.00000000E+00  0.00000000E+00
  0.00000000E+00  0.00000000E+00  0.00000000E+00
  0.00000000E+00  0.00000000E+00  0.00000000E+00
  0.00000000E+00  0.00000000E+00  0.00000000E+00
  0.00000000E+00  0.00000000E+00  0.00000000E+00
  0.00000000E+00  0.00000000E+00  0.00000000E+00
  0.00000000E+00  0.00000000E+00  0.00000000E+00
  0.00000000E+00  0.00000000E+00  0.00000000E+00
  0.00000000E+00  0.00000000E+00  0.00000000E+00
  0.00000000E+00  0.00000000E+00  0.00000000E+00
  0.00000000E+00  0.00000000E+00  0.00000000E+00
  0.00000000E+00  0.00000000E+00  0.00000000E+00
  0.00000000E+00  0.00000000E+00  0.00000000E+00
  0.00000000E+00  0.00000000E+00  0.00000000E+00
  0.00000000E+00  0.00000000E+00  0.00000000E+00
  0.00000000E+00  0.00000000E+00  0.00000000E+00
  0.00000000E+00  0.00000000E+00  0.00000000E+00
  0.00000000E+00  0.00000000E+00  0.00000000E+00
  0.00000000E+00  0.00000000E+00  0.00000000E+00
  0.00000000E+00  0.00000000E+00  0.00000000E+00
  0.00000000E+00  0.00000000E+00  0.00000000E+00
  0.00000000E+00  0.00000000E+00  0.00000000E+00
  0.00000000E+00  0.00000000E+00  0.00000000E+00
  0.00000000E+00  0.00000000E+00  0.00000000E+00
  0.00000000E+00  0.00000000E+00  0.00000000E+00
  0.00000000E+00  0.00000000E+00  0.00000000E+00
  0.00000000E+00  0.00000000E+00  0.00000000E+00
  0.00000000E+00  0.00000000E+00  0.00000000E+00
  0.00000000E+00  0.00000000E+00  0.00000000E+00
  0.00000000E+00  0.00000000E+00  0.00000000E+00
  0.00000000E+00  0.00000000E+00  0.00000000E+00
  0.00000000E+00  0.00000000E+00  0.00000000E+00
  0.00000000E+00  0.00000000E+00  0.00000000E+00
  0.00000000E+00  0.00000000E+00  0.00000000E+00
  0.00000000E+00  0.00000000E+00  0.00000000E+00
  0.00000000E+00  0.00000000E+00  0.00000000E+00
  0.00000000E+00  0.00000000E+00  0.00000000E+00
  0.00000000E+00  0.00000000E+00  0.00000000E+00
  0.00000000E+00  0.00000000E+00  0.00000000E+00
  0.00000000E+00  0.00000000E+00  0.00000000E+00
  0.00000000E+00  0.00000000E+00  0.00000000E+00
  0.00000000E+00  0.00000000E+00  0.00000000E+00
  0.00000000E+00  0.00000000E+00  0.00000000E+00
  0.00000000E+00  0.00000000E+00  0.00000000E+00
  0.00000000E+00  0.00000000E+00  0.00000000E+00
  0.00000000E+00  0.00000000E+00  0.00000000E+00
  0.00000000E+00  0.00000000E+00  0.00000000E+00
  0.00000000E+00  0.00000000E+00  0.00000000E+00
  0.00000000E+00  0.00000000E+00  0.00000000E+00
  0.00000000E+00  0.00000000E+00  0.00000000E+00
  0.00000000E+00  0.00000000E+00  0.00000000E+00
  0.00000000E+00  0.00000000E+00  0.00000000E+00
  0.00000000E+00  0.00000000E+00  0.00000000E+00
  0.00000000E+00  0.00000000E+00  0.00000000E+00
  0.00000000E+00  0.00000000E+00  0.00000000E+00
  0.00000000E+00  0.00000000E+00  0.00000000E+00
  0.00000000E+00  0.00000000E+00  0.00000000E+00
  0.00000000E+00  0.00000000E+00  0.00000000E+00
  0.00000000E+00  0.00000000E+00  0.00000000E+00
  0.00000000E+00  0.00000000E+00  0.00000000E+00
  0.00000000E+00  0.00000000E+00  0.00000000E+00
  0.00000000E+00  0.00000000E+00  0.00000000E+00
  0.00000000E+00  0.00000000E+00  0.00000000E+00
  0.00000000E+00  0.00000000E+00  0.00000000E+00
  0.00000000E+00  0.00000000E+00  0.00000000E+00
  0.00000000E+00  0.00000000E+00  0.00000000E+00
  0.00000000E+00  0.00000000E+00  0.00000000E+00
  0.00000000E+00  0.00000000E+00  0.00000000E+00
  0.00000000E+00  0.00000000E+00  0.00000000E+00
  0.00000000E+00  0.00000000E+00  0.00000000E+00
  0.00000000E+00  0.00000000E+00  0.00000000E+00
  0.00000000E+00  0.00000000E+00  0.00000000E+00
  0.00000000E+00  0.00000000E+00  0.00000000E+00
  0.00000000E+00  0.00000000E+00  0.00000000E+00
  0.00000000E+00  0.00000000E+00  0.00000000E+00
  0.00000000E+00  0.00000000E+00  0.00000000E+00
  0.00000000E+00  0.00000000E+00  0.00000000E+00
  0.00000000E+00  0.00000000E+00  0.00000000E+00
  0.00000000E+00  0.00000000E+00  0.00000000E+00
  0.00000000E+00  0.00000000E+00  0.00000000E+00
  0.00000000E+00  0.00000000E+00  0.00000000E+00
  0.00000000E+00  0.00000000E+00  0.00000000E+00
  0.00000000E+00  0.00000000E+00  0.00000000E+00
  0.00000000E+00  0.00000000E+00  0.00000000E+00
  0.00000000E+00  0.00000000E+00  0.00000000E+00
  0.00000000E+00  0.00000000E+00  0.00000000E+00
  0.00000000E+00  0.00000000E+00  0.00000000E+00
  0.00000000E+00  0.00000000E+00  0.00000000E+00
  0.00000000E+00  0.00000000E+00  0.00000000E+00
  0.00000000E+00  0.00000000E+00  0.00000000E+00
  0.00000000E+00  0.00000000E+00  0.00000000E+00
  0.00000000E+00  0.00000000E+00  0.00000000E+00
  0.00000000E+00  0.00000000E+00  0.00000000E+00
  0.00000000E+00  0.00000000E+00  0.00000000E+00
  0.00000000E+00  0.00000000E+00  0.00000000E+00
  0.00000000E+00  0.00000000E+00  0.00000000E+00
  0.00000000E+00  0.00000000E+00  0.00000000E+00
  0.00000000E+00  0.00000000E+00  0.00000000E+00
