I Ge In                                 
   1.00000000000000     
    11.7572989999999997  -11.7572989999999997    0.0000000000000000
    11.7572989999999997   11.7572989999999997    0.0000000000000000
     0.0000000000000000    0.0000000000000000   23.5145969999999984
   Ge   I    In
    32    96    32
Direct
  0.0001321838744956  0.9870459130152506  0.0084847680189539
  0.0010041453618948  0.0088438898545854  0.2684095334906534
  0.9897338059867787  0.9998424955257493  0.5028301238106603
  0.0007581321629470  0.9964118712467648  0.7521245423155341
  0.5086313167269287  0.9977985524287399  0.0074440309902658
  0.5138617728729430  0.9744218458711860  0.2474469508319996
  0.4992369514448339  0.0018709711557072  0.5094861168608888
  0.4902243535781757 -0.0012766323293681  0.7604713174438477
  0.2671061205469246  0.2579947434439760  0.0001470178753023
  0.2543885568411067  0.2342380459235274  0.2500407242386207
  0.2445549736284171  0.2681978361304531  0.5079923940124013
  0.2284947051813578  0.2491082011447186  0.7495015149757674
  0.9957615012506398  0.4905395439688776  0.9876744767839802
  0.0129076285160300  0.4934900383960197  0.2411887251608241
  0.9912771146029230  0.4939893449860739  0.4994783981028953
  0.9901903616187360  0.5137606053978832  0.7430330217555310
  0.7569084049875433  0.2586828017564730  0.0054310276730647
  0.7482865591277376  0.2570007738434211  0.2447972272001061
  0.7507826211749531  0.2733298597416905  0.4961251369374218
  0.7326746758321523  0.2567546083836517  0.7368857102097914
  0.5120348257489438  0.4798183215074956  0.9934451851635284
  0.4906790964910366  0.4964149379366667  0.2511067815481179
  0.5023981120561101  0.5021709635309483  0.4899962825488812
  0.4947037079899559  0.4940756972821118  0.7405810837095869
  0.2543944172809409  0.7556749965037145  0.9926529488152899
  0.2545078918869735  0.7566388304291141  0.2537349023095752
  0.2482405841730751  0.7706247949178784  0.5001542686120952
  0.2367173503642138  0.7494650908041952  0.7347465501674000
  0.7595287515614663  0.7517161444370464  0.9947548056888529
  0.7488014160859969  0.7560572648494073  0.2512972004504588
  0.7458648065816821  0.7674467342484733  0.5117138308577895
  0.7264969333287667  0.7578273090557520  0.7550630909612190
  0.1392864132852479  0.0889212925627115  0.0137833315154005
  0.1220354612733119  0.1424302788126703  0.2152266886996467
  0.1088533379068495  0.1711769345573584  0.5234702214086263
  0.1291844942307509  0.0877457715976391  0.7094752254806240
  0.6434551204724633  0.0881643109222791  0.9735442637375463
  0.6140962557104880  0.1656866305628235  0.2817095497387779
  0.6114358489750468  0.1686747367569908  0.4707516625533382
  0.6330039406853658  0.0878940723585901  0.7814136944225190
  0.3415472206840436  0.3969343243136583  0.9623943434379627
  0.4210504342400631  0.3481718809716819  0.2748149288458012
  0.4210574548838359  0.3574546124446338  0.4693973697678833
  0.3268970971384267  0.3839208652388601  0.7743646189430410
  0.1311694749825507  0.5925949434050761  0.9629747110933201
  0.1164241232822417  0.6622145686825301  0.2831291118348189
  0.1124021823986143  0.6704469257729671  0.4731039537258143
  0.1354542239242607  0.5870493070968401  0.7758866565998513
  0.8384340040046402  0.3978021862755807  0.0339797135532451
  0.9201528565080673  0.3552184363686029  0.2293056974036642
  0.9146754168631004  0.3532728669670847  0.5333183259550474
  0.8224647976279065  0.3983106839522240  0.7225805046067699
  0.6364691243730940  0.5928840621008173  0.0256580060352410
  0.6269317115802827  0.6484267760983682  0.2175514715575076
  0.6086453864057558  0.6706531852061326  0.5335725374041562
  0.6325171583987632  0.5859317695220989  0.7186444415382932
  0.3367981399773571  0.8978499038931835  0.0181446684199051
  0.4331507717738523  0.8349685028471118  0.2240397259674466
  0.4216790924865041  0.8547003969903716  0.5336902666309629
  0.3432425976572823  0.8761956930148701  0.7113553616120664
  0.8350671347878740  0.8978416816065359  0.9690870455941825
  0.9173159389220846  0.8589832336187739  0.2803202023112163
  0.9160752339944802  0.8566542369027424  0.4698934683155470
  0.8207415333655830  0.8946057250481690  0.7775814780710559
  0.8906477061141649  0.1459798748506283  0.9964275221037459
  0.8706828133165464  0.1121225990864346  0.2887278535872057
  0.8620904929209741  0.1091747547582693  0.4755479912453860
  0.8969746497245517  0.1396844153639663  0.7634527521532219
  0.3917274090766585  0.1489029796030860  0.9720362465543326
  0.3674135610510180  0.1056383026555313  0.2472028431147346
  0.3554601491697877  0.0917183319519988  0.4876484763513507
  0.3735760906633929  0.1225920066128355  0.7658178089710627
  0.0881735325992314  0.3479002205298523  0.9954897952367805
  0.1645562608615746  0.4074404321075807  0.2488110418777818
  0.1719211341993747  0.4204385208356974  0.5159657132365764
  0.0885404287617756  0.3414056036752436  0.7191600243255013
  0.8819846972969877  0.6467088048024158  0.9573015378363002
  0.8739547641497893  0.6191680678050754  0.2513909219616323
  0.8484210176009520  0.5893814843278780  0.4808784892446865
  0.8902150231908635  0.6454321045478120  0.7716209689819876
  0.5808750909738569  0.3303900136822960  0.0210638748658438
  0.6637820957827096  0.4004543943377832  0.2191416214819462
  0.6614584566953122  0.4078550946683644  0.5343925650905611
  0.5757350946159910  0.3211530786985000  0.7314798128736070
  0.3887398238257619  0.6465363846306709  0.9874677801913680
  0.3507519340483107  0.5871811606022557  0.2720386435357903
  0.3669803673817066  0.6071986922785885  0.4777172687698623
  0.3906910070628145  0.6289458592371764  0.7694095293527206
  0.0797801383365447  0.8336055214391103  0.0129030784910336
  0.1673878728749492  0.9010829684281628  0.2506637202185603
  0.1616689632745453  0.9077396051465000  0.5344588414345069
  0.0853572616678813  0.8294003105720684  0.7293259602624569
  0.5927167049832126  0.8501718128270204  0.0271162624978111
  0.6763749263632063  0.9200727935358884  0.2373426497108341
  0.6764420391681430  0.9211815787481954  0.5159053748823014
  0.5889881637089980  0.8404662026826298  0.7171374414136009
  0.9713142257696189  0.9768857409994343  0.1265380595611339
  0.0619962406674172  0.0275169925355708  0.3790805041943063
  0.9355340125158521  0.9850310366707652  0.6178754027051300
  0.0387442785320272  0.9941824512121800  0.8674818947196796
  0.5232038631322571  0.0472410470660887  0.1208577652315818
  0.5077727020496929  0.9676193819102588  0.3705328011671690
  0.5117161094778120  0.0558671896971922  0.6228937627289646
  0.4669492115852100  0.9500325110556643  0.8726051120875870
  0.2933838117028387  0.2872019405019632  0.1153918166750577
  0.2315946292508313  0.2285560891854281  0.3679653068120896
  0.3018617429245407  0.2634906240539594  0.6206238984715845
  0.1866232112353187  0.2203385120314576  0.8644115951102226
  0.0323319625077755  0.5296432303974544  0.1243810969591732
  0.0065062613950214  0.4680474754128334  0.3804500988635254
  0.0018119144380955  0.5619552797471663  0.6278699134118161
  0.9615713548446236  0.4464805880154491  0.8725760737360032
  0.7391990956037960  0.1949530641204349  0.1344817996867320
  0.7793501618698038  0.3192500165784593  0.3825195403590867
  0.7411280758520308  0.1975225745172216  0.6260176782507583
  0.7516124283192395  0.2782005229033670  0.8829608446448431
  0.4600337485874318  0.4923159850427405  0.1308891881663406
  0.5562189084870315  0.5288390921866963  0.3784915016911662
  0.4426975307888968  0.4897283342274388  0.6272638290919147
  0.5558287237201067  0.4721118299638624  0.8787509400443104
  0.2348288904633817  0.7263136262560390  0.1346631159478658
  0.2912097188281960  0.8066759939215182  0.3851100677050945
  0.2407410285772654  0.6873196880807064  0.6241846679156388
  0.2471084234939337  0.7909383580893860  0.8756051495331513
  0.8096795711684098  0.7558727156017574  0.1114171637867865
  0.7216567333727334  0.7407350328942292  0.3675322651306925
  0.8026774664402896  0.7594065375442792  0.6231788513682692
  0.6761004418507535  0.7286165512262462  0.8684732946607632
  0.0715222832133550  0.3095633097026161  0.1392921435306360
  0.9727617459831189  0.2240824890357289  0.3899128471349578
  0.9802481871512729  0.1980821325131150  0.6357839630619635
  0.9800703745531099  0.2361097644757440  0.8839458730630096
  0.5270149602237205  0.2578273939224340  0.1626183271874842
  0.4500718854971588  0.1974932098062213  0.3747505852549179
  0.5220563566597881  0.2715273648568739  0.5881099861140344
  0.5478384644175635  0.2619216338721551  0.8811008170097000
  0.2575113424700500  0.5191055457171512  0.1440969876072978
  0.2049959070105051  0.5306643979007710  0.3852997140122804
  0.2323476132257613  0.4717404041981191  0.6590914786132201
  0.1795746771322237  0.4324994802681102  0.8745487661320601
  0.0056677304064627  0.7673459725873921  0.1669093276842793
  0.9568667877299526  0.7038284092996425  0.3747501701640758
  0.0171290197556002  0.7802389981548313  0.5931134478039777
  0.0440591649857963  0.7352187671894092  0.8743684564490147
  0.7667950435521188  0.5478507947861272  0.1330516666418153
  0.7565945846022644  0.5241377515791519  0.3555011208465243
  0.7831926427844661  0.5413534313601746  0.6186530548855625
  0.7677829380948449  0.5373472826580418  0.8566514613715470
  0.4956853467255782  0.7001622634336991  0.1069828976368901
  0.4902992607810601  0.7433573294480990  0.4178651802484285
  0.4603388680568423  0.7084847492546636  0.6425780936355551
  0.4663092092835012  0.7451405366216513  0.8737789425722806
  0.1859650958754722  0.9497744792803480  0.1102872388352839
  0.2689935494008267  0.0126358332525384  0.3604511087105359
  0.3017624836575481  0.0452596757875252  0.6321163235996182
  0.2658045331733734  0.0259346282585018  0.8970168590331271
  0.7254205153015167  0.9836790357428240  0.0895436301684242
  0.7053829909773528  0.0307548468175612  0.3808737733632752
  0.7238755980331407  0.9857661737540753  0.6611490310515701
  0.7914359267040055  0.0523047339297960  0.8748333780005960
 
  0.00000000E+00  0.00000000E+00  0.00000000E+00
  0.00000000E+00  0.00000000E+00  0.00000000E+00
  0.00000000E+00  0.00000000E+00  0.00000000E+00
  0.00000000E+00  0.00000000E+00  0.00000000E+00
  0.00000000E+00  0.00000000E+00  0.00000000E+00
  0.00000000E+00  0.00000000E+00  0.00000000E+00
  0.00000000E+00  0.00000000E+00  0.00000000E+00
  0.00000000E+00  0.00000000E+00  0.00000000E+00
  0.00000000E+00  0.00000000E+00  0.00000000E+00
  0.00000000E+00  0.00000000E+00  0.00000000E+00
  0.00000000E+00  0.00000000E+00  0.00000000E+00
  0.00000000E+00  0.00000000E+00  0.00000000E+00
  0.00000000E+00  0.00000000E+00  0.00000000E+00
  0.00000000E+00  0.00000000E+00  0.00000000E+00
  0.00000000E+00  0.00000000E+00  0.00000000E+00
  0.00000000E+00  0.00000000E+00  0.00000000E+00
  0.00000000E+00  0.00000000E+00  0.00000000E+00
  0.00000000E+00  0.00000000E+00  0.00000000E+00
  0.00000000E+00  0.00000000E+00  0.00000000E+00
  0.00000000E+00  0.00000000E+00  0.00000000E+00
  0.00000000E+00  0.00000000E+00  0.00000000E+00
  0.00000000E+00  0.00000000E+00  0.00000000E+00
  0.00000000E+00  0.00000000E+00  0.00000000E+00
  0.00000000E+00  0.00000000E+00  0.00000000E+00
  0.00000000E+00  0.00000000E+00  0.00000000E+00
  0.00000000E+00  0.00000000E+00  0.00000000E+00
  0.00000000E+00  0.00000000E+00  0.00000000E+00
  0.00000000E+00  0.00000000E+00  0.00000000E+00
  0.00000000E+00  0.00000000E+00  0.00000000E+00
  0.00000000E+00  0.00000000E+00  0.00000000E+00
  0.00000000E+00  0.00000000E+00  0.00000000E+00
  0.00000000E+00  0.00000000E+00  0.00000000E+00
  0.00000000E+00  0.00000000E+00  0.00000000E+00
  0.00000000E+00  0.00000000E+00  0.00000000E+00
  0.00000000E+00  0.00000000E+00  0.00000000E+00
  0.00000000E+00  0.00000000E+00  0.00000000E+00
  0.00000000E+00  0.00000000E+00  0.00000000E+00
  0.00000000E+00  0.00000000E+00  0.00000000E+00
  0.00000000E+00  0.00000000E+00  0.00000000E+00
  0.00000000E+00  0.00000000E+00  0.00000000E+00
  0.00000000E+00  0.00000000E+00  0.00000000E+00
  0.00000000E+00  0.00000000E+00  0.00000000E+00
  0.00000000E+00  0.00000000E+00  0.00000000E+00
  0.00000000E+00  0.00000000E+00  0.00000000E+00
  0.00000000E+00  0.00000000E+00  0.00000000E+00
  0.00000000E+00  0.00000000E+00  0.00000000E+00
  0.00000000E+00  0.00000000E+00  0.00000000E+00
  0.00000000E+00  0.00000000E+00  0.00000000E+00
  0.00000000E+00  0.00000000E+00  0.00000000E+00
  0.00000000E+00  0.00000000E+00  0.00000000E+00
  0.00000000E+00  0.00000000E+00  0.00000000E+00
  0.00000000E+00  0.00000000E+00  0.00000000E+00
  0.00000000E+00  0.00000000E+00  0.00000000E+00
  0.00000000E+00  0.00000000E+00  0.00000000E+00
  0.00000000E+00  0.00000000E+00  0.00000000E+00
  0.00000000E+00  0.00000000E+00  0.00000000E+00
  0.00000000E+00  0.00000000E+00  0.00000000E+00
  0.00000000E+00  0.00000000E+00  0.00000000E+00
  0.00000000E+00  0.00000000E+00  0.00000000E+00
  0.00000000E+00  0.00000000E+00  0.00000000E+00
  0.00000000E+00  0.00000000E+00  0.00000000E+00
  0.00000000E+00  0.00000000E+00  0.00000000E+00
  0.00000000E+00  0.00000000E+00  0.00000000E+00
  0.00000000E+00  0.00000000E+00  0.00000000E+00
  0.00000000E+00  0.00000000E+00  0.00000000E+00
  0.00000000E+00  0.00000000E+00  0.00000000E+00
  0.00000000E+00  0.00000000E+00  0.00000000E+00
  0.00000000E+00  0.00000000E+00  0.00000000E+00
  0.00000000E+00  0.00000000E+00  0.00000000E+00
  0.00000000E+00  0.00000000E+00  0.00000000E+00
  0.00000000E+00  0.00000000E+00  0.00000000E+00
  0.00000000E+00  0.00000000E+00  0.00000000E+00
  0.00000000E+00  0.00000000E+00  0.00000000E+00
  0.00000000E+00  0.00000000E+00  0.00000000E+00
  0.00000000E+00  0.00000000E+00  0.00000000E+00
  0.00000000E+00  0.00000000E+00  0.00000000E+00
  0.00000000E+00  0.00000000E+00  0.00000000E+00
  0.00000000E+00  0.00000000E+00  0.00000000E+00
  0.00000000E+00  0.00000000E+00  0.00000000E+00
  0.00000000E+00  0.00000000E+00  0.00000000E+00
  0.00000000E+00  0.00000000E+00  0.00000000E+00
  0.00000000E+00  0.00000000E+00  0.00000000E+00
  0.00000000E+00  0.00000000E+00  0.00000000E+00
  0.00000000E+00  0.00000000E+00  0.00000000E+00
  0.00000000E+00  0.00000000E+00  0.00000000E+00
  0.00000000E+00  0.00000000E+00  0.00000000E+00
  0.00000000E+00  0.00000000E+00  0.00000000E+00
  0.00000000E+00  0.00000000E+00  0.00000000E+00
  0.00000000E+00  0.00000000E+00  0.00000000E+00
  0.00000000E+00  0.00000000E+00  0.00000000E+00
  0.00000000E+00  0.00000000E+00  0.00000000E+00
  0.00000000E+00  0.00000000E+00  0.00000000E+00
  0.00000000E+00  0.00000000E+00  0.00000000E+00
  0.00000000E+00  0.00000000E+00  0.00000000E+00
  0.00000000E+00  0.00000000E+00  0.00000000E+00
  0.00000000E+00  0.00000000E+00  0.00000000E+00
  0.00000000E+00  0.00000000E+00  0.00000000E+00
  0.00000000E+00  0.00000000E+00  0.00000000E+00
  0.00000000E+00  0.00000000E+00  0.00000000E+00
  0.00000000E+00  0.00000000E+00  0.00000000E+00
  0.00000000E+00  0.00000000E+00  0.00000000E+00
  0.00000000E+00  0.00000000E+00  0.00000000E+00
  0.00000000E+00  0.00000000E+00  0.00000000E+00
  0.00000000E+00  0.00000000E+00  0.00000000E+00
  0.00000000E+00  0.00000000E+00  0.00000000E+00
  0.00000000E+00  0.00000000E+00  0.00000000E+00
  0.00000000E+00  0.00000000E+00  0.00000000E+00
  0.00000000E+00  0.00000000E+00  0.00000000E+00
  0.00000000E+00  0.00000000E+00  0.00000000E+00
  0.00000000E+00  0.00000000E+00  0.00000000E+00
  0.00000000E+00  0.00000000E+00  0.00000000E+00
  0.00000000E+00  0.00000000E+00  0.00000000E+00
  0.00000000E+00  0.00000000E+00  0.00000000E+00
  0.00000000E+00  0.00000000E+00  0.00000000E+00
  0.00000000E+00  0.00000000E+00  0.00000000E+00
  0.00000000E+00  0.00000000E+00  0.00000000E+00
  0.00000000E+00  0.00000000E+00  0.00000000E+00
  0.00000000E+00  0.00000000E+00  0.00000000E+00
  0.00000000E+00  0.00000000E+00  0.00000000E+00
  0.00000000E+00  0.00000000E+00  0.00000000E+00
  0.00000000E+00  0.00000000E+00  0.00000000E+00
  0.00000000E+00  0.00000000E+00  0.00000000E+00
  0.00000000E+00  0.00000000E+00  0.00000000E+00
  0.00000000E+00  0.00000000E+00  0.00000000E+00
  0.00000000E+00  0.00000000E+00  0.00000000E+00
  0.00000000E+00  0.00000000E+00  0.00000000E+00
  0.00000000E+00  0.00000000E+00  0.00000000E+00
  0.00000000E+00  0.00000000E+00  0.00000000E+00
  0.00000000E+00  0.00000000E+00  0.00000000E+00
  0.00000000E+00  0.00000000E+00  0.00000000E+00
  0.00000000E+00  0.00000000E+00  0.00000000E+00
  0.00000000E+00  0.00000000E+00  0.00000000E+00
  0.00000000E+00  0.00000000E+00  0.00000000E+00
  0.00000000E+00  0.00000000E+00  0.00000000E+00
  0.00000000E+00  0.00000000E+00  0.00000000E+00
  0.00000000E+00  0.00000000E+00  0.00000000E+00
  0.00000000E+00  0.00000000E+00  0.00000000E+00
  0.00000000E+00  0.00000000E+00  0.00000000E+00
  0.00000000E+00  0.00000000E+00  0.00000000E+00
  0.00000000E+00  0.00000000E+00  0.00000000E+00
  0.00000000E+00  0.00000000E+00  0.00000000E+00
  0.00000000E+00  0.00000000E+00  0.00000000E+00
  0.00000000E+00  0.00000000E+00  0.00000000E+00
  0.00000000E+00  0.00000000E+00  0.00000000E+00
  0.00000000E+00  0.00000000E+00  0.00000000E+00
  0.00000000E+00  0.00000000E+00  0.00000000E+00
  0.00000000E+00  0.00000000E+00  0.00000000E+00
  0.00000000E+00  0.00000000E+00  0.00000000E+00
  0.00000000E+00  0.00000000E+00  0.00000000E+00
  0.00000000E+00  0.00000000E+00  0.00000000E+00
  0.00000000E+00  0.00000000E+00  0.00000000E+00
  0.00000000E+00  0.00000000E+00  0.00000000E+00
  0.00000000E+00  0.00000000E+00  0.00000000E+00
  0.00000000E+00  0.00000000E+00  0.00000000E+00
  0.00000000E+00  0.00000000E+00  0.00000000E+00
  0.00000000E+00  0.00000000E+00  0.00000000E+00
  0.00000000E+00  0.00000000E+00  0.00000000E+00
  0.00000000E+00  0.00000000E+00  0.00000000E+00
  0.00000000E+00  0.00000000E+00  0.00000000E+00
  0.00000000E+00  0.00000000E+00  0.00000000E+00
