Cs Pb Cl                                
   1.00000000000000     
    11.4420009999999994  -11.4420009999999994    0.0000000000000000
    11.4420009999999994   11.4420009999999994    0.0000000000000000
     0.0000000000000000    0.0000000000000000   22.8840029999999999
   Cl   Cs   Pb
    96    32    32
Direct
  0.0330897838605196  0.2425537463318166  0.0003204877000315
  0.9653120744927731  0.2605788441917593  0.2498801600215814
  0.0316602997927409  0.2501773803788271  0.4999028701691761
  0.9667207473331128  0.2523698604163400  0.7504562698437471
  0.5227303528959886  0.2580429062703652  0.9999525433519855
  0.4752721979180315  0.2436368744198162  0.2501820714722178
  0.5068398212171886  0.2824995261221814  0.5004175761182044
  0.4923885074655655  0.2195588006909901  0.7495910637388212
  0.2288894073361916  0.4834081846488459  0.0001267132122998
  0.2697676257128517  0.5188236065409473  0.2503419292226469
  0.2416245303064872  0.4695662002314993  0.5004221504396428
  0.2580868740741760  0.5312168224318313  0.7499946578698169
  0.0237250832625100  0.7580364461329286  0.9998689266716230
  0.9761879308326495  0.7433462450318836  0.2501104513166995
  0.0059267366052285  0.7827249823024882  0.5004201093411618
  0.9922513101154765  0.7195850072819130  0.7496202269536164
  0.7160808610305851  0.4962872277200022  0.0000680452262656
  0.7823679230983205  0.5064041881119795  0.2501921749765862
  0.7136688898397422  0.4999064429124710  0.5002586332708060
  0.7850635939099120  0.5030676270377697  0.7500902042532821
  0.5326735035096606  0.7423197767707200  0.0004538609699518
  0.4646943797079063  0.7601206963623993  0.2500401321878993
  0.5319620909467064  0.7500225957366463  0.4999202300049049
  0.4666779220069291  0.7525497735242174  0.7504780211584328
  0.2164592651365645  0.9964216710218440  0.9998636346317660
  0.2814335371644827  0.0061469057011506  0.2501211232897083
  0.2130048328423530  0.9998794327438818  0.5001549246488503
  0.2850748445184154  0.0029962903978461  0.7498804353195434
  0.7282378184449582  0.9834466720874107  0.0000748629173245
  0.7705811805966436  0.0188683075839157  0.2500217580437503
  0.7419427664538406  0.9702792028488484  0.5001226675091015
  0.7581259859593185  0.0311581523691033  0.7499644810875933
  0.1071151812891848  0.1091391694944945  0.1425829061399118
  0.1029264957085291  0.1068912867477627  0.3567711528612543
  0.1425723636355858  0.1434538747134140  0.6419646291909727
  0.1090021536054165  0.1096392867978712  0.8577975269337567
  0.6043217902039346  0.1062049675505428  0.1338750902890734
  0.6031609665097608  0.1061507422717115  0.3776081544044750
  0.6438018312420793  0.1440181446846707  0.6112330065163756
  0.6049966430437336  0.1054775149138737  0.8782499788314601
  0.3941646870754191  0.3958140766829524  0.1164169420585935
  0.3940712747702067  0.3969775295698440  0.3718075122532236
  0.3559967004291710  0.3563899798959998  0.6388311176272384
  0.3954897878945457  0.3959664876043753  0.8724495506853279
  0.1043897472754624  0.6062593184190275  0.1337920400508034
  0.1037050654951256  0.6064849877238460  0.3790525006757056
  0.1437823064657434  0.6440142907104033  0.6112050389518315
  0.1050035630829546  0.6054721243799546  0.8782556508720217
  0.8911626253357325  0.3933362343839920  0.1071894590995218
  0.8890841963781186  0.3932259159511422  0.3925950852817152
  0.8570057851431562  0.3580769057311874  0.6085751104961780
  0.8949321434383051  0.3958249867158752  0.8931963379617650
  0.6072646245034009  0.6091784753199460  0.1428945473452360
  0.6030100357509601  0.6069224944332391  0.3568710762356637
  0.6422621786100287  0.6433384047153663  0.6423236954116568
  0.6090549452967560  0.6096854803300255  0.8578996505099459
  0.3913229822698816  0.8933960064672621  0.1073719324271296
  0.3891451890271312  0.8933037110328100  0.3924398971136690
  0.3570689053732761  0.8580419054301958  0.6082185707683458
  0.3949787687458642  0.8958462826301924  0.8931003699387288
  0.8940904953353794  0.8957366436193215  0.1162066283832383
  0.8936245965462803  0.8964567405721184  0.3711140880612168
  0.8560117024320806  0.8564016100789034  0.6388490032896861
  0.8954994956569107  0.8959797478401080  0.8726610228189542
  0.8563157926873387  0.1438688645495751  0.1072739025720534
  0.8538952821012596  0.1433955047425731  0.3927324428691835
  0.8960481931618957  0.1044847073696884  0.6137568331927565
  0.8624426508907990  0.1412497770138341  0.8957021996135339
  0.3563550525206507  0.1441116321208964  0.1085423168647838
  0.3477180717971896  0.1493749655099451  0.3885302403138617
  0.3881948419072205  0.1119336386857236  0.6032171026931809
  0.3583431505189905  0.1450831443466673  0.8906272361773122
  0.1421308589179901  0.3580786026436553  0.1426164432355491
  0.1354729378396120  0.3616416846051946  0.3544055588944572
  0.1046879625635684  0.3956512244968406  0.6375190609756856
  0.1441059160559026  0.3594283845875957  0.8572438795150966
  0.8565752543175736  0.6439930651339556  0.1080735522846398
  0.8477578666538432  0.6493644699743177  0.3885685924386287
  0.8881925113578346  0.6118938213861456  0.6034929657618574
  0.8583920632954692  0.6451318719709871  0.8909873122108743
  0.6424859984446796  0.3581855864453427  0.1417690612102007
  0.6397258729874274  0.3578580148091127  0.3593993369152346
  0.6120997422291496  0.3883737948649060  0.6467843021748969
  0.6499329319644911  0.3539449173142659  0.8614305754885820
  0.3564051006108218  0.6438638707971619  0.1074901939634835
  0.3540012769483706  0.6433499350285746  0.3930370246215925
  0.3960199674871717  0.6044791533990689  0.6137667242021151
  0.3624617223341155  0.6412636601963080  0.8954448375024350
  0.1424636967781607  0.8581734172538575  0.1414673467263721
  0.1397160811704465  0.8578380596028965  0.3595138415868787
  0.1121562176915754  0.8883392861056516  0.6467149072639070
  0.1499228321696951  0.8539026009348788  0.8612773991095712
  0.6422591262513752  0.8579621336067829  0.1427882164526638
  0.6353717717806033  0.8616533897508466  0.3541751503204709
  0.6048203790466118  0.8955859851594882  0.6373317104164496
  0.6441765635010726  0.8594059288491707  0.8572616700254595
  0.9918251603240820  0.0166062352944533  0.9987044396505897
  0.0006921758091012  0.9809874561411428  0.2468477602120324
  0.9913212696477036  0.0106497622858590  0.4886371241386002
  0.9878947406433202  0.0113988505675390  0.7453982082203682
  0.4981814210173661  0.0211716364522583  0.0027519497377285
  0.5059764951802583  0.9865567622702611  0.2514441502452713
  0.5124132464542576  0.9887962737808439  0.5050258975890254
  0.5067450864990367  0.9923169519495390  0.7603440298895646
  0.2517631487273286  0.2633559818057423  0.0004609612279507
  0.2459770010353334  0.2310855152294246  0.2509660305112534
  0.2549052006495461  0.2450934545097176  0.5132714973975590
  0.2621485229021784  0.2360933686799075  0.7571148694826196
  0.9986123866490358  0.5209193009200147  0.0027537596626658
  0.0066927766575338  0.4867269521950189  0.2516017604523166
  0.0120872433686844  0.4887261064589269  0.5053500653986737
  0.0066089220193267  0.4922128154164883  0.7604862826454564
  0.7513344765413317  0.2710323316648865  0.9989401681917280
  0.7461122163961188  0.2383335570306075  0.2500245608026441
  0.7364404856288038  0.2671249548015930  0.4929283544214895
  0.7438690656710067  0.2559375310622164  0.7376158877152480
  0.4913281878474040  0.5163768108466167  0.9987234845315742
  0.5001797587572724  0.4812682807767153  0.2471784121062595
  0.4921117009326723  0.5108296366197379  0.4889783523409366
  0.4879259630853637  0.5114042516883742  0.7454550858275745
  0.2518962239017839  0.7711060619964478  0.9988165401309774
  0.2458704572588147  0.7384045931009453  0.2499313220894469
  0.2360255310579900  0.7671395019999866  0.4928559861179410
  0.2438925619068805  0.7559533600290059  0.7375538848682253
  0.7512589250247595  0.7633731614930017  0.0005253739615693
  0.7475359773524031  0.7315736291748784  0.2512712880514418
  0.7551787483293593  0.7453152879794319  0.5133453193259860
  0.7621942072415001  0.7360132297784564  0.7572847888546705
  0.9991873388552485  0.2508558400326146  0.1251741983860416
  0.9968557382021577  0.2511018142149633  0.3745341637959734
  0.9999262097405540  0.2501275977795292  0.6254579128131820
  0.0011424720876886  0.2517482669919425  0.8758139163622281
  0.4993898559573021  0.2506199464595413  0.1252413338937426
  0.4946562321100939  0.2505420856081834  0.3757570281134495
  0.4999821684462513  0.2500802724410127  0.6248779294685438
  0.5033867454036387  0.2512972219635365  0.8745083006144545
  0.2495812715023146  0.5007046079322347  0.1253853582867507
  0.2481493677589771  0.4984142866156983  0.3754183988753891
  0.2500179278147428  0.5001105735574322  0.6254159740103566
  0.2503987208563226  0.5033325535955948  0.8753321467034813
  0.9994957242457904  0.7505766301533223  0.1248992602480107
  0.9947297230964089  0.7504335786503640  0.3758175083387448
  0.9999686037133109  0.7500669464964838  0.6249662394128483
  0.0034112230005952  0.7513124905261985  0.8745806257906975
  0.7495549209213374  0.5007232009106439  0.1253338666710322
  0.7476021000294274  0.5021841759256457  0.3750895968833689
  0.7499599151990098  0.5002166919258535  0.6254946457602004
  0.7501520781711701  0.5004214447475482  0.8756468547694310
  0.4993993547146032  0.7506928874030954  0.1254539453147628
  0.4968463400445980  0.7510445742707572  0.3745756610389230
  0.4999275596446247  0.7500950787973516  0.6254558866100488
  0.5012246816299670  0.7517597858668429  0.8758268473717826
  0.2495234968180925  0.0006463851060022  0.1249864835687189
  0.2475942238316670  0.0022024339192363  0.3750122370482988
  0.2499320579224499  0.0001051505433980  0.6250689659406607
  0.2502044846789965  0.0002874265556571  0.8751218600550467
  0.7494878308256074  0.0006254299357130  0.1250049869190416
  0.7480436155298797  0.9984925236738287  0.3746271141355370
  0.7500258495063287  0.0001025914715974  0.6251734590009386
  0.7504112892823694  0.0033920849052374  0.8752590899814658
 
  0.00000000E+00  0.00000000E+00  0.00000000E+00
  0.00000000E+00  0.00000000E+00  0.00000000E+00
  0.00000000E+00  0.00000000E+00  0.00000000E+00
  0.00000000E+00  0.00000000E+00  0.00000000E+00
  0.00000000E+00  0.00000000E+00  0.00000000E+00
  0.00000000E+00  0.00000000E+00  0.00000000E+00
  0.00000000E+00  0.00000000E+00  0.00000000E+00
  0.00000000E+00  0.00000000E+00  0.00000000E+00
  0.00000000E+00  0.00000000E+00  0.00000000E+00
  0.00000000E+00  0.00000000E+00  0.00000000E+00
  0.00000000E+00  0.00000000E+00  0.00000000E+00
  0.00000000E+00  0.00000000E+00  0.00000000E+00
  0.00000000E+00  0.00000000E+00  0.00000000E+00
  0.00000000E+00  0.00000000E+00  0.00000000E+00
  0.00000000E+00  0.00000000E+00  0.00000000E+00
  0.00000000E+00  0.00000000E+00  0.00000000E+00
  0.00000000E+00  0.00000000E+00  0.00000000E+00
  0.00000000E+00  0.00000000E+00  0.00000000E+00
  0.00000000E+00  0.00000000E+00  0.00000000E+00
  0.00000000E+00  0.00000000E+00  0.00000000E+00
  0.00000000E+00  0.00000000E+00  0.00000000E+00
  0.00000000E+00  0.00000000E+00  0.00000000E+00
  0.00000000E+00  0.00000000E+00  0.00000000E+00
  0.00000000E+00  0.00000000E+00  0.00000000E+00
  0.00000000E+00  0.00000000E+00  0.00000000E+00
  0.00000000E+00  0.00000000E+00  0.00000000E+00
  0.00000000E+00  0.00000000E+00  0.00000000E+00
  0.00000000E+00  0.00000000E+00  0.00000000E+00
  0.00000000E+00  0.00000000E+00  0.00000000E+00
  0.00000000E+00  0.00000000E+00  0.00000000E+00
  0.00000000E+00  0.00000000E+00  0.00000000E+00
  0.00000000E+00  0.00000000E+00  0.00000000E+00
  0.00000000E+00  0.00000000E+00  0.00000000E+00
  0.00000000E+00  0.00000000E+00  0.00000000E+00
  0.00000000E+00  0.00000000E+00  0.00000000E+00
  0.00000000E+00  0.00000000E+00  0.00000000E+00
  0.00000000E+00  0.00000000E+00  0.00000000E+00
  0.00000000E+00  0.00000000E+00  0.00000000E+00
  0.00000000E+00  0.00000000E+00  0.00000000E+00
  0.00000000E+00  0.00000000E+00  0.00000000E+00
  0.00000000E+00  0.00000000E+00  0.00000000E+00
  0.00000000E+00  0.00000000E+00  0.00000000E+00
  0.00000000E+00  0.00000000E+00  0.00000000E+00
  0.00000000E+00  0.00000000E+00  0.00000000E+00
  0.00000000E+00  0.00000000E+00  0.00000000E+00
  0.00000000E+00  0.00000000E+00  0.00000000E+00
  0.00000000E+00  0.00000000E+00  0.00000000E+00
  0.00000000E+00  0.00000000E+00  0.00000000E+00
  0.00000000E+00  0.00000000E+00  0.00000000E+00
  0.00000000E+00  0.00000000E+00  0.00000000E+00
  0.00000000E+00  0.00000000E+00  0.00000000E+00
  0.00000000E+00  0.00000000E+00  0.00000000E+00
  0.00000000E+00  0.00000000E+00  0.00000000E+00
  0.00000000E+00  0.00000000E+00  0.00000000E+00
  0.00000000E+00  0.00000000E+00  0.00000000E+00
  0.00000000E+00  0.00000000E+00  0.00000000E+00
  0.00000000E+00  0.00000000E+00  0.00000000E+00
  0.00000000E+00  0.00000000E+00  0.00000000E+00
  0.00000000E+00  0.00000000E+00  0.00000000E+00
  0.00000000E+00  0.00000000E+00  0.00000000E+00
  0.00000000E+00  0.00000000E+00  0.00000000E+00
  0.00000000E+00  0.00000000E+00  0.00000000E+00
  0.00000000E+00  0.00000000E+00  0.00000000E+00
  0.00000000E+00  0.00000000E+00  0.00000000E+00
  0.00000000E+00  0.00000000E+00  0.00000000E+00
  0.00000000E+00  0.00000000E+00  0.00000000E+00
  0.00000000E+00  0.00000000E+00  0.00000000E+00
  0.00000000E+00  0.00000000E+00  0.00000000E+00
  0.00000000E+00  0.00000000E+00  0.00000000E+00
  0.00000000E+00  0.00000000E+00  0.00000000E+00
  0.00000000E+00  0.00000000E+00  0.00000000E+00
  0.00000000E+00  0.00000000E+00  0.00000000E+00
  0.00000000E+00  0.00000000E+00  0.00000000E+00
  0.00000000E+00  0.00000000E+00  0.00000000E+00
  0.00000000E+00  0.00000000E+00  0.00000000E+00
  0.00000000E+00  0.00000000E+00  0.00000000E+00
  0.00000000E+00  0.00000000E+00  0.00000000E+00
  0.00000000E+00  0.00000000E+00  0.00000000E+00
  0.00000000E+00  0.00000000E+00  0.00000000E+00
  0.00000000E+00  0.00000000E+00  0.00000000E+00
  0.00000000E+00  0.00000000E+00  0.00000000E+00
  0.00000000E+00  0.00000000E+00  0.00000000E+00
  0.00000000E+00  0.00000000E+00  0.00000000E+00
  0.00000000E+00  0.00000000E+00  0.00000000E+00
  0.00000000E+00  0.00000000E+00  0.00000000E+00
  0.00000000E+00  0.00000000E+00  0.00000000E+00
  0.00000000E+00  0.00000000E+00  0.00000000E+00
  0.00000000E+00  0.00000000E+00  0.00000000E+00
  0.00000000E+00  0.00000000E+00  0.00000000E+00
  0.00000000E+00  0.00000000E+00  0.00000000E+00
  0.00000000E+00  0.00000000E+00  0.00000000E+00
  0.00000000E+00  0.00000000E+00  0.00000000E+00
  0.00000000E+00  0.00000000E+00  0.00000000E+00
  0.00000000E+00  0.00000000E+00  0.00000000E+00
  0.00000000E+00  0.00000000E+00  0.00000000E+00
  0.00000000E+00  0.00000000E+00  0.00000000E+00
  0.00000000E+00  0.00000000E+00  0.00000000E+00
  0.00000000E+00  0.00000000E+00  0.00000000E+00
  0.00000000E+00  0.00000000E+00  0.00000000E+00
  0.00000000E+00  0.00000000E+00  0.00000000E+00
  0.00000000E+00  0.00000000E+00  0.00000000E+00
  0.00000000E+00  0.00000000E+00  0.00000000E+00
  0.00000000E+00  0.00000000E+00  0.00000000E+00
  0.00000000E+00  0.00000000E+00  0.00000000E+00
  0.00000000E+00  0.00000000E+00  0.00000000E+00
  0.00000000E+00  0.00000000E+00  0.00000000E+00
  0.00000000E+00  0.00000000E+00  0.00000000E+00
  0.00000000E+00  0.00000000E+00  0.00000000E+00
  0.00000000E+00  0.00000000E+00  0.00000000E+00
  0.00000000E+00  0.00000000E+00  0.00000000E+00
  0.00000000E+00  0.00000000E+00  0.00000000E+00
  0.00000000E+00  0.00000000E+00  0.00000000E+00
  0.00000000E+00  0.00000000E+00  0.00000000E+00
  0.00000000E+00  0.00000000E+00  0.00000000E+00
  0.00000000E+00  0.00000000E+00  0.00000000E+00
  0.00000000E+00  0.00000000E+00  0.00000000E+00
  0.00000000E+00  0.00000000E+00  0.00000000E+00
  0.00000000E+00  0.00000000E+00  0.00000000E+00
  0.00000000E+00  0.00000000E+00  0.00000000E+00
  0.00000000E+00  0.00000000E+00  0.00000000E+00
  0.00000000E+00  0.00000000E+00  0.00000000E+00
  0.00000000E+00  0.00000000E+00  0.00000000E+00
  0.00000000E+00  0.00000000E+00  0.00000000E+00
  0.00000000E+00  0.00000000E+00  0.00000000E+00
  0.00000000E+00  0.00000000E+00  0.00000000E+00
  0.00000000E+00  0.00000000E+00  0.00000000E+00
  0.00000000E+00  0.00000000E+00  0.00000000E+00
  0.00000000E+00  0.00000000E+00  0.00000000E+00
  0.00000000E+00  0.00000000E+00  0.00000000E+00
  0.00000000E+00  0.00000000E+00  0.00000000E+00
  0.00000000E+00  0.00000000E+00  0.00000000E+00
  0.00000000E+00  0.00000000E+00  0.00000000E+00
  0.00000000E+00  0.00000000E+00  0.00000000E+00
  0.00000000E+00  0.00000000E+00  0.00000000E+00
  0.00000000E+00  0.00000000E+00  0.00000000E+00
  0.00000000E+00  0.00000000E+00  0.00000000E+00
  0.00000000E+00  0.00000000E+00  0.00000000E+00
  0.00000000E+00  0.00000000E+00  0.00000000E+00
  0.00000000E+00  0.00000000E+00  0.00000000E+00
  0.00000000E+00  0.00000000E+00  0.00000000E+00
  0.00000000E+00  0.00000000E+00  0.00000000E+00
  0.00000000E+00  0.00000000E+00  0.00000000E+00
  0.00000000E+00  0.00000000E+00  0.00000000E+00
  0.00000000E+00  0.00000000E+00  0.00000000E+00
  0.00000000E+00  0.00000000E+00  0.00000000E+00
  0.00000000E+00  0.00000000E+00  0.00000000E+00
  0.00000000E+00  0.00000000E+00  0.00000000E+00
  0.00000000E+00  0.00000000E+00  0.00000000E+00
  0.00000000E+00  0.00000000E+00  0.00000000E+00
  0.00000000E+00  0.00000000E+00  0.00000000E+00
  0.00000000E+00  0.00000000E+00  0.00000000E+00
  0.00000000E+00  0.00000000E+00  0.00000000E+00
  0.00000000E+00  0.00000000E+00  0.00000000E+00
  0.00000000E+00  0.00000000E+00  0.00000000E+00
  0.00000000E+00  0.00000000E+00  0.00000000E+00
  0.00000000E+00  0.00000000E+00  0.00000000E+00
  0.00000000E+00  0.00000000E+00  0.00000000E+00
  0.00000000E+00  0.00000000E+00  0.00000000E+00
  0.00000000E+00  0.00000000E+00  0.00000000E+00
  0.00000000E+00  0.00000000E+00  0.00000000E+00
