Mg Rb F                                 
   1.00000000000000     
     8.2439619999999998   -8.2439619999999998    0.0000000000000000
     8.2439619999999998    8.2439619999999998    0.0000000000000000
     0.0000000000000000    0.0000000000000000   16.4879250000000006
   F    Mg   Rb
    96    32    32
Direct
  0.0010454887003328  0.2504674782675337 -0.0000693531682649
  0.0007491543590089  0.2507114285270077  0.2499035175350739
  0.0009066736122082  0.2507053168355673  0.4999211204523468
  0.0010109653450588  0.2506352755817398  0.7499080531317875
  0.5009546900497277  0.2505681890692149  0.9999225193125747
  0.5008761509121917  0.2505667118039679  0.2499425436544941
  0.5009115819433829  0.2505707686430399  0.4998653345967761
  0.5011247164179266  0.2506853484768768  0.7499939801619110
  0.2507751804847244  0.5005595984491737 -0.0000431805397047
  0.2506572489294701  0.5005838517276598  0.2498992273718531
  0.2507312483412688  0.5007861676479854  0.4999133205659245
  0.2508262480875336  0.5006706328005830  0.7498778232771051
  0.0007809512894011  0.7504932558798217 -0.0000962083491454
  0.0007475622225580  0.7506270172718612  0.2499533128170547
  0.0007708544401084  0.7507989842399906  0.4999770522126455
  0.0008469524727704  0.7506993650853849  0.7499272644283351
  0.7508118348051586  0.5005256436565518 -0.0001100670330171
  0.7506665783348994  0.5005156720370840  0.2499744799075451
  0.7507596819319963  0.5006565945028104  0.4999038348562572
  0.7508727152048470  0.5004969096017193  0.7499417389175093
  0.5009300958605135  0.7504391395625344 -0.0000417921724298
  0.5007599060264080  0.7506102535896034  0.2499036128498802
  0.5007376458685026  0.7506983067358196  0.4999178061361933
  0.5008963444562767  0.7507156410437347  0.7499024676564350
  0.2510491187722181  0.0005863068871802 -0.0000645133377528
  0.2508621607968736  0.0005425547153576  0.2499053601678572
  0.2508437549990325  0.0008341163883122  0.4999896304994087
  0.2510846795565322  0.0006893493479262  0.7499496168873675
  0.7510908873472509  0.0004077329779935  0.9999367339066937
  0.7508201748290659  0.0005773297417602  0.2499453727101838
  0.7508690673947966  0.0006864581011683  0.4998925244339423
  0.7510917622857480  0.0005831577975881  0.7499281741629682
  0.1259240103722122  0.1254781556214817  0.1249633766548804
  0.1258552782116777  0.1255831352779472  0.3749438810423135
  0.1260009898941611  0.1257235363863818  0.6249614195523249
  0.1260726437396782  0.1255443967344889  0.8748910398428880
  0.6259137965483478  0.1254325360249243  0.1249550256656499
  0.6258123890003369  0.1256298089008742  0.3749089125911498
  0.6259743603506793  0.1256278056350830  0.6248399364863820
  0.6261382929500960  0.1254785031790361  0.8749492887030403
  0.3757283380940656  0.3754913186833639  0.1249856085842796
  0.3756129712487919  0.3756799968840329  0.3749178429445641
  0.3758846516322918  0.3756578460911690  0.6249072279545774
  0.3758784470661388  0.3756243796387882  0.8749012308312459
  0.1256544352201821  0.6254088945853551  0.1249022781030587
  0.1256241733881067  0.6256404590512593  0.3749123218812954
  0.1257513121378671  0.6256386244259493  0.6249376756255854
  0.1257978721142523  0.6254513632563240  0.8749066104786266
  0.8757259692262914  0.3754410779372057  0.1249255942560416
  0.8757223369372651  0.3755978166322571  0.3749250001288004
  0.8757691527868374  0.3755654065904434  0.6249050933251662
  0.8758237790749216  0.3754257796360301  0.8749321053616262
  0.6256854219611452  0.6253990386752152  0.1249357828930716
  0.6256062847744518  0.6255783682541824  0.3749017310871052
  0.6257684176210224  0.6256274493901876  0.6249418581529506
  0.6257577724189811  0.6254765106839429  0.8749858164398177
  0.3758145082128345  0.8755850011676913  0.1248848740334053
  0.3757133649850732  0.8757433120336383  0.3749102992768021
  0.3758701891771860  0.8757026735021274  0.6249051165777840
  0.3760142534798139  0.8755717284776919  0.8749248935097712
  0.8758634745448536  0.8754589276699428  0.1248873250031516
  0.8757497221527493  0.8756989823155804  0.3749213173267877
  0.8758060899664581  0.8756907141585434  0.6248930125458829
  0.8759797961305059  0.8754388743470692  0.8749706212960286
  0.8758482328756630  0.1254754334394852  0.1249039614466263
  0.8758380265309037  0.1255992779109537  0.3748922278167853
  0.8759771267444524  0.1255887971609390  0.6249184077566655
  0.8761347025834949  0.1254940562677806  0.8749565143042557
  0.3759903410252181  0.1255142418411088  0.1249413375570145
  0.3758006990821401  0.1256530623629442  0.3748805240037416
  0.3760126318069934  0.1257452877974024  0.6249903461391402
  0.3761504550954807  0.1255549050424137  0.8748986209103430
  0.1257005532843649  0.3754997498366170  0.1249424590156915
  0.1256462732828790  0.3756586901448716  0.3749221503189548
  0.1258093559861244  0.3756637783016900  0.6249398169441281
  0.1259258700372455  0.3754960131039281  0.8749427942353979
  0.8756296057520910  0.6254732353151327  0.1249197729507592
  0.8755408824763432  0.6257915612611374  0.3749944035220037
  0.8757076057519365  0.6256413039200044  0.6249360483619245
  0.8758520330434226  0.6254562402399083  0.8749365011076164
  0.6258101917061040  0.3755070448918232  0.1249737228831422
  0.6255910729002234  0.3757116011505359  0.3749917435522567
  0.6257869967449867  0.3756307385963025  0.6249250086896396
  0.6259138474273325  0.3754363142840639  0.8749658554259445
  0.3757163330192378  0.6255099526998972  0.1249639071727119
  0.3755787833821616  0.6257355961582024  0.3748784964353744
  0.3757086932305655  0.6257848063264533  0.6249469675985038
  0.3758205872887060  0.6256010156058119  0.8748940345997477
  0.1258180449597469  0.8754180753238829  0.1249078009364748
  0.1256057951761949  0.8757505451216808  0.3749539785479185
  0.1258192150894490  0.8757533264465265  0.6249354466356892
  0.1259953425075321  0.8755437313482968  0.8749931108827009
  0.6258557516116129  0.8754550645198765  0.1249842655093894
  0.6257762583904664  0.8755772024663500  0.3748887025878990
  0.6258845578956019  0.8756721864615651  0.6249544138844882
  0.6259682255500449  0.8755799256334980  0.8748535149624880
  0.0008343724955051  0.2504706376708878  0.1249269277539126
  0.0008162336580938  0.2506379486686280  0.3748904188177737
  0.0009675471813643  0.2506536258967254  0.6249132565354077
  0.0010562170867231  0.2505295080928212  0.8749385780949314
  0.5009272799249140  0.2504926926327654  0.1249623762968336
  0.5007925687844613  0.2506686867296897  0.3748738401197986
  0.5010085842597947  0.2506902854829078  0.6249156571361043
  0.5009975348323548  0.2504802345220370  0.8749422264123767
  0.2506377323088844  0.5005034557574972  0.1249322238562350
  0.2506613189183483  0.5006673426336304  0.3748956661620713
  0.2507785208128228  0.5007188912194811  0.6248678040100730
  0.2508404493085548  0.5006221601986696  0.8749636858211335
  0.0006993444140767  0.7504167838161243  0.1249355526384697
  0.0006497282117033  0.7507447453065684  0.3749040497113657
  0.0007894434499571  0.7507281464008572  0.6249300180175261
  0.0008865969018730  0.7505222210942838  0.8748816947156438
  0.7507040122862989  0.5004883347373118  0.1249207469628225
  0.7506151772861326  0.5005984204469623  0.3749572883267306
  0.7507791015942478  0.5006124069433162  0.6248917756939110
  0.7508420994915116  0.5004882585782026  0.8749226886587215
  0.5007431441471561  0.7504842350212112  0.1249168972384961
  0.5006894947406222  0.7506253810992112  0.3748783682961718
  0.5008398716039916  0.7507024546684317  0.6248762296993143
  0.5009273888612792  0.7505916633940035  0.8749308301181555
  0.2509285217117730  0.0005074807424750  0.1249106534948206
  0.2508340215201918  0.0006609709463298  0.3748966203960558
  0.2510053392283613  0.0007189281088145  0.6249458979644660
  0.2510732097147964  0.0005958563542394  0.8749161154301749
  0.7509237981333892  0.0004580175107319  0.1248941946284482
  0.7508082052220409  0.0006555987226124  0.3748754543187499
  0.7509150461172582  0.0006429835629084  0.6248738763168669
  0.7510808325402294  0.0005481627809299  0.8749586243806036
  0.0010187826481636  0.0003752383561379 -0.0000781422666151
  0.0009199397253145  0.0006585846013800  0.2499076789757606
  0.0008983282613628  0.0007148795953165  0.4998755200704973
  0.0010558776187275  0.0006111293920265  0.7499010882059580
  0.5009980248334643  0.0005233546189747  0.0000035052753928
  0.5009076268902418  0.0005000621931515  0.2499046544751796
  0.5008943974399029  0.0007735111875772  0.4999384692209917
  0.5010551115049163  0.0006073326952602  0.7499369155167167
  0.2509115756871602  0.2506143350269491 -0.0000758020914901
  0.2508519123140587  0.2506794729630193  0.2499212236478362
  0.2507503719192470  0.2507497552750026  0.4999368811031683
  0.2510028059250907  0.2507313074043248  0.7499459222860232
  0.0008097877082290  0.5004916132267107 -0.0000574865609375
  0.0006093237125588  0.5005875212869160  0.2499927420355474
  0.0007185414544069  0.5007371643113182  0.4999373881516476
  0.0008189868179588  0.5006250984737299  0.7499131451937706
  0.7510095292912564  0.2504822371242698  0.9999867386910118
  0.7508201429196825  0.2505754388775279  0.2498883967285841
  0.7508465296272765  0.2506398693265933  0.4999458236829236
  0.7510791864439024  0.2504895539778778  0.7498885822706579
  0.5008214082942037  0.5005206141799897  0.9999066497249230
  0.5005507816268886  0.5006229009480441  0.2499002339322851
  0.5005903339302397  0.5006757062650208  0.4998905338794075
  0.5008337944637330  0.5005777249503794  0.7498641753675148
  0.2508307459958899  0.7505047367502132 -0.0001121503525675
  0.2506355550820080  0.7505591286372826  0.2499463742721379
  0.2507472890951958  0.7507491311884992  0.4999007777568349
  0.2508404082866028  0.7506136276805001  0.7499067323016191
  0.7508335107913329  0.7503884888853422  0.9999259757981456
  0.7506633981957508  0.7505268843277431  0.2499890118357560
  0.7507036442409804  0.7507506642011276  0.4999127030979583
  0.7508309467697015  0.7506246725066293  0.7499482168879456
 
  0.00000000E+00  0.00000000E+00  0.00000000E+00
  0.00000000E+00  0.00000000E+00  0.00000000E+00
  0.00000000E+00  0.00000000E+00  0.00000000E+00
  0.00000000E+00  0.00000000E+00  0.00000000E+00
  0.00000000E+00  0.00000000E+00  0.00000000E+00
  0.00000000E+00  0.00000000E+00  0.00000000E+00
  0.00000000E+00  0.00000000E+00  0.00000000E+00
  0.00000000E+00  0.00000000E+00  0.00000000E+00
  0.00000000E+00  0.00000000E+00  0.00000000E+00
  0.00000000E+00  0.00000000E+00  0.00000000E+00
  0.00000000E+00  0.00000000E+00  0.00000000E+00
  0.00000000E+00  0.00000000E+00  0.00000000E+00
  0.00000000E+00  0.00000000E+00  0.00000000E+00
  0.00000000E+00  0.00000000E+00  0.00000000E+00
  0.00000000E+00  0.00000000E+00  0.00000000E+00
  0.00000000E+00  0.00000000E+00  0.00000000E+00
  0.00000000E+00  0.00000000E+00  0.00000000E+00
  0.00000000E+00  0.00000000E+00  0.00000000E+00
  0.00000000E+00  0.00000000E+00  0.00000000E+00
  0.00000000E+00  0.00000000E+00  0.00000000E+00
  0.00000000E+00  0.00000000E+00  0.00000000E+00
  0.00000000E+00  0.00000000E+00  0.00000000E+00
  0.00000000E+00  0.00000000E+00  0.00000000E+00
  0.00000000E+00  0.00000000E+00  0.00000000E+00
  0.00000000E+00  0.00000000E+00  0.00000000E+00
  0.00000000E+00  0.00000000E+00  0.00000000E+00
  0.00000000E+00  0.00000000E+00  0.00000000E+00
  0.00000000E+00  0.00000000E+00  0.00000000E+00
  0.00000000E+00  0.00000000E+00  0.00000000E+00
  0.00000000E+00  0.00000000E+00  0.00000000E+00
  0.00000000E+00  0.00000000E+00  0.00000000E+00
  0.00000000E+00  0.00000000E+00  0.00000000E+00
  0.00000000E+00  0.00000000E+00  0.00000000E+00
  0.00000000E+00  0.00000000E+00  0.00000000E+00
  0.00000000E+00  0.00000000E+00  0.00000000E+00
  0.00000000E+00  0.00000000E+00  0.00000000E+00
  0.00000000E+00  0.00000000E+00  0.00000000E+00
  0.00000000E+00  0.00000000E+00  0.00000000E+00
  0.00000000E+00  0.00000000E+00  0.00000000E+00
  0.00000000E+00  0.00000000E+00  0.00000000E+00
  0.00000000E+00  0.00000000E+00  0.00000000E+00
  0.00000000E+00  0.00000000E+00  0.00000000E+00
  0.00000000E+00  0.00000000E+00  0.00000000E+00
  0.00000000E+00  0.00000000E+00  0.00000000E+00
  0.00000000E+00  0.00000000E+00  0.00000000E+00
  0.00000000E+00  0.00000000E+00  0.00000000E+00
  0.00000000E+00  0.00000000E+00  0.00000000E+00
  0.00000000E+00  0.00000000E+00  0.00000000E+00
  0.00000000E+00  0.00000000E+00  0.00000000E+00
  0.00000000E+00  0.00000000E+00  0.00000000E+00
  0.00000000E+00  0.00000000E+00  0.00000000E+00
  0.00000000E+00  0.00000000E+00  0.00000000E+00
  0.00000000E+00  0.00000000E+00  0.00000000E+00
  0.00000000E+00  0.00000000E+00  0.00000000E+00
  0.00000000E+00  0.00000000E+00  0.00000000E+00
  0.00000000E+00  0.00000000E+00  0.00000000E+00
  0.00000000E+00  0.00000000E+00  0.00000000E+00
  0.00000000E+00  0.00000000E+00  0.00000000E+00
  0.00000000E+00  0.00000000E+00  0.00000000E+00
  0.00000000E+00  0.00000000E+00  0.00000000E+00
  0.00000000E+00  0.00000000E+00  0.00000000E+00
  0.00000000E+00  0.00000000E+00  0.00000000E+00
  0.00000000E+00  0.00000000E+00  0.00000000E+00
  0.00000000E+00  0.00000000E+00  0.00000000E+00
  0.00000000E+00  0.00000000E+00  0.00000000E+00
  0.00000000E+00  0.00000000E+00  0.00000000E+00
  0.00000000E+00  0.00000000E+00  0.00000000E+00
  0.00000000E+00  0.00000000E+00  0.00000000E+00
  0.00000000E+00  0.00000000E+00  0.00000000E+00
  0.00000000E+00  0.00000000E+00  0.00000000E+00
  0.00000000E+00  0.00000000E+00  0.00000000E+00
  0.00000000E+00  0.00000000E+00  0.00000000E+00
  0.00000000E+00  0.00000000E+00  0.00000000E+00
  0.00000000E+00  0.00000000E+00  0.00000000E+00
  0.00000000E+00  0.00000000E+00  0.00000000E+00
  0.00000000E+00  0.00000000E+00  0.00000000E+00
  0.00000000E+00  0.00000000E+00  0.00000000E+00
  0.00000000E+00  0.00000000E+00  0.00000000E+00
  0.00000000E+00  0.00000000E+00  0.00000000E+00
  0.00000000E+00  0.00000000E+00  0.00000000E+00
  0.00000000E+00  0.00000000E+00  0.00000000E+00
  0.00000000E+00  0.00000000E+00  0.00000000E+00
  0.00000000E+00  0.00000000E+00  0.00000000E+00
  0.00000000E+00  0.00000000E+00  0.00000000E+00
  0.00000000E+00  0.00000000E+00  0.00000000E+00
  0.00000000E+00  0.00000000E+00  0.00000000E+00
  0.00000000E+00  0.00000000E+00  0.00000000E+00
  0.00000000E+00  0.00000000E+00  0.00000000E+00
  0.00000000E+00  0.00000000E+00  0.00000000E+00
  0.00000000E+00  0.00000000E+00  0.00000000E+00
  0.00000000E+00  0.00000000E+00  0.00000000E+00
  0.00000000E+00  0.00000000E+00  0.00000000E+00
  0.00000000E+00  0.00000000E+00  0.00000000E+00
  0.00000000E+00  0.00000000E+00  0.00000000E+00
  0.00000000E+00  0.00000000E+00  0.00000000E+00
  0.00000000E+00  0.00000000E+00  0.00000000E+00
  0.00000000E+00  0.00000000E+00  0.00000000E+00
  0.00000000E+00  0.00000000E+00  0.00000000E+00
  0.00000000E+00  0.00000000E+00  0.00000000E+00
  0.00000000E+00  0.00000000E+00  0.00000000E+00
  0.00000000E+00  0.00000000E+00  0.00000000E+00
  0.00000000E+00  0.00000000E+00  0.00000000E+00
  0.00000000E+00  0.00000000E+00  0.00000000E+00
  0.00000000E+00  0.00000000E+00  0.00000000E+00
  0.00000000E+00  0.00000000E+00  0.00000000E+00
  0.00000000E+00  0.00000000E+00  0.00000000E+00
  0.00000000E+00  0.00000000E+00  0.00000000E+00
  0.00000000E+00  0.00000000E+00  0.00000000E+00
  0.00000000E+00  0.00000000E+00  0.00000000E+00
  0.00000000E+00  0.00000000E+00  0.00000000E+00
  0.00000000E+00  0.00000000E+00  0.00000000E+00
  0.00000000E+00  0.00000000E+00  0.00000000E+00
  0.00000000E+00  0.00000000E+00  0.00000000E+00
  0.00000000E+00  0.00000000E+00  0.00000000E+00
  0.00000000E+00  0.00000000E+00  0.00000000E+00
  0.00000000E+00  0.00000000E+00  0.00000000E+00
  0.00000000E+00  0.00000000E+00  0.00000000E+00
  0.00000000E+00  0.00000000E+00  0.00000000E+00
  0.00000000E+00  0.00000000E+00  0.00000000E+00
  0.00000000E+00  0.00000000E+00  0.00000000E+00
  0.00000000E+00  0.00000000E+00  0.00000000E+00
  0.00000000E+00  0.00000000E+00  0.00000000E+00
  0.00000000E+00  0.00000000E+00  0.00000000E+00
  0.00000000E+00  0.00000000E+00  0.00000000E+00
  0.00000000E+00  0.00000000E+00  0.00000000E+00
  0.00000000E+00  0.00000000E+00  0.00000000E+00
  0.00000000E+00  0.00000000E+00  0.00000000E+00
  0.00000000E+00  0.00000000E+00  0.00000000E+00
  0.00000000E+00  0.00000000E+00  0.00000000E+00
  0.00000000E+00  0.00000000E+00  0.00000000E+00
  0.00000000E+00  0.00000000E+00  0.00000000E+00
  0.00000000E+00  0.00000000E+00  0.00000000E+00
  0.00000000E+00  0.00000000E+00  0.00000000E+00
  0.00000000E+00  0.00000000E+00  0.00000000E+00
  0.00000000E+00  0.00000000E+00  0.00000000E+00
  0.00000000E+00  0.00000000E+00  0.00000000E+00
  0.00000000E+00  0.00000000E+00  0.00000000E+00
  0.00000000E+00  0.00000000E+00  0.00000000E+00
  0.00000000E+00  0.00000000E+00  0.00000000E+00
  0.00000000E+00  0.00000000E+00  0.00000000E+00
  0.00000000E+00  0.00000000E+00  0.00000000E+00
  0.00000000E+00  0.00000000E+00  0.00000000E+00
  0.00000000E+00  0.00000000E+00  0.00000000E+00
  0.00000000E+00  0.00000000E+00  0.00000000E+00
  0.00000000E+00  0.00000000E+00  0.00000000E+00
  0.00000000E+00  0.00000000E+00  0.00000000E+00
  0.00000000E+00  0.00000000E+00  0.00000000E+00
  0.00000000E+00  0.00000000E+00  0.00000000E+00
  0.00000000E+00  0.00000000E+00  0.00000000E+00
  0.00000000E+00  0.00000000E+00  0.00000000E+00
  0.00000000E+00  0.00000000E+00  0.00000000E+00
  0.00000000E+00  0.00000000E+00  0.00000000E+00
  0.00000000E+00  0.00000000E+00  0.00000000E+00
  0.00000000E+00  0.00000000E+00  0.00000000E+00
  0.00000000E+00  0.00000000E+00  0.00000000E+00
  0.00000000E+00  0.00000000E+00  0.00000000E+00
  0.00000000E+00  0.00000000E+00  0.00000000E+00
  0.00000000E+00  0.00000000E+00  0.00000000E+00
  0.00000000E+00  0.00000000E+00  0.00000000E+00
  0.00000000E+00  0.00000000E+00  0.00000000E+00
