Cl In Cd                                
   1.00000000000000     
    10.4980410000000006  -10.4980410000000006    0.0000000000000000
    10.4980410000000006   10.4980410000000006    0.0000000000000000
     0.0000000000000000    0.0000000000000000   20.9960829999999987
   Cd   Cl   In
    32    96    32
Direct
  0.0017595552880085  0.0006361673124873 -0.0003504898025485
  0.0038191573637032  0.0013107457758986  0.2498437131995878
  0.9945465543089924  0.0032400249027639  0.4980343778798530
  0.9953131126751821  0.0030045286358904  0.7526831626787889
  0.4974129778102427  0.0039280290445781  0.9984007008678775
  0.4979301956714391  0.0062213729484716  0.2519491907858543
  0.5004877455725751  0.9959718123139951  0.4993908203556177
  0.4993091112099284  0.9927373924984213  0.7507926368211374
  0.2543281285523206  0.2473488224219644  0.9974802669735664
  0.2543420002684327  0.2478818299299977  0.2519776054866488
  0.2461197393723061  0.2503514222547503  0.4992483260734474
  0.2419395545704163  0.2492459841315331  0.7503481683534325
  0.9983459333743715  0.5068461039159582  0.9976135213722027
  0.9984091672102401  0.5041840642786483  0.2515088543514188
 -0.0027791574650648  0.4992434159335222  0.4997146622584707
 -0.0021216300480044  0.4989977509323664  0.7493538253808810
  0.7507020748725850  0.2528792248904899  0.0000268238360035
  0.7511869653879014  0.2514739919224704  0.2504438959861454
  0.7506934135498148  0.2470705794409503  0.5002688560447267
  0.7497272150342782  0.2458418210854806  0.7503525825494093
  0.5035717661505301  0.5007119787541547 -0.0000522105026209
  0.5010054280327662  0.5006110700699504  0.2507368690126056
  0.4970201796244983  0.5008041892686105  0.4999441717993822
  0.4961837311612517  0.5006785038863255  0.7509072199432761
  0.2505876530915838  0.7529048403544614 -0.0003442336133966
  0.2503154355114651  0.7531604864851543  0.2500147113028999
  0.2515166634595456  0.7421734013404745  0.4993481822430557
  0.2521077810342078  0.7452188720067676  0.7508306963054527
  0.7541115417690722  0.7487599586061635  0.9980854550711539
  0.7535065882700340  0.7485563859099487  0.2519155419373387
  0.7475059855398680  0.7476897784021909  0.4997935083531559
  0.7473963583280874  0.7491489014441230  0.7501875548072172
  0.1508478860043136  0.1050415822053919  0.9801959714096893
  0.1455559058454046  0.1116524849349555  0.2759286728519015
  0.1002904348236270  0.1453662351593749  0.4791538478499180
  0.1052679190722694  0.1392824993043731  0.7769758153308711
  0.6498410686410919  0.1061000982333319  0.0181568221314428
  0.6501697346426500  0.1054445631668870  0.2329232580502694
  0.6006872528178505  0.1453200888145990  0.5188029276453234
  0.6027997680076193  0.1403087863200186  0.7308385778947453
  0.3570913984255156  0.3991295773540125  0.0185390985614985
  0.3548767745264088  0.4003839785317297  0.2327769404318144
  0.3932503830821661  0.3525942794698190  0.5207278987755926
  0.3865979833102822  0.3564221938591746  0.7271918970387522
  0.1497565796886619  0.6057318093892856  0.0175272012359901
  0.1490835320790576  0.6062300940254557  0.2319127292300284
  0.0975956543277924  0.6467590791507632  0.5170415263981293
  0.1002501557093971  0.6448858785516169  0.7313891113265257
  0.8639469315880539  0.3942720356205552  0.9742230069045082
  0.8570447993909678  0.3989493712721147  0.2703470841532939
  0.8962964695123332  0.3492262519979406  0.4810416107313527
  0.8858588596555526  0.3577750675066595  0.7755591516342668
  0.6434685031587801  0.6129358622273402  0.9737850511369103
  0.6476687614424713  0.6074716884413386  0.2710045729137635
  0.5996075574464527  0.6452215858721272  0.4793647874327369
  0.6032069107335143  0.6405475277945084  0.7732434806688409
  0.3537653687906340  0.9016730315011453  0.9808391931207695
  0.3620080186193355  0.8956513190000573  0.2754498806153054
  0.3865479184628883  0.8568527877083132  0.4749378378962167
  0.3888621869908839  0.8552893601737289  0.7751216564507436
  0.8539296690910367  0.9007186142160611  0.0175995060318667
  0.8564680248785653  0.8988562052419106  0.2314226926556164
  0.8923827090417022  0.8504287932030701  0.5182760164071745
  0.8922277232375652  0.8522165836516862  0.7313351107934756
  0.8990095067381926  0.1481425563122900  0.9812540119583236
  0.8970034307514264  0.1476495866962491  0.2693604969829806
  0.8415356202600922  0.0927975012512934  0.4864820720987538
  0.8440386452970073  0.0945990510511690  0.7658746729689959
  0.4094332448649821  0.1591026111846631  0.9844683206867353
  0.4079904624994713  0.1590811492648030  0.2671595653387737
  0.3553600495970718  0.1067434607977951  0.4800758547755605
  0.3576212933769718  0.1079132482887858  0.7675717693907169
  0.1095881672562881  0.3570495806930109  0.0144774938246345
  0.1070244704999784  0.3577790318644196  0.2333878447400665
  0.1387470811142059  0.3908032347107891  0.5265044300722523
  0.1330394618575984  0.3859566875920060  0.7220449686027702
  0.9069506829616731  0.6588500064766606  0.9834415000210625
  0.9068978461177717  0.6573904237206654  0.2640393924724801
  0.8523057982348928  0.6027682817434004  0.4766887621468158
  0.8533748960532556  0.6051344434285907  0.7725037880667127
  0.6160261343175206  0.3659187966645787  0.0260845604868260
  0.6127981535340751  0.3625387213330587  0.2254403667559055
  0.6450299959142960  0.3949344450243880  0.5139581990209744
  0.6396182888524280  0.3906410692460476  0.7370078536242676
  0.3968483607867701  0.6482422033025921  0.9818524775447696
  0.3974491357023963  0.6481876141867525  0.2691986943222400
  0.3428811865124662  0.5919622517809788  0.4859623713615524
  0.3427338580676367  0.5939585556550990  0.7639076704812567
  0.1106810004573932  0.8613599494747259  0.0263658630500562
  0.1147188591844248  0.8649730779820615  0.2240849621703181
  0.1394458863328336  0.8941563285641793  0.5126186892313218
  0.1408772746748198  0.8927482413243309  0.7358981769574214
  0.6048857746959322  0.8584721251621924  0.0161757172834066
  0.6072247461132825  0.8574690406697909  0.2348409303596150
  0.6371358707539809  0.8871743658151573  0.5269143032777416
  0.6356655504093615  0.8847524638092558  0.7217973517931338
  0.0141472366702163  0.0418985644114588  0.1251295417075260
  0.9950521310547411  0.9598598165213347  0.3737117288237594
 -0.0066389492988847  0.0298801412382023  0.6256533995483671
  0.0013770384910520  0.9572348940096795  0.8764142972163621
  0.4691390647481634  0.0115222835288018  0.1259620659984546
  0.5437487625105819  0.0010265315529908  0.3763877390159924
  0.4569497442259357  0.9926670925782516  0.6242208644491795
  0.5419395749126740  0.0026621038793963  0.8743505783421102
  0.2604545021323231  0.2199827207902759  0.1254999104387644
  0.2485878397843336  0.2950745305205261  0.3763381644700113
  0.2411762829403462  0.2068704680452074  0.6245509730099649
  0.2548227843355869  0.2927437144111288  0.8735530556021347
  0.9700067346106127  0.5090744230151349  0.1237797302803994
  0.0420415089772265  0.4995123278783037  0.3756707171646657
  0.9553643112001715  0.4863360019941094  0.6248308293539017
  0.0436386601521554  0.5004169124213237  0.8734091395964273
  0.7912746274612575  0.2649245768875439  0.1247502405974665
  0.7100743128220238  0.2520869210063758  0.3749704604464043
  0.7867871509311745  0.2441726056062293  0.6259449320388057
  0.7080256334314993  0.2475610813454938  0.8762504056992190
  0.5147837475641291  0.5405931291557803  0.1252510866663884
  0.5004780919998028  0.4592270799621523  0.3749362974547562
  0.4954619555251051  0.5361725700599643  0.6255073997856081
  0.4933155137845460  0.4588624308131666  0.8756585770285958
  0.2909717337892737  0.7648077809419170  0.1254259809899303
  0.2084271433151854  0.7500989096345283  0.3743647509997333
  0.2780656230092480  0.7546631167555939  0.6243620153885200
  0.2083551696757630  0.7511531762234069  0.8757355997394728
  0.7575892229292406  0.7201183830848632  0.1242297849763104
  0.7501413882455169  0.7922487811384967  0.3757306973660680
  0.7345695080882387  0.7054152365927311  0.6250181739663598
  0.7461870834532218  0.7949598777168165  0.8741980204348716
  0.9977122449398105  0.2484433829075713  0.1226530941973708
  0.0231680391188311  0.2686067507909026  0.3631157391973414
  0.0166185110908175  0.2789521842480970  0.6151949239977796
  0.0135537319626935  0.2779142995633898  0.8867750349240312
  0.4755020995001576  0.2285219552868563  0.1246182615345647
  0.4933520328278767  0.2402785104954492  0.3995182837832572
  0.4681508753097731  0.2165792973719443  0.6268139365508638
  0.4886366373273248  0.2385744193771301  0.8508401232971622
  0.2209162567466029  0.4710619740781292  0.1242478093392803
  0.2593390683917251  0.5125143026950256  0.3526991628353546
  0.2788501221268770  0.5036656426697367  0.6294868575833230
  0.2657158492096553  0.5088280045700508  0.8983414934758526
  0.9758986016869022  0.7280419114640387  0.1264607718124333
  0.9878491566937356  0.7410783441615887  0.3980398632866693
  0.0281641760612938  0.7801432307143938  0.6250640197037571
  0.9933475746728561  0.7398654393792038  0.8517476995411136
  0.7249512670180100  0.4746611008417604  0.1309912703813236
  0.7271107849201278  0.4778653276084161  0.3827020132118839
  0.7432606721842120  0.4926289641782308  0.6265473165812175
  0.7322099262662384  0.4763439078993337  0.8618046031692416
  0.4971585535250271  0.7465488781171565  0.1259856325967971
  0.5170975751367882  0.7738798372373057  0.3634040052916066
  0.5307373888829953  0.7651997622335555  0.6215002234152842
  0.5259766219422433  0.7634587271425975  0.8870368555125343
  0.2250494187813684  0.9751670333887519  0.1187924819794312
  0.2348500751751263  0.9755368293039153  0.3865005344032034
  0.2462506298473206  0.9915367662785242  0.6239304160333785
  0.2304937356050518  0.9816367110423231  0.8638247945951523
  0.7202932997122987  0.9706582877177123  0.1254180862530633
  0.7654199033159623  0.0088003385865576  0.3522359939091039
  0.7753413587718326  0.0208085295025308  0.6273761419646926
  0.7570931743880382  0.0135532953565684  0.8985383613556209
 
  0.00000000E+00  0.00000000E+00  0.00000000E+00
  0.00000000E+00  0.00000000E+00  0.00000000E+00
  0.00000000E+00  0.00000000E+00  0.00000000E+00
  0.00000000E+00  0.00000000E+00  0.00000000E+00
  0.00000000E+00  0.00000000E+00  0.00000000E+00
  0.00000000E+00  0.00000000E+00  0.00000000E+00
  0.00000000E+00  0.00000000E+00  0.00000000E+00
  0.00000000E+00  0.00000000E+00  0.00000000E+00
  0.00000000E+00  0.00000000E+00  0.00000000E+00
  0.00000000E+00  0.00000000E+00  0.00000000E+00
  0.00000000E+00  0.00000000E+00  0.00000000E+00
  0.00000000E+00  0.00000000E+00  0.00000000E+00
  0.00000000E+00  0.00000000E+00  0.00000000E+00
  0.00000000E+00  0.00000000E+00  0.00000000E+00
  0.00000000E+00  0.00000000E+00  0.00000000E+00
  0.00000000E+00  0.00000000E+00  0.00000000E+00
  0.00000000E+00  0.00000000E+00  0.00000000E+00
  0.00000000E+00  0.00000000E+00  0.00000000E+00
  0.00000000E+00  0.00000000E+00  0.00000000E+00
  0.00000000E+00  0.00000000E+00  0.00000000E+00
  0.00000000E+00  0.00000000E+00  0.00000000E+00
  0.00000000E+00  0.00000000E+00  0.00000000E+00
  0.00000000E+00  0.00000000E+00  0.00000000E+00
  0.00000000E+00  0.00000000E+00  0.00000000E+00
  0.00000000E+00  0.00000000E+00  0.00000000E+00
  0.00000000E+00  0.00000000E+00  0.00000000E+00
  0.00000000E+00  0.00000000E+00  0.00000000E+00
  0.00000000E+00  0.00000000E+00  0.00000000E+00
  0.00000000E+00  0.00000000E+00  0.00000000E+00
  0.00000000E+00  0.00000000E+00  0.00000000E+00
  0.00000000E+00  0.00000000E+00  0.00000000E+00
  0.00000000E+00  0.00000000E+00  0.00000000E+00
  0.00000000E+00  0.00000000E+00  0.00000000E+00
  0.00000000E+00  0.00000000E+00  0.00000000E+00
  0.00000000E+00  0.00000000E+00  0.00000000E+00
  0.00000000E+00  0.00000000E+00  0.00000000E+00
  0.00000000E+00  0.00000000E+00  0.00000000E+00
  0.00000000E+00  0.00000000E+00  0.00000000E+00
  0.00000000E+00  0.00000000E+00  0.00000000E+00
  0.00000000E+00  0.00000000E+00  0.00000000E+00
  0.00000000E+00  0.00000000E+00  0.00000000E+00
  0.00000000E+00  0.00000000E+00  0.00000000E+00
  0.00000000E+00  0.00000000E+00  0.00000000E+00
  0.00000000E+00  0.00000000E+00  0.00000000E+00
  0.00000000E+00  0.00000000E+00  0.00000000E+00
  0.00000000E+00  0.00000000E+00  0.00000000E+00
  0.00000000E+00  0.00000000E+00  0.00000000E+00
  0.00000000E+00  0.00000000E+00  0.00000000E+00
  0.00000000E+00  0.00000000E+00  0.00000000E+00
  0.00000000E+00  0.00000000E+00  0.00000000E+00
  0.00000000E+00  0.00000000E+00  0.00000000E+00
  0.00000000E+00  0.00000000E+00  0.00000000E+00
  0.00000000E+00  0.00000000E+00  0.00000000E+00
  0.00000000E+00  0.00000000E+00  0.00000000E+00
  0.00000000E+00  0.00000000E+00  0.00000000E+00
  0.00000000E+00  0.00000000E+00  0.00000000E+00
  0.00000000E+00  0.00000000E+00  0.00000000E+00
  0.00000000E+00  0.00000000E+00  0.00000000E+00
  0.00000000E+00  0.00000000E+00  0.00000000E+00
  0.00000000E+00  0.00000000E+00  0.00000000E+00
  0.00000000E+00  0.00000000E+00  0.00000000E+00
  0.00000000E+00  0.00000000E+00  0.00000000E+00
  0.00000000E+00  0.00000000E+00  0.00000000E+00
  0.00000000E+00  0.00000000E+00  0.00000000E+00
  0.00000000E+00  0.00000000E+00  0.00000000E+00
  0.00000000E+00  0.00000000E+00  0.00000000E+00
  0.00000000E+00  0.00000000E+00  0.00000000E+00
  0.00000000E+00  0.00000000E+00  0.00000000E+00
  0.00000000E+00  0.00000000E+00  0.00000000E+00
  0.00000000E+00  0.00000000E+00  0.00000000E+00
  0.00000000E+00  0.00000000E+00  0.00000000E+00
  0.00000000E+00  0.00000000E+00  0.00000000E+00
  0.00000000E+00  0.00000000E+00  0.00000000E+00
  0.00000000E+00  0.00000000E+00  0.00000000E+00
  0.00000000E+00  0.00000000E+00  0.00000000E+00
  0.00000000E+00  0.00000000E+00  0.00000000E+00
  0.00000000E+00  0.00000000E+00  0.00000000E+00
  0.00000000E+00  0.00000000E+00  0.00000000E+00
  0.00000000E+00  0.00000000E+00  0.00000000E+00
  0.00000000E+00  0.00000000E+00  0.00000000E+00
  0.00000000E+00  0.00000000E+00  0.00000000E+00
  0.00000000E+00  0.00000000E+00  0.00000000E+00
  0.00000000E+00  0.00000000E+00  0.00000000E+00
  0.00000000E+00  0.00000000E+00  0.00000000E+00
  0.00000000E+00  0.00000000E+00  0.00000000E+00
  0.00000000E+00  0.00000000E+00  0.00000000E+00
  0.00000000E+00  0.00000000E+00  0.00000000E+00
  0.00000000E+00  0.00000000E+00  0.00000000E+00
  0.00000000E+00  0.00000000E+00  0.00000000E+00
  0.00000000E+00  0.00000000E+00  0.00000000E+00
  0.00000000E+00  0.00000000E+00  0.00000000E+00
  0.00000000E+00  0.00000000E+00  0.00000000E+00
  0.00000000E+00  0.00000000E+00  0.00000000E+00
  0.00000000E+00  0.00000000E+00  0.00000000E+00
  0.00000000E+00  0.00000000E+00  0.00000000E+00
  0.00000000E+00  0.00000000E+00  0.00000000E+00
  0.00000000E+00  0.00000000E+00  0.00000000E+00
  0.00000000E+00  0.00000000E+00  0.00000000E+00
  0.00000000E+00  0.00000000E+00  0.00000000E+00
  0.00000000E+00  0.00000000E+00  0.00000000E+00
  0.00000000E+00  0.00000000E+00  0.00000000E+00
  0.00000000E+00  0.00000000E+00  0.00000000E+00
  0.00000000E+00  0.00000000E+00  0.00000000E+00
  0.00000000E+00  0.00000000E+00  0.00000000E+00
  0.00000000E+00  0.00000000E+00  0.00000000E+00
  0.00000000E+00  0.00000000E+00  0.00000000E+00
  0.00000000E+00  0.00000000E+00  0.00000000E+00
  0.00000000E+00  0.00000000E+00  0.00000000E+00
  0.00000000E+00  0.00000000E+00  0.00000000E+00
  0.00000000E+00  0.00000000E+00  0.00000000E+00
  0.00000000E+00  0.00000000E+00  0.00000000E+00
  0.00000000E+00  0.00000000E+00  0.00000000E+00
  0.00000000E+00  0.00000000E+00  0.00000000E+00
  0.00000000E+00  0.00000000E+00  0.00000000E+00
  0.00000000E+00  0.00000000E+00  0.00000000E+00
  0.00000000E+00  0.00000000E+00  0.00000000E+00
  0.00000000E+00  0.00000000E+00  0.00000000E+00
  0.00000000E+00  0.00000000E+00  0.00000000E+00
  0.00000000E+00  0.00000000E+00  0.00000000E+00
  0.00000000E+00  0.00000000E+00  0.00000000E+00
  0.00000000E+00  0.00000000E+00  0.00000000E+00
  0.00000000E+00  0.00000000E+00  0.00000000E+00
  0.00000000E+00  0.00000000E+00  0.00000000E+00
  0.00000000E+00  0.00000000E+00  0.00000000E+00
  0.00000000E+00  0.00000000E+00  0.00000000E+00
  0.00000000E+00  0.00000000E+00  0.00000000E+00
  0.00000000E+00  0.00000000E+00  0.00000000E+00
  0.00000000E+00  0.00000000E+00  0.00000000E+00
  0.00000000E+00  0.00000000E+00  0.00000000E+00
  0.00000000E+00  0.00000000E+00  0.00000000E+00
  0.00000000E+00  0.00000000E+00  0.00000000E+00
  0.00000000E+00  0.00000000E+00  0.00000000E+00
  0.00000000E+00  0.00000000E+00  0.00000000E+00
  0.00000000E+00  0.00000000E+00  0.00000000E+00
  0.00000000E+00  0.00000000E+00  0.00000000E+00
  0.00000000E+00  0.00000000E+00  0.00000000E+00
  0.00000000E+00  0.00000000E+00  0.00000000E+00
  0.00000000E+00  0.00000000E+00  0.00000000E+00
  0.00000000E+00  0.00000000E+00  0.00000000E+00
  0.00000000E+00  0.00000000E+00  0.00000000E+00
  0.00000000E+00  0.00000000E+00  0.00000000E+00
  0.00000000E+00  0.00000000E+00  0.00000000E+00
  0.00000000E+00  0.00000000E+00  0.00000000E+00
  0.00000000E+00  0.00000000E+00  0.00000000E+00
  0.00000000E+00  0.00000000E+00  0.00000000E+00
  0.00000000E+00  0.00000000E+00  0.00000000E+00
  0.00000000E+00  0.00000000E+00  0.00000000E+00
  0.00000000E+00  0.00000000E+00  0.00000000E+00
  0.00000000E+00  0.00000000E+00  0.00000000E+00
  0.00000000E+00  0.00000000E+00  0.00000000E+00
  0.00000000E+00  0.00000000E+00  0.00000000E+00
  0.00000000E+00  0.00000000E+00  0.00000000E+00
  0.00000000E+00  0.00000000E+00  0.00000000E+00
  0.00000000E+00  0.00000000E+00  0.00000000E+00
  0.00000000E+00  0.00000000E+00  0.00000000E+00
  0.00000000E+00  0.00000000E+00  0.00000000E+00
  0.00000000E+00  0.00000000E+00  0.00000000E+00
  0.00000000E+00  0.00000000E+00  0.00000000E+00
  0.00000000E+00  0.00000000E+00  0.00000000E+00
  0.00000000E+00  0.00000000E+00  0.00000000E+00
