Na Mg Cl                                
   1.00000000000000     
     9.9154839999999993   -9.9154839999999993    0.0000000000000000
     9.9154839999999993    9.9154839999999993    0.0000000000000000
     0.0000000000000000    0.0000000000000000   19.8309679999999986
   Cl   Mg   Na
    96    32    32
Direct
  0.1466613604427228  0.0972143918490246  0.0284584636816658
  0.0954307462776682  0.1502867926936858  0.2260844081783859
  0.1557451789124356  0.0964222793388798  0.5201301594099563
  0.1036661143439403  0.1451672369450772  0.7229713709247613
  0.6575129218876620  0.0924951295529644  0.0225731894243699
  0.5977451364949586  0.1497384062133974  0.2227423172201095
  0.6531886299182392  0.0941785593638723  0.5230634640795142
  0.5998597243928891  0.1491547763944031  0.7219947259436524
  0.3527612118953342  0.3966890093721342  0.9713687779126203
  0.4016812710855119  0.3476424005380144  0.2722072233172545
  0.3478011192524550  0.3974660423992321  0.4731155506119570
  0.4033482107777749  0.3457476570127241  0.7731283056425066
  0.1526236160670979  0.5952295029560917  0.0268718729025910
  0.1011836006192294  0.6477455349598517  0.2229585845347023
  0.1439311305743185  0.5997197859949590  0.5282611189759663
  0.1009943787376326  0.6461914601769533  0.7203770276759101
  0.8512979100198171  0.3971695327865087  0.9699297341724900
  0.9022098851986511  0.3461539937201860  0.2762552706220189
  0.8456212661945145  0.4022884542914161  0.4748696677738929
  0.9045439925413638  0.3467558371992192  0.7715733591267888
  0.6552843936338170  0.5940509944160407  0.0218410793588679
  0.6054151317312133  0.6477816201955930  0.2202581219489614
  0.6542836907180353  0.5957191778879614  0.5204731083038797
  0.5986440676839327  0.6492069125987522  0.7244871466678998
  0.3453648164603780  0.8981762427581741 -0.0264174369155086
  0.4085428811495210  0.8431703313713579  0.2723325146815562
  0.3560215479264977  0.8953664392144993  0.4697344475385015
  0.3970938572982919  0.8460577972689464  0.7776109418584916
  0.8521687559005565  0.8957308832930546  0.9718316537616908
  0.9036103244742902  0.8457195143341414  0.2752201092319841
  0.8448344225183476  0.9011300236918417  0.4770430904135831
  0.8967181109692286  0.8493345667324380  0.7728931473871168
  0.9021319729494582  0.1487316549955065  0.9738984353451481
  0.8469476220374135  0.0973861281058955  0.2731364922123019
  0.8954675729781836  0.1465875450624648  0.4691119000273386
  0.8497345803308913  0.0991784965361862  0.7753411580163639
  0.4030666577347150  0.1483903806693908  0.9733349401293473
  0.3539436510490929  0.0994846789600117  0.2793070135835629
  0.3980557432307086  0.1459057855468821  0.4716349810482018
  0.3480761681580048  0.0947858113727208  0.7724140358983641
  0.0945979003359787  0.3431925510507450  0.0227659127578489
  0.1555301010526269  0.4010699653003895  0.2267593915244436
  0.0959483579049537  0.3444211907098204  0.5252190874025112
  0.1467963194380726  0.3965369032832666  0.7209974433428157
  0.9046831817330778  0.6485823815232303  0.9758821775602752
  0.8506918400393779  0.5978725521612406  0.2752705456140732
  0.9002009348946592  0.6488550822235523  0.4725329176581338
  0.8506926799303040  0.5986539196155829  0.7771782322123043
  0.5962848372788001  0.3443973033613452  0.0225592967950568
  0.6482161650932161  0.3971687113643412  0.2196994237637174
  0.6023996063185481  0.3495728416502197  0.5275991066688029
  0.6482854985890463  0.3958967210583247  0.7227502123377986
  0.3966365072410962  0.6462441354832513 -0.0315386867693349
  0.3465353122260333  0.5954313293757131  0.2699785233595014
  0.3986911753889044  0.6474727974890763  0.4734342641467468
  0.3437558380511566  0.5935703632760470  0.7721336366359434
  0.1001218017759873  0.8447847341097910  0.0274621788098831
  0.1551888361377029  0.8997442547972284  0.2219881773652227
  0.1009113583398683  0.8481089594949963  0.5237654261787881
  0.1543104129839363  0.9000627673692374  0.7288168477251044
  0.5930062636987168  0.8440845548191427  0.0219769987139841
  0.6494897684562997  0.8989466616002008  0.2197399298464827
  0.5978713992810543  0.8472210775766980  0.5240664073302560
  0.6436087135274725  0.8944903523299668  0.7204351136819956
 -0.0513840007384621  0.0028998742699884  0.1238630217972865
  0.0502630383966641  0.0058529499245152  0.3727758557780224
 -0.0495471993564795  0.0016926105593791  0.6232357706692504
  0.0498242442491395 -0.0130074332811875  0.8764704533822968
  0.4481330149125007 -0.0090658492017940  0.1244766137087216
  0.5527159735746836 -0.0010022001110362  0.3733515769082794
  0.4458633379856055 -0.0103522630559493  0.6255710855153962
  0.5514236586304687  0.9895718735628803  0.8752948628022477
  0.3012513138100148  0.2457951632726504  0.1236199411787796
  0.2011852597773295  0.2496739697784145  0.3722463184267184
  0.3017691729550803  0.2414337261622113  0.6260557922617270
  0.1985524339055552  0.2457521112541853  0.8756092256547860
 -0.0512851838698576  0.5038998716342522  0.1243971529345621
  0.0520616517052385  0.5048793130184270  0.3732004270998031
 -0.0528696660566247  0.4997715512044616  0.6238535467951977
  0.0536044813238485  0.4921640979243611  0.8761453884643301
  0.8010386971914966  0.2422630621732490  0.1245374592319600
  0.6964988884735713  0.2424588320115536  0.3741257835197616
  0.8029508754897492  0.2556189980530268  0.6230375215274356
  0.6991742442585620  0.2402461875271230  0.8759735604063935
  0.4511099383388573  0.4951313587945341  0.1238998705596329
  0.5511577374526195  0.4967479974946623  0.3734055784442193
  0.4491178945826266  0.4916925995796561  0.6249465339246435
  0.5513332797299058  0.4917137878119144  0.8752313223038912
  0.3027823773173485  0.7482911537568978  0.1233958427110362
  0.1986165339015745  0.7487891116757912  0.3735035652678608
  0.3016958839902442  0.7409859136456124  0.6250646517076425
  0.1950114018373414  0.7435651035581720  0.8754110919749339
  0.8004953219522485  0.7430965880715681  0.1244885145395983
  0.6979519128579109  0.7440223676166487  0.3742675323816609
  0.8010159189284670  0.7539832212504867  0.6225509932304479
  0.7003823073662715  0.7406802028136334  0.8767991920955321
  0.0003636822921306 -0.0028370746014268 -0.0010954767269854
  0.0040801261332713 -0.0092088931462711  0.2481759243793067
  0.0014536521426828 -0.0035741169889816  0.5009805054622843
 -0.0053708235651175 -0.0015393950725036  0.7472846025943692
  0.5020867179583345  0.0056746513629111  0.0005023080553165
  0.4990308811160867 -0.0010151560505609  0.2497374240321064
  0.4978081228016694  0.0027140940312090  0.5034123819009217
  0.5031405291845167  0.0055386127665719  0.7499001557123648
  0.2526506760867935  0.2461461687941494 -0.0014006321403651
  0.2492559678072947  0.2431817186486609  0.2446886914987315
  0.2495016107378633  0.2539504266989757  0.5037244188605033
  0.2497403740337327  0.2518507295861666  0.7535856541080191
 -0.0001972285981064  0.4940538931542359 -0.0000573548304897
  0.0004818960703458  0.4910113438677176  0.2490675779685834
  0.0020893723672616  0.4915263946206090  0.4980672179276507
 -0.0023572288501178  0.5020681944967905  0.7516295907653313
  0.7483134891997673  0.2521051752054262  0.0004296496738918
  0.7520530521833403  0.2549254254234584  0.2514931529703681
  0.7501971290303414  0.2490992561003436  0.5000289506992099
  0.7499194366432280  0.2460292339654657  0.7487708839305867
  0.5003999963277044  0.5010707724593303  0.0002056640538258
  0.5029122520416612  0.5041142250808520  0.2525966232881908
  0.4959621218312812  0.4988686946426432  0.4978734888431767
  0.5016928185020321  0.5030331686856034  0.7499192911120661
  0.2510333246353617  0.7465090743483741 -0.0012688552447414
  0.2508588918982115  0.7538192680216582  0.2539945192324005
  0.2493890191653652  0.7472621737337075  0.4980600999933041
  0.2483684021937627  0.7473991347433728  0.7473711462141511
  0.7471133869483383  0.7523439558683218  0.0012436363341284
  0.7520843405099847  0.7552502338764594  0.2517075185466695
  0.7499791336868281  0.7486190684593030  0.4996857345595361
  0.7506838848347019  0.7462509139655827  0.7489085283539381
  0.0017476061827244  0.2059687669236697  0.1057168251300605
  0.0023281537167304  0.2074958797943892  0.3544589792362091
  0.0027939528112423  0.2858833860000559  0.6468215443410202
  0.0022899096260275  0.2875252363049434  0.8904000709647804
  0.4963365290654346  0.2923920558884494  0.1419575214446089
  0.4976064675887259  0.2141935725216449  0.3576000410322911
  0.4995040033704019  0.2900438436086201  0.6467827217917637
  0.5008771129292564  0.2888747555528366  0.8937691340020969
  0.2547871795196408  0.5364289338935886  0.1460946105574994
  0.2508753674726712  0.4580239605504070  0.3559126753098277
  0.2511569140797637  0.5349664426693029  0.6428240080503403
  0.2521450107470916  0.5316179221613400  0.8915828710888245
 -0.0021874600996935  0.7085214823040534  0.1073765301843907
  0.0045668943609621  0.7092633692844028  0.3553172693827251
  0.0002618874797571  0.7131209093268481  0.6022078702961061
  0.9917314905920580  0.7865668824880668  0.8866544082496359
  0.7477686010260278  0.5405916499677610  0.1449567795320352
  0.7455797430106674  0.5373818735627274  0.3947915479863568
  0.7473397426299659  0.4592188158141988  0.6053691592537868
  0.7483372585946291  0.5384565080685254  0.8923831763139392
  0.5038354901559106  0.7891195884191805  0.1452401500138976
  0.4986359275879670  0.7850373701006896  0.3978612785349274
  0.4978666314817301  0.7861567472608747  0.6460768401242082
  0.5043263430049073  0.7879997031375747  0.8934271013811782
  0.2487902724168925 -0.0392908553980306  0.1041674357523332
  0.2502552292420633  0.0355591355800022  0.3980454087834948
  0.2472197911183685  0.0405608231762115  0.6446461160634325
  0.2478209492140872  0.9637622109108741  0.8527702026479294
  0.7505776337656062  0.0416270219356585  0.1456879949132456
  0.7517746519260153  0.0389280525767701  0.3955388690458487
  0.7554653500972743  0.9614094657184135  0.6083093093429693
  0.7510844287773384  0.0380253906036201  0.8918854426247264
 
  0.00000000E+00  0.00000000E+00  0.00000000E+00
  0.00000000E+00  0.00000000E+00  0.00000000E+00
  0.00000000E+00  0.00000000E+00  0.00000000E+00
  0.00000000E+00  0.00000000E+00  0.00000000E+00
  0.00000000E+00  0.00000000E+00  0.00000000E+00
  0.00000000E+00  0.00000000E+00  0.00000000E+00
  0.00000000E+00  0.00000000E+00  0.00000000E+00
  0.00000000E+00  0.00000000E+00  0.00000000E+00
  0.00000000E+00  0.00000000E+00  0.00000000E+00
  0.00000000E+00  0.00000000E+00  0.00000000E+00
  0.00000000E+00  0.00000000E+00  0.00000000E+00
  0.00000000E+00  0.00000000E+00  0.00000000E+00
  0.00000000E+00  0.00000000E+00  0.00000000E+00
  0.00000000E+00  0.00000000E+00  0.00000000E+00
  0.00000000E+00  0.00000000E+00  0.00000000E+00
  0.00000000E+00  0.00000000E+00  0.00000000E+00
  0.00000000E+00  0.00000000E+00  0.00000000E+00
  0.00000000E+00  0.00000000E+00  0.00000000E+00
  0.00000000E+00  0.00000000E+00  0.00000000E+00
  0.00000000E+00  0.00000000E+00  0.00000000E+00
  0.00000000E+00  0.00000000E+00  0.00000000E+00
  0.00000000E+00  0.00000000E+00  0.00000000E+00
  0.00000000E+00  0.00000000E+00  0.00000000E+00
  0.00000000E+00  0.00000000E+00  0.00000000E+00
  0.00000000E+00  0.00000000E+00  0.00000000E+00
  0.00000000E+00  0.00000000E+00  0.00000000E+00
  0.00000000E+00  0.00000000E+00  0.00000000E+00
  0.00000000E+00  0.00000000E+00  0.00000000E+00
  0.00000000E+00  0.00000000E+00  0.00000000E+00
  0.00000000E+00  0.00000000E+00  0.00000000E+00
  0.00000000E+00  0.00000000E+00  0.00000000E+00
  0.00000000E+00  0.00000000E+00  0.00000000E+00
  0.00000000E+00  0.00000000E+00  0.00000000E+00
  0.00000000E+00  0.00000000E+00  0.00000000E+00
  0.00000000E+00  0.00000000E+00  0.00000000E+00
  0.00000000E+00  0.00000000E+00  0.00000000E+00
  0.00000000E+00  0.00000000E+00  0.00000000E+00
  0.00000000E+00  0.00000000E+00  0.00000000E+00
  0.00000000E+00  0.00000000E+00  0.00000000E+00
  0.00000000E+00  0.00000000E+00  0.00000000E+00
  0.00000000E+00  0.00000000E+00  0.00000000E+00
  0.00000000E+00  0.00000000E+00  0.00000000E+00
  0.00000000E+00  0.00000000E+00  0.00000000E+00
  0.00000000E+00  0.00000000E+00  0.00000000E+00
  0.00000000E+00  0.00000000E+00  0.00000000E+00
  0.00000000E+00  0.00000000E+00  0.00000000E+00
  0.00000000E+00  0.00000000E+00  0.00000000E+00
  0.00000000E+00  0.00000000E+00  0.00000000E+00
  0.00000000E+00  0.00000000E+00  0.00000000E+00
  0.00000000E+00  0.00000000E+00  0.00000000E+00
  0.00000000E+00  0.00000000E+00  0.00000000E+00
  0.00000000E+00  0.00000000E+00  0.00000000E+00
  0.00000000E+00  0.00000000E+00  0.00000000E+00
  0.00000000E+00  0.00000000E+00  0.00000000E+00
  0.00000000E+00  0.00000000E+00  0.00000000E+00
  0.00000000E+00  0.00000000E+00  0.00000000E+00
  0.00000000E+00  0.00000000E+00  0.00000000E+00
  0.00000000E+00  0.00000000E+00  0.00000000E+00
  0.00000000E+00  0.00000000E+00  0.00000000E+00
  0.00000000E+00  0.00000000E+00  0.00000000E+00
  0.00000000E+00  0.00000000E+00  0.00000000E+00
  0.00000000E+00  0.00000000E+00  0.00000000E+00
  0.00000000E+00  0.00000000E+00  0.00000000E+00
  0.00000000E+00  0.00000000E+00  0.00000000E+00
  0.00000000E+00  0.00000000E+00  0.00000000E+00
  0.00000000E+00  0.00000000E+00  0.00000000E+00
  0.00000000E+00  0.00000000E+00  0.00000000E+00
  0.00000000E+00  0.00000000E+00  0.00000000E+00
  0.00000000E+00  0.00000000E+00  0.00000000E+00
  0.00000000E+00  0.00000000E+00  0.00000000E+00
  0.00000000E+00  0.00000000E+00  0.00000000E+00
  0.00000000E+00  0.00000000E+00  0.00000000E+00
  0.00000000E+00  0.00000000E+00  0.00000000E+00
  0.00000000E+00  0.00000000E+00  0.00000000E+00
  0.00000000E+00  0.00000000E+00  0.00000000E+00
  0.00000000E+00  0.00000000E+00  0.00000000E+00
  0.00000000E+00  0.00000000E+00  0.00000000E+00
  0.00000000E+00  0.00000000E+00  0.00000000E+00
  0.00000000E+00  0.00000000E+00  0.00000000E+00
  0.00000000E+00  0.00000000E+00  0.00000000E+00
  0.00000000E+00  0.00000000E+00  0.00000000E+00
  0.00000000E+00  0.00000000E+00  0.00000000E+00
  0.00000000E+00  0.00000000E+00  0.00000000E+00
  0.00000000E+00  0.00000000E+00  0.00000000E+00
  0.00000000E+00  0.00000000E+00  0.00000000E+00
  0.00000000E+00  0.00000000E+00  0.00000000E+00
  0.00000000E+00  0.00000000E+00  0.00000000E+00
  0.00000000E+00  0.00000000E+00  0.00000000E+00
  0.00000000E+00  0.00000000E+00  0.00000000E+00
  0.00000000E+00  0.00000000E+00  0.00000000E+00
  0.00000000E+00  0.00000000E+00  0.00000000E+00
  0.00000000E+00  0.00000000E+00  0.00000000E+00
  0.00000000E+00  0.00000000E+00  0.00000000E+00
  0.00000000E+00  0.00000000E+00  0.00000000E+00
  0.00000000E+00  0.00000000E+00  0.00000000E+00
  0.00000000E+00  0.00000000E+00  0.00000000E+00
  0.00000000E+00  0.00000000E+00  0.00000000E+00
  0.00000000E+00  0.00000000E+00  0.00000000E+00
  0.00000000E+00  0.00000000E+00  0.00000000E+00
  0.00000000E+00  0.00000000E+00  0.00000000E+00
  0.00000000E+00  0.00000000E+00  0.00000000E+00
  0.00000000E+00  0.00000000E+00  0.00000000E+00
  0.00000000E+00  0.00000000E+00  0.00000000E+00
  0.00000000E+00  0.00000000E+00  0.00000000E+00
  0.00000000E+00  0.00000000E+00  0.00000000E+00
  0.00000000E+00  0.00000000E+00  0.00000000E+00
  0.00000000E+00  0.00000000E+00  0.00000000E+00
  0.00000000E+00  0.00000000E+00  0.00000000E+00
  0.00000000E+00  0.00000000E+00  0.00000000E+00
  0.00000000E+00  0.00000000E+00  0.00000000E+00
  0.00000000E+00  0.00000000E+00  0.00000000E+00
  0.00000000E+00  0.00000000E+00  0.00000000E+00
  0.00000000E+00  0.00000000E+00  0.00000000E+00
  0.00000000E+00  0.00000000E+00  0.00000000E+00
  0.00000000E+00  0.00000000E+00  0.00000000E+00
  0.00000000E+00  0.00000000E+00  0.00000000E+00
  0.00000000E+00  0.00000000E+00  0.00000000E+00
  0.00000000E+00  0.00000000E+00  0.00000000E+00
  0.00000000E+00  0.00000000E+00  0.00000000E+00
  0.00000000E+00  0.00000000E+00  0.00000000E+00
  0.00000000E+00  0.00000000E+00  0.00000000E+00
  0.00000000E+00  0.00000000E+00  0.00000000E+00
  0.00000000E+00  0.00000000E+00  0.00000000E+00
  0.00000000E+00  0.00000000E+00  0.00000000E+00
  0.00000000E+00  0.00000000E+00  0.00000000E+00
  0.00000000E+00  0.00000000E+00  0.00000000E+00
  0.00000000E+00  0.00000000E+00  0.00000000E+00
  0.00000000E+00  0.00000000E+00  0.00000000E+00
  0.00000000E+00  0.00000000E+00  0.00000000E+00
  0.00000000E+00  0.00000000E+00  0.00000000E+00
  0.00000000E+00  0.00000000E+00  0.00000000E+00
  0.00000000E+00  0.00000000E+00  0.00000000E+00
  0.00000000E+00  0.00000000E+00  0.00000000E+00
  0.00000000E+00  0.00000000E+00  0.00000000E+00
  0.00000000E+00  0.00000000E+00  0.00000000E+00
  0.00000000E+00  0.00000000E+00  0.00000000E+00
  0.00000000E+00  0.00000000E+00  0.00000000E+00
  0.00000000E+00  0.00000000E+00  0.00000000E+00
  0.00000000E+00  0.00000000E+00  0.00000000E+00
  0.00000000E+00  0.00000000E+00  0.00000000E+00
  0.00000000E+00  0.00000000E+00  0.00000000E+00
  0.00000000E+00  0.00000000E+00  0.00000000E+00
  0.00000000E+00  0.00000000E+00  0.00000000E+00
  0.00000000E+00  0.00000000E+00  0.00000000E+00
  0.00000000E+00  0.00000000E+00  0.00000000E+00
  0.00000000E+00  0.00000000E+00  0.00000000E+00
  0.00000000E+00  0.00000000E+00  0.00000000E+00
  0.00000000E+00  0.00000000E+00  0.00000000E+00
  0.00000000E+00  0.00000000E+00  0.00000000E+00
  0.00000000E+00  0.00000000E+00  0.00000000E+00
  0.00000000E+00  0.00000000E+00  0.00000000E+00
  0.00000000E+00  0.00000000E+00  0.00000000E+00
  0.00000000E+00  0.00000000E+00  0.00000000E+00
  0.00000000E+00  0.00000000E+00  0.00000000E+00
  0.00000000E+00  0.00000000E+00  0.00000000E+00
  0.00000000E+00  0.00000000E+00  0.00000000E+00
  0.00000000E+00  0.00000000E+00  0.00000000E+00
  0.00000000E+00  0.00000000E+00  0.00000000E+00
  0.00000000E+00  0.00000000E+00  0.00000000E+00
  0.00000000E+00  0.00000000E+00  0.00000000E+00
