Cs Br Ba                                
   1.00000000000000     
    12.7660099999999996  -12.7660099999999996    0.0000000000000000
    12.7660099999999996   12.7660099999999996    0.0000000000000000
     0.0000000000000000    0.0000000000000000   25.5320189999999982
   Ba   Br   Cs
    32    96    32
Direct
  0.9978299342616761 -0.0007363037872318  0.0003067600558341
 -0.0000650055485103  0.0019960363662152  0.2497089882036696
  0.0009821609563177  0.9950770990205716  0.5000207686602081
  0.9965622318723476  0.0036515527136642  0.7502841530200873
  0.4985055840014004  0.0008602209210792  0.9989098567583619
  0.4977892495034768  0.0059127541767396  0.2498088240995915
  0.5003841205877519  0.9975568964161522  0.4993317864545810
  0.4997539549614273  0.9964564113123671  0.7510612743109323
  0.2510610773704275  0.2543579756927641 -0.0005274344118006
  0.2538870735688803  0.2530899515126807  0.2489865656427632
  0.2524495778736257  0.2470918213243086  0.5010122264012957
  0.2464939994241934  0.2508335439889101  0.7499863707876864
  0.0015886367442199  0.5008368584201084  0.9989602905696324
  0.0019948016935666  0.5021853206549062  0.2493575679191997
  0.0025853734268905  0.5036785360147750  0.5016470339151311
  0.9984578819075183  0.4962257002517080  0.7503586185697000
  0.7513185497038980  0.2505561157126081  0.9975324035562784
  0.7502852732185153  0.2516375209581918  0.2495635057569118
  0.7499007054723889  0.2471743672395039  0.4997545141142570
  0.7501478708011710  0.2487637864908132  0.7483309070469688
  0.5030158384652709  0.5009646918944738  0.0007451952995191
  0.5038688856570158  0.4982179141589427  0.2488373435263784
  0.5022729137463624  0.4989830119937754  0.5004465408232801
  0.4998608921267891  0.5010321294870014  0.7503197405936431
  0.2505287483234184  0.7513498749841472  0.0004088753983242
  0.2483441057986887  0.7560031872208526  0.2503049245937053
  0.2505167325395232  0.7507779351824496  0.5003571451839643
  0.2523334853316836  0.7515221832920247  0.7527630713575902
  0.7513657522504700  0.7504452126911784  0.0002055609305018
  0.7526394401681507  0.7520232571681679  0.2501211193293127
  0.7532136248924405  0.7495793299936818  0.5013618349750907
  0.7454717876260609  0.7508968504878077  0.7507088683211733
  0.1380208722033092  0.1135652064384303  0.9764280078232781
  0.1503202250420820  0.1029465535265577  0.2616289273795969
  0.1041849509088667  0.1423256716284226  0.4773055832779293
  0.1391301862397879  0.1090106760380131  0.7778798073828607
  0.6368616393397230  0.1145832608022846  0.0242554088862011
  0.6494244159272935  0.1034504682247248  0.2300532461358281
  0.5973805728081579  0.1511746339345144  0.5173057088035901
  0.6396431386317618  0.1062233948446960  0.7263178095202687
  0.3563657425090963  0.3974512597036861  0.0194696275197607
  0.3448368173829800  0.4098532025662652  0.2399649469712539
  0.4051904253468525  0.3438376624047362  0.5183289504404750
  0.3509407699942300  0.3979173282825539  0.7318200874793371
  0.1282227640276829  0.6236990442362779  0.0314816115038361
  0.1552725627845606  0.5992771130387762  0.2407073899058529
  0.1156155097632079  0.6381325767955467  0.5354612720460773
  0.1303364539766697  0.6204417283641691  0.7280226300372078
  0.8558263123623574  0.3950767733628484  0.9810548910433232
  0.8526077350272743  0.4009583803644620  0.2640518072341099
  0.8952671278070410  0.3540001582851785  0.4785560745553593
  0.8419114891109752  0.4044156318495063  0.7608822681757226
  0.6283293190359552  0.6241053191166789  0.9685284050302956
  0.6316401278267159  0.6221727952112811  0.2729206004771694
  0.5998266070823313  0.6515991290480589  0.4805162848398260
  0.6533333141252218  0.5949948459662125  0.7625691281729349
  0.3722311652493331  0.8790403804960011  0.9679079023507636
  0.3617436009758949  0.8917967677784702  0.2738522450883341
  0.4054875434748763  0.8440553669459050  0.4788507429037884
  0.3447600246649977  0.9048065077756342  0.7662144140886077
  0.8733863445171038  0.8772391487087751  0.0335284334292480
  0.8444609899602111  0.9089171501465280  0.2417301782111807
  0.8943995269975737  0.8561151149196696  0.5331110082395077
  0.8664954490614768  0.8819802523832526  0.7261070210292886
  0.8786110223371267  0.1277601791013847  0.9685251647698792
  0.9031756621475677  0.1547217653392922  0.2705626710828617
  0.8497552873598012  0.0953732601763308  0.4804517682451194
  0.8796022159868652  0.1322437431165032  0.7842218778212099
  0.3784220129421557  0.1302712199198576  0.0297151051475904
  0.3967613457354391  0.1493062914580567  0.2220418236861386
  0.3471818519312826  0.0928720967168864  0.5071437018238510
  0.3928803944096373  0.1437203301975722  0.7321215686790797
  0.1178791380803401  0.3693886180664689  0.9680973243501442
  0.1008049282502826  0.3509872760752356  0.2680766902400701
  0.1311046843747624  0.3785222430492348  0.4885506479828554
  0.1041314797131962  0.3555484925316951  0.7737207054149325
  0.8723215931785382  0.6227657877422410  0.0303508399894099
  0.9053824725350088  0.6563643900237706  0.2323801470891207
  0.8466987559197837  0.5954976478190013  0.5099659389355260
  0.8902571271304706  0.6417500414191768  0.7292866799591876
  0.6221460679147781  0.3708713672042517  0.0306334372320916
  0.6118068111822307  0.3607924744661842  0.2185962269191636
  0.6550215119135979  0.4022451944687125  0.5123077972506447
  0.5980967857219759  0.3490583818077870  0.7298988865468111
  0.3745297539405393  0.6251455352462553  0.9726413558626309
  0.3932992203586884  0.6455067665663535  0.2698117419392049
  0.3501060803861860  0.5985012934993672  0.4888149444275988
  0.3838449340895815  0.6339991735158794  0.7816303016381924
  0.1316458390151874  0.8822018476724214  0.0287018960078472
  0.0943763830462036  0.8472829850021065  0.2302155071063686
  0.1578408089661415  0.9052131343933518  0.5164847238324751
  0.1112367624323185  0.8642224566063063  0.7295005372663257
  0.6319978885236855  0.8819556263528704  0.9737882760348752
  0.6083819933118580  0.8619272909685857  0.2701636117326229
  0.6532291492679284  0.9012358854401100  0.4974706793765523
  0.6053360794914053  0.8557384683584383  0.7793966026467887
  0.0131018699250431  0.0456691559158651  0.1252377656154786
  0.0195522398859435  0.9598211216645666  0.3744746009460616
  0.9889077049776726  0.0455908572236216  0.6240678749767753
  0.0088042337214230  0.9546221456595864  0.8750908049994057
  0.5112434287870816  0.9592282443414882  0.1251292475804049
  0.5221824748005879  0.0389020969046910  0.3753380510770510
  0.4786609831109343  0.9643959683079523  0.6246473012042261
  0.5160806987499854  0.0466715787546878  0.8744028269803027
  0.2054759352812118  0.2439267411946518  0.1244928830598816
  0.2870359850569616  0.2331979874126893  0.3751917771541394
  0.2138448974818787  0.2223395062549332  0.6249121333914034
  0.2943212005282065  0.2656038163428996  0.8741646670459576
  0.9878435189459430  0.4573653003585358  0.1252617642699644
  0.9887709880508098  0.5382007665544503  0.3755662933992409
  0.9785662033640015  0.4609400569318735  0.6247792959510577
  0.9843913657759868  0.5460141120077970  0.8740264080965404
  0.7944945117343508  0.2570164890521041  0.1239868648409505
  0.7108843475274622  0.2654839272911355  0.3749433573296140
  0.7945352247963975  0.2283919466081431  0.6231717894803879
  0.7025474486963603  0.2389153966726487  0.8732088572184622
  0.4881444150117647  0.5486337462076850  0.1253716128169733
  0.4877342866418985  0.4626903212791374  0.3750667718700196
  0.4843800691375226  0.5433580909112320  0.6248928026515862
  0.4921365262701768  0.4549204880395718  0.8751358396062275
  0.2946613135920300  0.7418765171330010  0.1265866759227136
  0.2103213209139406  0.7345977473259864  0.3758148846484591
  0.2946670529776425  0.7466971888109692  0.6265539076167755
  0.2006890874811027  0.7620156056097036  0.8758795604076371
  0.7055494291440138  0.7636888491703349  0.1263035161416569
  0.7887079917719393  0.7726286418478986  0.3759922430036104
  0.7101540516065336  0.7298550515538338  0.6253639194720571
  0.7964607902669802  0.7382693694246555  0.8745419560394633
  0.0008341561564177  0.2513303660081612  0.1550115440946265
  0.0066432812099361  0.2561508311919897  0.3769881657493437
  0.0058056934760811  0.2545929104933583  0.5944020356228886
  0.0209911886785733  0.2276683947137102  0.8772845854918011
  0.5230171366544321  0.2312532506055626  0.1198531808044440
  0.5000075152841468  0.2497693670346189  0.3999136606894284
  0.5010559469669891  0.2392438081782502  0.6298011250693926
  0.4991669419807445  0.2497054615860309  0.8441418247789712
  0.2773819810549045  0.5307111112977070  0.1242245058782448
  0.2741414837784295  0.5260719249995831  0.3563049704920284
  0.2724001715248944  0.5399377018168036  0.6260477181040396
  0.2868556958270334  0.4753399758766101  0.8800590266998277
  0.0009017893463277  0.7491249777507158  0.1120334878587475
  0.0002952752272505  0.7502836230685883  0.3480836284740242
  0.0046156650485901  0.7503426330532155  0.6344991143780924
  0.9988261753605746  0.7496316449655981  0.8384684898410688
  0.7785594561916589  0.4621486007016193  0.1149758792599910
  0.7725641878361661  0.4762434149660976  0.3934277828948584
  0.7686126348296274  0.5204832841262526  0.6402568264229710
  0.7740362060647422  0.5268518039251582  0.8755918415933156
  0.5011746984854218  0.7518639808552975  0.1591903680797419
  0.5055114449708715  0.7462068750518115  0.3681916119041880
  0.5041691349023842  0.7513795273354302  0.5952818559027102
  0.5008156704605620  0.7500184325162517  0.8887307285207174
  0.2218845725568349  0.0389048222980069  0.1145197686151936
  0.2285489734019567  0.0217748333852368  0.3884190161450862
  0.2677112620699137  0.0031185176877606  0.6341840144592641
  0.2203722495689362  0.9718643526651822  0.8773038745732881
  0.7229485244767752  0.9732785560336403  0.1231042319047899
  0.7320550912540874  0.9811468763752919  0.3647117775078938
  0.7795656961640791  0.0109750765757948  0.6116817360524639
  0.7262384786895378  0.0328617186271944  0.8784535645383276
 
  0.00000000E+00  0.00000000E+00  0.00000000E+00
  0.00000000E+00  0.00000000E+00  0.00000000E+00
  0.00000000E+00  0.00000000E+00  0.00000000E+00
  0.00000000E+00  0.00000000E+00  0.00000000E+00
  0.00000000E+00  0.00000000E+00  0.00000000E+00
  0.00000000E+00  0.00000000E+00  0.00000000E+00
  0.00000000E+00  0.00000000E+00  0.00000000E+00
  0.00000000E+00  0.00000000E+00  0.00000000E+00
  0.00000000E+00  0.00000000E+00  0.00000000E+00
  0.00000000E+00  0.00000000E+00  0.00000000E+00
  0.00000000E+00  0.00000000E+00  0.00000000E+00
  0.00000000E+00  0.00000000E+00  0.00000000E+00
  0.00000000E+00  0.00000000E+00  0.00000000E+00
  0.00000000E+00  0.00000000E+00  0.00000000E+00
  0.00000000E+00  0.00000000E+00  0.00000000E+00
  0.00000000E+00  0.00000000E+00  0.00000000E+00
  0.00000000E+00  0.00000000E+00  0.00000000E+00
  0.00000000E+00  0.00000000E+00  0.00000000E+00
  0.00000000E+00  0.00000000E+00  0.00000000E+00
  0.00000000E+00  0.00000000E+00  0.00000000E+00
  0.00000000E+00  0.00000000E+00  0.00000000E+00
  0.00000000E+00  0.00000000E+00  0.00000000E+00
  0.00000000E+00  0.00000000E+00  0.00000000E+00
  0.00000000E+00  0.00000000E+00  0.00000000E+00
  0.00000000E+00  0.00000000E+00  0.00000000E+00
  0.00000000E+00  0.00000000E+00  0.00000000E+00
  0.00000000E+00  0.00000000E+00  0.00000000E+00
  0.00000000E+00  0.00000000E+00  0.00000000E+00
  0.00000000E+00  0.00000000E+00  0.00000000E+00
  0.00000000E+00  0.00000000E+00  0.00000000E+00
  0.00000000E+00  0.00000000E+00  0.00000000E+00
  0.00000000E+00  0.00000000E+00  0.00000000E+00
  0.00000000E+00  0.00000000E+00  0.00000000E+00
  0.00000000E+00  0.00000000E+00  0.00000000E+00
  0.00000000E+00  0.00000000E+00  0.00000000E+00
  0.00000000E+00  0.00000000E+00  0.00000000E+00
  0.00000000E+00  0.00000000E+00  0.00000000E+00
  0.00000000E+00  0.00000000E+00  0.00000000E+00
  0.00000000E+00  0.00000000E+00  0.00000000E+00
  0.00000000E+00  0.00000000E+00  0.00000000E+00
  0.00000000E+00  0.00000000E+00  0.00000000E+00
  0.00000000E+00  0.00000000E+00  0.00000000E+00
  0.00000000E+00  0.00000000E+00  0.00000000E+00
  0.00000000E+00  0.00000000E+00  0.00000000E+00
  0.00000000E+00  0.00000000E+00  0.00000000E+00
  0.00000000E+00  0.00000000E+00  0.00000000E+00
  0.00000000E+00  0.00000000E+00  0.00000000E+00
  0.00000000E+00  0.00000000E+00  0.00000000E+00
  0.00000000E+00  0.00000000E+00  0.00000000E+00
  0.00000000E+00  0.00000000E+00  0.00000000E+00
  0.00000000E+00  0.00000000E+00  0.00000000E+00
  0.00000000E+00  0.00000000E+00  0.00000000E+00
  0.00000000E+00  0.00000000E+00  0.00000000E+00
  0.00000000E+00  0.00000000E+00  0.00000000E+00
  0.00000000E+00  0.00000000E+00  0.00000000E+00
  0.00000000E+00  0.00000000E+00  0.00000000E+00
  0.00000000E+00  0.00000000E+00  0.00000000E+00
  0.00000000E+00  0.00000000E+00  0.00000000E+00
  0.00000000E+00  0.00000000E+00  0.00000000E+00
  0.00000000E+00  0.00000000E+00  0.00000000E+00
  0.00000000E+00  0.00000000E+00  0.00000000E+00
  0.00000000E+00  0.00000000E+00  0.00000000E+00
  0.00000000E+00  0.00000000E+00  0.00000000E+00
  0.00000000E+00  0.00000000E+00  0.00000000E+00
  0.00000000E+00  0.00000000E+00  0.00000000E+00
  0.00000000E+00  0.00000000E+00  0.00000000E+00
  0.00000000E+00  0.00000000E+00  0.00000000E+00
  0.00000000E+00  0.00000000E+00  0.00000000E+00
  0.00000000E+00  0.00000000E+00  0.00000000E+00
  0.00000000E+00  0.00000000E+00  0.00000000E+00
  0.00000000E+00  0.00000000E+00  0.00000000E+00
  0.00000000E+00  0.00000000E+00  0.00000000E+00
  0.00000000E+00  0.00000000E+00  0.00000000E+00
  0.00000000E+00  0.00000000E+00  0.00000000E+00
  0.00000000E+00  0.00000000E+00  0.00000000E+00
  0.00000000E+00  0.00000000E+00  0.00000000E+00
  0.00000000E+00  0.00000000E+00  0.00000000E+00
  0.00000000E+00  0.00000000E+00  0.00000000E+00
  0.00000000E+00  0.00000000E+00  0.00000000E+00
  0.00000000E+00  0.00000000E+00  0.00000000E+00
  0.00000000E+00  0.00000000E+00  0.00000000E+00
  0.00000000E+00  0.00000000E+00  0.00000000E+00
  0.00000000E+00  0.00000000E+00  0.00000000E+00
  0.00000000E+00  0.00000000E+00  0.00000000E+00
  0.00000000E+00  0.00000000E+00  0.00000000E+00
  0.00000000E+00  0.00000000E+00  0.00000000E+00
  0.00000000E+00  0.00000000E+00  0.00000000E+00
  0.00000000E+00  0.00000000E+00  0.00000000E+00
  0.00000000E+00  0.00000000E+00  0.00000000E+00
  0.00000000E+00  0.00000000E+00  0.00000000E+00
  0.00000000E+00  0.00000000E+00  0.00000000E+00
  0.00000000E+00  0.00000000E+00  0.00000000E+00
  0.00000000E+00  0.00000000E+00  0.00000000E+00
  0.00000000E+00  0.00000000E+00  0.00000000E+00
  0.00000000E+00  0.00000000E+00  0.00000000E+00
  0.00000000E+00  0.00000000E+00  0.00000000E+00
  0.00000000E+00  0.00000000E+00  0.00000000E+00
  0.00000000E+00  0.00000000E+00  0.00000000E+00
  0.00000000E+00  0.00000000E+00  0.00000000E+00
  0.00000000E+00  0.00000000E+00  0.00000000E+00
  0.00000000E+00  0.00000000E+00  0.00000000E+00
  0.00000000E+00  0.00000000E+00  0.00000000E+00
  0.00000000E+00  0.00000000E+00  0.00000000E+00
  0.00000000E+00  0.00000000E+00  0.00000000E+00
  0.00000000E+00  0.00000000E+00  0.00000000E+00
  0.00000000E+00  0.00000000E+00  0.00000000E+00
  0.00000000E+00  0.00000000E+00  0.00000000E+00
  0.00000000E+00  0.00000000E+00  0.00000000E+00
  0.00000000E+00  0.00000000E+00  0.00000000E+00
  0.00000000E+00  0.00000000E+00  0.00000000E+00
  0.00000000E+00  0.00000000E+00  0.00000000E+00
  0.00000000E+00  0.00000000E+00  0.00000000E+00
  0.00000000E+00  0.00000000E+00  0.00000000E+00
  0.00000000E+00  0.00000000E+00  0.00000000E+00
  0.00000000E+00  0.00000000E+00  0.00000000E+00
  0.00000000E+00  0.00000000E+00  0.00000000E+00
  0.00000000E+00  0.00000000E+00  0.00000000E+00
  0.00000000E+00  0.00000000E+00  0.00000000E+00
  0.00000000E+00  0.00000000E+00  0.00000000E+00
  0.00000000E+00  0.00000000E+00  0.00000000E+00
  0.00000000E+00  0.00000000E+00  0.00000000E+00
  0.00000000E+00  0.00000000E+00  0.00000000E+00
  0.00000000E+00  0.00000000E+00  0.00000000E+00
  0.00000000E+00  0.00000000E+00  0.00000000E+00
  0.00000000E+00  0.00000000E+00  0.00000000E+00
  0.00000000E+00  0.00000000E+00  0.00000000E+00
  0.00000000E+00  0.00000000E+00  0.00000000E+00
  0.00000000E+00  0.00000000E+00  0.00000000E+00
  0.00000000E+00  0.00000000E+00  0.00000000E+00
  0.00000000E+00  0.00000000E+00  0.00000000E+00
  0.00000000E+00  0.00000000E+00  0.00000000E+00
  0.00000000E+00  0.00000000E+00  0.00000000E+00
  0.00000000E+00  0.00000000E+00  0.00000000E+00
  0.00000000E+00  0.00000000E+00  0.00000000E+00
  0.00000000E+00  0.00000000E+00  0.00000000E+00
  0.00000000E+00  0.00000000E+00  0.00000000E+00
  0.00000000E+00  0.00000000E+00  0.00000000E+00
  0.00000000E+00  0.00000000E+00  0.00000000E+00
  0.00000000E+00  0.00000000E+00  0.00000000E+00
  0.00000000E+00  0.00000000E+00  0.00000000E+00
  0.00000000E+00  0.00000000E+00  0.00000000E+00
  0.00000000E+00  0.00000000E+00  0.00000000E+00
  0.00000000E+00  0.00000000E+00  0.00000000E+00
  0.00000000E+00  0.00000000E+00  0.00000000E+00
  0.00000000E+00  0.00000000E+00  0.00000000E+00
  0.00000000E+00  0.00000000E+00  0.00000000E+00
  0.00000000E+00  0.00000000E+00  0.00000000E+00
  0.00000000E+00  0.00000000E+00  0.00000000E+00
  0.00000000E+00  0.00000000E+00  0.00000000E+00
  0.00000000E+00  0.00000000E+00  0.00000000E+00
  0.00000000E+00  0.00000000E+00  0.00000000E+00
  0.00000000E+00  0.00000000E+00  0.00000000E+00
  0.00000000E+00  0.00000000E+00  0.00000000E+00
  0.00000000E+00  0.00000000E+00  0.00000000E+00
  0.00000000E+00  0.00000000E+00  0.00000000E+00
  0.00000000E+00  0.00000000E+00  0.00000000E+00
  0.00000000E+00  0.00000000E+00  0.00000000E+00
  0.00000000E+00  0.00000000E+00  0.00000000E+00
  0.00000000E+00  0.00000000E+00  0.00000000E+00
  0.00000000E+00  0.00000000E+00  0.00000000E+00
