Na Sn Br                                
   1.00000000000000     
    11.6131259999999994  -11.6131259999999994    0.0000000000000000
    11.6131259999999994   11.6131259999999994    0.0000000000000000
     0.0000000000000000    0.0000000000000000   23.2262519999999988
   Na   Sn   Br
    32    32    96
Direct
  0.0037671230347791  0.9594633988785212  0.0885511550170849
  0.0175478529842809  0.9096340358328533  0.2653503181733652
  0.0493440502919160  0.0760231580579831  0.5195769081753123
  0.9741598023506095  0.9361851764584918  0.7236261621995849
  0.4866375950547924  0.0241719945459189  0.9345498538294745
  0.4565655115602131  0.9678673951081369  0.2656604406516572
  0.5323686666104447  0.0626651065342593  0.5756482289323875
  0.4289173666950052  0.9827890010191980  0.7286137955489217
  0.3051189880114612  0.2932797153456657  0.9644289952193369
  0.3086324619801636  0.2443851513849391  0.2696232224345894
  0.2171970985874341  0.2256374579314884  0.4209298272683645
  0.2625231089633112  0.2387950240188439  0.7734235726915694
  0.9737257835447435  0.4146751362465093  0.0235048304614389
  0.0198252200830773  0.4760717572502939  0.2350379977692777
  0.9960835307553505  0.4669551286490921  0.4793420756945775
  0.9661108138487011  0.5039432488353011  0.7171441211809838
  0.8249497541198277  0.1891451409213077  0.0017205994279459
  0.7327709343943476  0.1809899125255713  0.2845045021552847
  0.6914835360860261  0.2063852685493601  0.4873866173041812
  0.7896710975742108  0.2420254150792002  0.7250252216703135
  0.4906513611904004  0.5094601219104020  0.9670584945024066
  0.5262225451560720  0.4999331639368924  0.1917924799903064
  0.5099779406104193  0.5515510038891632  0.5247362785978544
  0.5086632573092802  0.4879795843076838  0.7678465549718929
  0.1417129694330242  0.7524951621865575  0.9920519672295082
  0.2538740109967739  0.7782588763157896  0.2922609282150545
  0.2689960990089138  0.6874507405181252  0.4793765385550725
  0.2585670407768575  0.7581439064977492  0.7252808904245928
  0.7943464616315267  0.6866676825228625  0.9992745395352678
  0.7426916332749254  0.6555070841223342  0.2284222561421335
  0.7338838540166637  0.6787850585651386  0.4583903861790123
  0.7936895036693093  0.6937642325041180  0.7711715062566932
  0.9712765324056134  0.2248760507702914  0.1328380402251712
  0.9969668621342708  0.2637744867165093  0.3602323677394603
  0.0441780226706785  0.3184120835220058  0.6413711351092082
  0.0270961075148724  0.2838524766197502  0.8787980065115223
  0.4541642780485816  0.2350007542694008  0.1261960627273986
  0.4947738640785274  0.2207874658827106  0.3739910836267605
  0.4428618077219154  0.3134441692755105  0.6266432845647671
  0.5005327592354545  0.2348507425776093  0.8491751868642105
  0.2260095969695551  0.4867108029528084  0.1263852959976725
  0.2465552470675231  0.4944482973828364  0.3892985713136783
  0.2689951435633291  0.5351162570008938  0.6313802545550909
  0.2708820863464160  0.5196142404708560  0.8709314988857487
  0.0136189695165809  0.7209622777160762  0.1400893011089480
  0.0067401146782613  0.7399782889385015  0.3878504205983934
  0.9728436714143344  0.7470879455619313  0.6072145377315932
  0.0132309976489982  0.7421080594584493  0.8462390317537909
  0.7479356521102597  0.4956546969574276  0.1057576571886213
  0.7377896399595295  0.4848179082808693  0.3611148214073179
  0.7359993383798653  0.4998720308146792  0.5949124729267470
  0.7407711701230102  0.4910398894897619  0.8586194717483698
  0.4859340708443043  0.7374164078727027  0.1455231300966017
  0.4980543924493653  0.7326425920949873  0.3818338721940591
  0.5141404318360810  0.8245304090958915  0.6238196922056254
  0.5359507201411543  0.7609065796500989  0.9051832815312448
  0.2493537110247233  0.9897029610176813  0.1234111581104426
  0.2281760138333451  0.9812258344825477  0.3952772897871394
  0.2254900111986078  0.0450431886225254  0.6391365663399652
  0.2432569103423079  0.9894848918933703  0.8776008294771713
  0.7083163083534091  0.0113953273618278  0.1527963342196555
  0.7288607805354929  0.9917218706973412  0.3884091693914661
  0.7963872609494045  0.0532988416880294  0.6140290227744504
  0.7332940024244652  0.0056789338919723  0.9135431153712074
  0.0003967472891615  0.2378875465609268  0.9927200834783652
  0.9041291065825141  0.2384165445857190  0.2428616024123672
  0.0711345078304144  0.3091023112835206  0.4673529735249058
  0.0766215425337837  0.3708793398766141  0.7505437505925480
  0.4597541613846972  0.1989896263530363  0.9628523356946093
  0.4507096696522191  0.3363549666263995  0.2199419260496933
  0.5075652281350157  0.2047366326565506  0.4898241914025758
  0.5374879620363104  0.3250202777246880  0.7227310309776933
  0.3181297300616009  0.4717681314245427  0.9840044705276146
  0.1881175107340610  0.5271250984718036  0.2373830635139469
  0.3276506448312491  0.5048208634316490  0.4927953668126311
  0.2343230803768395  0.5817501065097644  0.7426546681561561
  0.9585349565835639  0.7467746249059338  0.0232346624565948
  0.0783354953636786  0.7396546760930145  0.2730127020459369
  0.8997316240392751  0.7365294893479972  0.5006659029598044
  0.0703906931705958  0.7731935931508890  0.7377956242832270
  0.8233098640874219  0.5124071949449842  0.9964791108863302
  0.6932748973075195  0.4813719152012396  0.2419167696297196
  0.8194295751834159  0.5015102446753440  0.4897370679806324
  0.6836515779103480  0.5462310875305446  0.7516712991002564
  0.5000370433161770  0.6778541892848691  0.0006692016447845
  0.5588005030351286  0.6784674028121653  0.2437931290358911
  0.4480549016270157  0.7185435176864416  0.4947739034912745
  0.4382768174541052  0.7996755626220147  0.7266445601191315
  0.2692415384930268  0.0431794350143369  0.0150379632900748
  0.1928842050965972  0.9487978731934145  0.2830877800514817
  0.2130240282821330  0.1329578415386148  0.5373056806451023
  0.2499632229013412  0.9374764084498776  0.7606644653738475
  0.6775532773672829  0.0907058029690262  0.0061252666745708
  0.7849449614972341  0.0082686339534438  0.2584090874368644
  0.6755629445952411  0.0237677502091085  0.5031136859781040
  0.8745511149523532  0.0877729149178358  0.7183310446814776
  0.1106932848245948  0.0758248893016942  0.1475422622129108
  0.0911784087645704  0.0841954074909638  0.3979224310003768
  0.1395993175115155  0.1505192063064711  0.7059546567098154
  0.1800412576032438  0.2170073070581580  0.8855602023831445
  0.6408148878022554  0.1583574484708743  0.1775520793672994
  0.5865670152985689  0.0605000928669015  0.3442436552728825
  0.6912510631590792  0.1847867388840041  0.6244744070044841
  0.6103951251400249  0.0625443272376123  0.8451113482904209
  0.3033378080156628  0.2854414822897424  0.0938757071713745
  0.3583246800391243  0.3353741773534136  0.3789773720605401
  0.2929066080772881  0.3450292411997414  0.6735252379218573
  0.3709106871751942  0.3440011113129129  0.8440963959154272
  0.1404386726484049  0.6084894593625547  0.0731768401445276
  0.1186811421177669  0.5811796094861804  0.4416758540463924
  0.2509555523296483  0.7008455471609024  0.6033563370720521
  0.2033017472089236  0.6691036558442993  0.8934811914898350
  0.8412328789745576  0.3186766852504521  0.0914858048796526
  0.9490675741721364  0.4267342873853623  0.3477942529716461
  0.8829291072097024  0.3602617744446181  0.6570007507113039
  0.8121963100849182  0.3493987055194283  0.8248640993904696
  0.7021254947945115  0.6608335393155894  0.1044003915354160
  0.6008048512756066  0.5636913898504293  0.4041313644335885
  0.6563164631466689  0.6416227230579689  0.5695695027728468
  0.6962276547662786  0.6974560660997098  0.8934208065607746
  0.3617445406425477  0.8259593082507931  0.1956295030633164
  0.3925015668062474  0.8706235786761589  0.3631649276814480
  0.4012562041888298  0.9313910267182799  0.5856343990626225
  0.3713999308411117  0.8923755978144582  0.9023472000885637
  0.9170864396350256  0.8566985284926297  0.1693724307184357
  0.9327097857691015  0.8857357527463873  0.3697485847510494
  0.8654148344946764  0.8603486398791899  0.6411579345050865
  0.8820932405669022  0.8394096284898547  0.8190997364344975
  0.8829003654511252  0.0860220633440941  0.0978670685131497
  0.8061712300964133  0.1431243333852784  0.3965215212420875
  0.9012298296511443  0.1495738676968529  0.5533843062755263
  0.8410304815121755  0.1254196587922037  0.8875844882491605
  0.3822503327216336  0.1148924194759797  0.1934446787632403
  0.3293932901670547  0.1113043338346475  0.3594312606562110
  0.4167197739780403  0.1490476073678942  0.6482938200929519
  0.3876655748234467  0.1128067766231264  0.8150673281834908
  0.0731386225523034  0.3966954245957519  0.1274107401414893
  0.1418462229530262  0.2944955186175335  0.3060584924961094
  0.0644826865265468  0.4769855446740365  0.6029737084882751
  0.0711799914588813  0.4319181595441258  0.9176832492559143
  0.9072384043309346  0.5935447326329617  0.1768283390888113
  0.8095848918471372  0.6377544394007518  0.3446637270709241
  0.8734956399297187  0.6320767638625073  0.6572261821150209
  0.9211908967248511  0.5957756891294438  0.8221333620981388
  0.5910875660570128  0.4485940439775177  0.0755241239926401
  0.6424176638911305  0.3062959722339988  0.3690238953739260
  0.6150758649722401  0.4067162621252141  0.5488909338262150
  0.5919786957632657  0.4165601462829467  0.8836040171844236
  0.3935837510131225  0.5940399079072434  0.1442525150572978
  0.3200667965419249  0.6388838064790454  0.3574635150534215
  0.4389584742567466  0.5336828305440033  0.6460078637362003
  0.4236125434532425  0.5869352815887245  0.8529723403373655
  0.1467172090767584  0.8559805995144724  0.0934496005869236
  0.1463015471749395  0.8138754874700481  0.4328558101380721
  0.0837626209670972  0.9596657850316342  0.6136496277130590
  0.1127494187629426  0.8878235739569349  0.9059124286965662
  0.5781219758755581  0.9142924200127097  0.1852774130957804
  0.6373348503531757  0.8161922517183762  0.4125062628946725
  0.5939464025548817  0.9557111955647828  0.6718512757827051
  0.5890906666404785  0.8862515615135057  0.9721428347789934
 
  0.00000000E+00  0.00000000E+00  0.00000000E+00
  0.00000000E+00  0.00000000E+00  0.00000000E+00
  0.00000000E+00  0.00000000E+00  0.00000000E+00
  0.00000000E+00  0.00000000E+00  0.00000000E+00
  0.00000000E+00  0.00000000E+00  0.00000000E+00
  0.00000000E+00  0.00000000E+00  0.00000000E+00
  0.00000000E+00  0.00000000E+00  0.00000000E+00
  0.00000000E+00  0.00000000E+00  0.00000000E+00
  0.00000000E+00  0.00000000E+00  0.00000000E+00
  0.00000000E+00  0.00000000E+00  0.00000000E+00
  0.00000000E+00  0.00000000E+00  0.00000000E+00
  0.00000000E+00  0.00000000E+00  0.00000000E+00
  0.00000000E+00  0.00000000E+00  0.00000000E+00
  0.00000000E+00  0.00000000E+00  0.00000000E+00
  0.00000000E+00  0.00000000E+00  0.00000000E+00
  0.00000000E+00  0.00000000E+00  0.00000000E+00
  0.00000000E+00  0.00000000E+00  0.00000000E+00
  0.00000000E+00  0.00000000E+00  0.00000000E+00
  0.00000000E+00  0.00000000E+00  0.00000000E+00
  0.00000000E+00  0.00000000E+00  0.00000000E+00
  0.00000000E+00  0.00000000E+00  0.00000000E+00
  0.00000000E+00  0.00000000E+00  0.00000000E+00
  0.00000000E+00  0.00000000E+00  0.00000000E+00
  0.00000000E+00  0.00000000E+00  0.00000000E+00
  0.00000000E+00  0.00000000E+00  0.00000000E+00
  0.00000000E+00  0.00000000E+00  0.00000000E+00
  0.00000000E+00  0.00000000E+00  0.00000000E+00
  0.00000000E+00  0.00000000E+00  0.00000000E+00
  0.00000000E+00  0.00000000E+00  0.00000000E+00
  0.00000000E+00  0.00000000E+00  0.00000000E+00
  0.00000000E+00  0.00000000E+00  0.00000000E+00
  0.00000000E+00  0.00000000E+00  0.00000000E+00
  0.00000000E+00  0.00000000E+00  0.00000000E+00
  0.00000000E+00  0.00000000E+00  0.00000000E+00
  0.00000000E+00  0.00000000E+00  0.00000000E+00
  0.00000000E+00  0.00000000E+00  0.00000000E+00
  0.00000000E+00  0.00000000E+00  0.00000000E+00
  0.00000000E+00  0.00000000E+00  0.00000000E+00
  0.00000000E+00  0.00000000E+00  0.00000000E+00
  0.00000000E+00  0.00000000E+00  0.00000000E+00
  0.00000000E+00  0.00000000E+00  0.00000000E+00
  0.00000000E+00  0.00000000E+00  0.00000000E+00
  0.00000000E+00  0.00000000E+00  0.00000000E+00
  0.00000000E+00  0.00000000E+00  0.00000000E+00
  0.00000000E+00  0.00000000E+00  0.00000000E+00
  0.00000000E+00  0.00000000E+00  0.00000000E+00
  0.00000000E+00  0.00000000E+00  0.00000000E+00
  0.00000000E+00  0.00000000E+00  0.00000000E+00
  0.00000000E+00  0.00000000E+00  0.00000000E+00
  0.00000000E+00  0.00000000E+00  0.00000000E+00
  0.00000000E+00  0.00000000E+00  0.00000000E+00
  0.00000000E+00  0.00000000E+00  0.00000000E+00
  0.00000000E+00  0.00000000E+00  0.00000000E+00
  0.00000000E+00  0.00000000E+00  0.00000000E+00
  0.00000000E+00  0.00000000E+00  0.00000000E+00
  0.00000000E+00  0.00000000E+00  0.00000000E+00
  0.00000000E+00  0.00000000E+00  0.00000000E+00
  0.00000000E+00  0.00000000E+00  0.00000000E+00
  0.00000000E+00  0.00000000E+00  0.00000000E+00
  0.00000000E+00  0.00000000E+00  0.00000000E+00
  0.00000000E+00  0.00000000E+00  0.00000000E+00
  0.00000000E+00  0.00000000E+00  0.00000000E+00
  0.00000000E+00  0.00000000E+00  0.00000000E+00
  0.00000000E+00  0.00000000E+00  0.00000000E+00
  0.00000000E+00  0.00000000E+00  0.00000000E+00
  0.00000000E+00  0.00000000E+00  0.00000000E+00
  0.00000000E+00  0.00000000E+00  0.00000000E+00
  0.00000000E+00  0.00000000E+00  0.00000000E+00
  0.00000000E+00  0.00000000E+00  0.00000000E+00
  0.00000000E+00  0.00000000E+00  0.00000000E+00
  0.00000000E+00  0.00000000E+00  0.00000000E+00
  0.00000000E+00  0.00000000E+00  0.00000000E+00
  0.00000000E+00  0.00000000E+00  0.00000000E+00
  0.00000000E+00  0.00000000E+00  0.00000000E+00
  0.00000000E+00  0.00000000E+00  0.00000000E+00
  0.00000000E+00  0.00000000E+00  0.00000000E+00
  0.00000000E+00  0.00000000E+00  0.00000000E+00
  0.00000000E+00  0.00000000E+00  0.00000000E+00
  0.00000000E+00  0.00000000E+00  0.00000000E+00
  0.00000000E+00  0.00000000E+00  0.00000000E+00
  0.00000000E+00  0.00000000E+00  0.00000000E+00
  0.00000000E+00  0.00000000E+00  0.00000000E+00
  0.00000000E+00  0.00000000E+00  0.00000000E+00
  0.00000000E+00  0.00000000E+00  0.00000000E+00
  0.00000000E+00  0.00000000E+00  0.00000000E+00
  0.00000000E+00  0.00000000E+00  0.00000000E+00
  0.00000000E+00  0.00000000E+00  0.00000000E+00
  0.00000000E+00  0.00000000E+00  0.00000000E+00
  0.00000000E+00  0.00000000E+00  0.00000000E+00
  0.00000000E+00  0.00000000E+00  0.00000000E+00
  0.00000000E+00  0.00000000E+00  0.00000000E+00
  0.00000000E+00  0.00000000E+00  0.00000000E+00
  0.00000000E+00  0.00000000E+00  0.00000000E+00
  0.00000000E+00  0.00000000E+00  0.00000000E+00
  0.00000000E+00  0.00000000E+00  0.00000000E+00
  0.00000000E+00  0.00000000E+00  0.00000000E+00
  0.00000000E+00  0.00000000E+00  0.00000000E+00
  0.00000000E+00  0.00000000E+00  0.00000000E+00
  0.00000000E+00  0.00000000E+00  0.00000000E+00
  0.00000000E+00  0.00000000E+00  0.00000000E+00
  0.00000000E+00  0.00000000E+00  0.00000000E+00
  0.00000000E+00  0.00000000E+00  0.00000000E+00
  0.00000000E+00  0.00000000E+00  0.00000000E+00
  0.00000000E+00  0.00000000E+00  0.00000000E+00
  0.00000000E+00  0.00000000E+00  0.00000000E+00
  0.00000000E+00  0.00000000E+00  0.00000000E+00
  0.00000000E+00  0.00000000E+00  0.00000000E+00
  0.00000000E+00  0.00000000E+00  0.00000000E+00
  0.00000000E+00  0.00000000E+00  0.00000000E+00
  0.00000000E+00  0.00000000E+00  0.00000000E+00
  0.00000000E+00  0.00000000E+00  0.00000000E+00
  0.00000000E+00  0.00000000E+00  0.00000000E+00
  0.00000000E+00  0.00000000E+00  0.00000000E+00
  0.00000000E+00  0.00000000E+00  0.00000000E+00
  0.00000000E+00  0.00000000E+00  0.00000000E+00
  0.00000000E+00  0.00000000E+00  0.00000000E+00
  0.00000000E+00  0.00000000E+00  0.00000000E+00
  0.00000000E+00  0.00000000E+00  0.00000000E+00
  0.00000000E+00  0.00000000E+00  0.00000000E+00
  0.00000000E+00  0.00000000E+00  0.00000000E+00
  0.00000000E+00  0.00000000E+00  0.00000000E+00
  0.00000000E+00  0.00000000E+00  0.00000000E+00
  0.00000000E+00  0.00000000E+00  0.00000000E+00
  0.00000000E+00  0.00000000E+00  0.00000000E+00
  0.00000000E+00  0.00000000E+00  0.00000000E+00
  0.00000000E+00  0.00000000E+00  0.00000000E+00
  0.00000000E+00  0.00000000E+00  0.00000000E+00
  0.00000000E+00  0.00000000E+00  0.00000000E+00
  0.00000000E+00  0.00000000E+00  0.00000000E+00
  0.00000000E+00  0.00000000E+00  0.00000000E+00
  0.00000000E+00  0.00000000E+00  0.00000000E+00
  0.00000000E+00  0.00000000E+00  0.00000000E+00
  0.00000000E+00  0.00000000E+00  0.00000000E+00
  0.00000000E+00  0.00000000E+00  0.00000000E+00
  0.00000000E+00  0.00000000E+00  0.00000000E+00
  0.00000000E+00  0.00000000E+00  0.00000000E+00
  0.00000000E+00  0.00000000E+00  0.00000000E+00
  0.00000000E+00  0.00000000E+00  0.00000000E+00
  0.00000000E+00  0.00000000E+00  0.00000000E+00
  0.00000000E+00  0.00000000E+00  0.00000000E+00
  0.00000000E+00  0.00000000E+00  0.00000000E+00
  0.00000000E+00  0.00000000E+00  0.00000000E+00
  0.00000000E+00  0.00000000E+00  0.00000000E+00
  0.00000000E+00  0.00000000E+00  0.00000000E+00
  0.00000000E+00  0.00000000E+00  0.00000000E+00
  0.00000000E+00  0.00000000E+00  0.00000000E+00
  0.00000000E+00  0.00000000E+00  0.00000000E+00
  0.00000000E+00  0.00000000E+00  0.00000000E+00
  0.00000000E+00  0.00000000E+00  0.00000000E+00
  0.00000000E+00  0.00000000E+00  0.00000000E+00
  0.00000000E+00  0.00000000E+00  0.00000000E+00
  0.00000000E+00  0.00000000E+00  0.00000000E+00
  0.00000000E+00  0.00000000E+00  0.00000000E+00
  0.00000000E+00  0.00000000E+00  0.00000000E+00
  0.00000000E+00  0.00000000E+00  0.00000000E+00
  0.00000000E+00  0.00000000E+00  0.00000000E+00
  0.00000000E+00  0.00000000E+00  0.00000000E+00
  0.00000000E+00  0.00000000E+00  0.00000000E+00
  0.00000000E+00  0.00000000E+00  0.00000000E+00
  0.00000000E+00  0.00000000E+00  0.00000000E+00
