Tl Pd  I                                
   1.00000000000000     
    11.1321159999999999  -11.1321159999999999    0.0000000000000000
    11.1321159999999999   11.1321159999999999    0.0000000000000000
     0.0000000000000000    0.0000000000000000   22.2642319999999998
   Tl   Pd   I 
    32    32    96
Direct
  0.9775677701323586  0.0297339203952007  0.0143451760183634
  0.9626629670565069  0.0378494044033549  0.2417501603177183
  0.9905459876820997  0.9852811850266679  0.4809976969594006
  0.9673520674661813  0.9817710653471129  0.7328958723124501
  0.4858840076776691  0.9739325794738094  0.0212119953640469
  0.5048913860675514 -0.0011824412331363  0.2637147457658635
  0.4672517463585740  0.0290860136406125  0.5031521901021906
  0.5042424037613246  0.0055081874434293  0.7631949268172554
  0.2556871959886000  0.2194079577295495  0.0215123517501302
  0.2509214799510368  0.2111670547146917  0.2470899404571086
  0.2499566456340787  0.2633636992630432  0.5317857274907450
  0.2349347514647029  0.2285687024622900  0.7456996805030834
  0.0518872362720171  0.4793340195079728  0.0103443045036315
  0.0160192943920005  0.4901059835738006  0.2442559657395022
  0.9811269807737758  0.5018592551767848  0.5349639313363143
  0.0272106046870175  0.5128174028500587  0.7708910518267234
  0.7938356468108950  0.2843740981768882  0.0021131474729310
  0.7692517447781791  0.2837980215877351  0.2360098100641543
  0.7917799170201578  0.2825647705924827  0.5002906060257563
  0.7706981226442657  0.2582612497771918  0.7623073951196678
  0.4903447797848571  0.5014827055463157  0.9751919534656676
  0.5411436910386562  0.4795350525899869  0.2332663441744577
  0.4737119203044460  0.5031289666455092  0.4842368793670690
  0.4855768808811485  0.5343966532761911  0.7298625609357703
  0.2241970280512680  0.7615689679547611  0.9954371657209891
  0.2085943298535023  0.7242706568037585  0.2562846082671228
  0.2075608947686088  0.7218123911741838  0.4949629733518267
  0.2423243369188584  0.7724935853795690  0.7176213502022941
  0.7479628970343889  0.7475885183021116  0.9684378934063834
  0.7487119355801382  0.7904333651948556  0.2450190458703415
  0.7460002048829979  0.7439155118239930  0.5183746960496818
  0.7300137424603511  0.7383490941666772  0.7574502545668926
  0.0110412876593390  0.2524454484107339  0.1272641824285394
  0.0146187300106669  0.2649681185529290  0.3820879769844615
 -0.0022286414999215  0.2385520815206911  0.6266753007059652
  0.0137908440122979  0.2405172755042123  0.8739973922656744
  0.5126785642240355  0.2486383590319022  0.1171922371601811
  0.5267755274599514  0.2501567107147229  0.3708564517227599
  0.5054252482921424  0.2561685706433901  0.6265685427418652
  0.5026005719192944  0.2450733192644498  0.8705598715869768
  0.2797160122940301  0.4804301668073410  0.1263285879886513
  0.2505929674730813  0.4868106388062150  0.3774144117279374
  0.2501353762987105  0.4935233244804552  0.6328980731349915
  0.2730859247896116  0.4884002589592119  0.8705541281272010
  0.9923425618592812  0.7532316918650297  0.1118591032794374
  0.9740673168883677  0.7434078359216028  0.3749912966629363
  0.9788296421640821  0.7478217598570754  0.6338195559550516
  0.9852547452245295  0.7505971165130004  0.8786727550349640
  0.7681509109055275  0.5103426657161608  0.1095239059546387
  0.7526802974648359  0.5086104380482022  0.3717355611029684
  0.7388482059322709  0.5069613094841455  0.6311711405206769
  0.7468745951548822  0.4849786932357651  0.8709557382517312
  0.5014914011848135  0.7458824303577309  0.1322869029999062
  0.4927621417659991  0.7408672021898987  0.3696884295623287
  0.4899963089648749  0.7648707746190430  0.6137918771636162
  0.4850481186788026  0.7552212770242230  0.8729769751928699
  0.2437555929914397  0.9818535990761239  0.1346786077293191
  0.2466708876504032  0.9893872196652724  0.3753215622008833
  0.2579612473765169  0.0029915914536135  0.6134196279887342
  0.2490756376264361  0.0012702908367465  0.8735456404933476
  0.7367704337581135  0.0218542615985934  0.1233001934826997
  0.7455980221314343  0.0008844574192171  0.3762783520537458
  0.7364411924024977  0.0123023184149681  0.6196656362530105
  0.7446563799491707  0.0104884020083517  0.8773782654348128
  0.0287642458536987  0.2486201453004656  0.9994830451824588
 -0.0042134531371686  0.2647167694165404  0.2592869738760455
  0.0237991261923015  0.2807873225137441  0.5033123374702442
  0.9924414540016154  0.2174896197473492  0.7499488710438676
  0.4685002676430760  0.2770648848555662  0.0008372635160247
  0.5484796984020307  0.2242715442693137  0.2335483277971663
  0.4745404296422428  0.2667072588341291  0.5069537739910916
  0.5417645770510021  0.2279148855748347  0.7471830159344086
  0.2714331316096524  0.4534269972539609  0.9884117493619752
  0.2463824561170336  0.5049994628258250  0.2578731547754676
  0.2368872698866173  0.4797872345072193  0.4982818890698681
  0.2554446640365506  0.5432748518266343  0.7581015652393771
  0.0054390658813983  0.8085950027598309  0.9970864672171839
  0.9766885340090601  0.7108168497799159  0.2269087866861182
  0.9695442636126905  0.7382967768644867  0.5132073486935278
  0.0187496792731412  0.7452850911000167  0.7549076344462180
  0.7227789292360955  0.5214234297057327  0.9916717381334444
  0.7819106413419398  0.5097995607446023  0.2316111205204133
  0.7590704033003907  0.5184294558068920  0.5114395076036852
  0.7045528662811785  0.4734956454653972  0.7501907646089497
  0.5289022054948180  0.7454496227859115  0.0106727490269015
  0.4503594708870700  0.7648035411528084  0.2531544004597990
  0.5256328791348600  0.7288697804523304  0.4922988987787902
  0.4658204373082528  0.7693333399352603  0.7352625810040443
  0.2313800192723762  0.9902405761445598  0.0127843945145234
  0.2819223980235382  0.9578590385898892  0.2561116160397640
  0.2255303998276922  0.0393154359676869  0.4922274112182930
  0.2669911056664651  0.9909618814810298  0.7339143322857897
  0.7524386418771168  0.9701787744807675  0.9932271221399176
  0.7339578859115039  0.0433673611480283  0.2605774506609130
  0.7666688303084215  0.9613794675893500  0.4916880090825997
  0.7420056341930449  0.0383508254763795  0.7591112160866806
  0.1132506322871995  0.1166680680948644  0.1370659915540642
  0.1243195766998917  0.0954299905980537  0.3467426007196689
  0.1292292004248025  0.1239677368247894  0.6282918218623571
  0.0979216312126627  0.0854540052211164  0.8724651150959689
  0.6259234459777795  0.1348498929995171  0.0765305012348507
  0.6306274039210600  0.1214121162477809  0.4122620764206226
  0.6595037176812172  0.1628913610480136  0.6028853963874244
  0.5898049447231293  0.1024122637185290  0.8967061939642978
  0.3846766242565313  0.3523367485927760  0.1588208652884550
  0.4177453472643865  0.3785350816929864  0.3548973325064907
  0.3663295898274123  0.3680845516411272  0.6552550082076430
  0.4125082679257120  0.3844282317008297  0.8439225418559285
  0.1684283408490819  0.6098169466761481  0.1105566363258093
  0.0830588748182076  0.6126493023006168  0.3778425827225133
  0.1304375366807367  0.6170237876864082  0.6223143472528123
  0.0979037384088820  0.6243887139594257  0.8983015617417708
  0.9080812988682487  0.3861649083137479  0.1180857898624979
  0.8980534153282128  0.4210991442873285  0.3803954193582983
  0.8713949080244819  0.3594625777595661  0.6351255129069880
  0.9064374355693301  0.3781581410005368  0.8749343292504629
  0.6377230203326228  0.6531209105174387  0.1563506287529519
  0.6020268354905679  0.5897273819114544  0.3623472450700754
  0.6191271419682847  0.6560337164823900  0.6345134280248174
  0.5913727317955896  0.6241214515033874  0.8610565470107718
  0.3631095658853683  0.8385092706993157  0.1097745017459930
  0.3677683170381286  0.8822340701662310  0.4063675676258866
  0.3453618536315414  0.8534217446370649  0.5868306406415771
  0.3922817091798840  0.9015065797739468  0.8885591085887906
  0.8591477351750380  0.9039339007538404  0.1382295834918775
  0.8843658890645739  0.8943891442757181  0.3514571446793220
  0.8186384592913635  0.8654894493019031  0.6450647497471543
  0.8710866682729703  0.8737073663233890  0.8573462077800412
  0.8583693014405036  0.1473978636228836  0.1214653200970610
  0.8887599019731680  0.1489650036250964  0.3910916489094822
  0.8892709284631461  0.0931377577271075  0.6080361219263947
  0.8688810799158448  0.1349712103368576  0.8917033042957164
  0.3727143731226461  0.0992863136668603  0.1304415508546613
  0.3949627065129194  0.1410351567253184  0.3638771291414268
  0.3850576934126153  0.1279278290807808  0.6307921239014758
  0.3396663469732678  0.1477053724781242  0.8788993524319249
  0.1514236255391581  0.3636452879852940  0.1307796454035231
  0.1721550340750648  0.3336956999063813  0.3721311622852106
  0.1221749564661285  0.3791843176900884  0.6510874125287348
  0.1457763675171583  0.3645292229552785  0.8583326974918715
  0.8862242451463684  0.6332213668254332  0.0724541669286732
  0.8211470848725206  0.6665681795931009  0.3726391471317956
  0.8767142863379916  0.6108997035303776  0.6581138834337763
  0.8506502623270781  0.6177536228458245  0.8559015941296256
  0.6531570743799308  0.3820548407803599  0.1165649477552505
  0.6710974563795792  0.3502835713317069  0.3728614385722101
  0.6071113570584518  0.4021678346116024  0.6031362674910973
  0.6527874647198715  0.3445997102613237  0.8894058317496765
  0.4190375686269212  0.5794577538881193  0.1186030989575945
  0.3466264827900140  0.6337360234052091  0.3871808112519659
  0.3708547328134059  0.6114785133564427  0.6084288498467593
  0.3521772405255442  0.6480522942201095  0.8956722503541263
  0.1114917703311332  0.8666663745705394  0.1530001775746260
  0.1131128602759400  0.8430600205381178  0.3774373627802373
  0.0915789197067132  0.8738023442817024  0.6176236327094865
  0.1555874655979600  0.8626543320891533  0.8621937099648860
  0.6132864210482397  0.9022597188962742  0.1393860276666017
  0.6149219089486813  0.8624433741068145  0.3618445262379486
  0.5840186524733769  0.9317575423700819  0.6220899291124480
  0.6202017630282447  0.8605806448624226  0.8611506977216143
 
  0.00000000E+00  0.00000000E+00  0.00000000E+00
  0.00000000E+00  0.00000000E+00  0.00000000E+00
  0.00000000E+00  0.00000000E+00  0.00000000E+00
  0.00000000E+00  0.00000000E+00  0.00000000E+00
  0.00000000E+00  0.00000000E+00  0.00000000E+00
  0.00000000E+00  0.00000000E+00  0.00000000E+00
  0.00000000E+00  0.00000000E+00  0.00000000E+00
  0.00000000E+00  0.00000000E+00  0.00000000E+00
  0.00000000E+00  0.00000000E+00  0.00000000E+00
  0.00000000E+00  0.00000000E+00  0.00000000E+00
  0.00000000E+00  0.00000000E+00  0.00000000E+00
  0.00000000E+00  0.00000000E+00  0.00000000E+00
  0.00000000E+00  0.00000000E+00  0.00000000E+00
  0.00000000E+00  0.00000000E+00  0.00000000E+00
  0.00000000E+00  0.00000000E+00  0.00000000E+00
  0.00000000E+00  0.00000000E+00  0.00000000E+00
  0.00000000E+00  0.00000000E+00  0.00000000E+00
  0.00000000E+00  0.00000000E+00  0.00000000E+00
  0.00000000E+00  0.00000000E+00  0.00000000E+00
  0.00000000E+00  0.00000000E+00  0.00000000E+00
  0.00000000E+00  0.00000000E+00  0.00000000E+00
  0.00000000E+00  0.00000000E+00  0.00000000E+00
  0.00000000E+00  0.00000000E+00  0.00000000E+00
  0.00000000E+00  0.00000000E+00  0.00000000E+00
  0.00000000E+00  0.00000000E+00  0.00000000E+00
  0.00000000E+00  0.00000000E+00  0.00000000E+00
  0.00000000E+00  0.00000000E+00  0.00000000E+00
  0.00000000E+00  0.00000000E+00  0.00000000E+00
  0.00000000E+00  0.00000000E+00  0.00000000E+00
  0.00000000E+00  0.00000000E+00  0.00000000E+00
  0.00000000E+00  0.00000000E+00  0.00000000E+00
  0.00000000E+00  0.00000000E+00  0.00000000E+00
  0.00000000E+00  0.00000000E+00  0.00000000E+00
  0.00000000E+00  0.00000000E+00  0.00000000E+00
  0.00000000E+00  0.00000000E+00  0.00000000E+00
  0.00000000E+00  0.00000000E+00  0.00000000E+00
  0.00000000E+00  0.00000000E+00  0.00000000E+00
  0.00000000E+00  0.00000000E+00  0.00000000E+00
  0.00000000E+00  0.00000000E+00  0.00000000E+00
  0.00000000E+00  0.00000000E+00  0.00000000E+00
  0.00000000E+00  0.00000000E+00  0.00000000E+00
  0.00000000E+00  0.00000000E+00  0.00000000E+00
  0.00000000E+00  0.00000000E+00  0.00000000E+00
  0.00000000E+00  0.00000000E+00  0.00000000E+00
  0.00000000E+00  0.00000000E+00  0.00000000E+00
  0.00000000E+00  0.00000000E+00  0.00000000E+00
  0.00000000E+00  0.00000000E+00  0.00000000E+00
  0.00000000E+00  0.00000000E+00  0.00000000E+00
  0.00000000E+00  0.00000000E+00  0.00000000E+00
  0.00000000E+00  0.00000000E+00  0.00000000E+00
  0.00000000E+00  0.00000000E+00  0.00000000E+00
  0.00000000E+00  0.00000000E+00  0.00000000E+00
  0.00000000E+00  0.00000000E+00  0.00000000E+00
  0.00000000E+00  0.00000000E+00  0.00000000E+00
  0.00000000E+00  0.00000000E+00  0.00000000E+00
  0.00000000E+00  0.00000000E+00  0.00000000E+00
  0.00000000E+00  0.00000000E+00  0.00000000E+00
  0.00000000E+00  0.00000000E+00  0.00000000E+00
  0.00000000E+00  0.00000000E+00  0.00000000E+00
  0.00000000E+00  0.00000000E+00  0.00000000E+00
  0.00000000E+00  0.00000000E+00  0.00000000E+00
  0.00000000E+00  0.00000000E+00  0.00000000E+00
  0.00000000E+00  0.00000000E+00  0.00000000E+00
  0.00000000E+00  0.00000000E+00  0.00000000E+00
  0.00000000E+00  0.00000000E+00  0.00000000E+00
  0.00000000E+00  0.00000000E+00  0.00000000E+00
  0.00000000E+00  0.00000000E+00  0.00000000E+00
  0.00000000E+00  0.00000000E+00  0.00000000E+00
  0.00000000E+00  0.00000000E+00  0.00000000E+00
  0.00000000E+00  0.00000000E+00  0.00000000E+00
  0.00000000E+00  0.00000000E+00  0.00000000E+00
  0.00000000E+00  0.00000000E+00  0.00000000E+00
  0.00000000E+00  0.00000000E+00  0.00000000E+00
  0.00000000E+00  0.00000000E+00  0.00000000E+00
  0.00000000E+00  0.00000000E+00  0.00000000E+00
  0.00000000E+00  0.00000000E+00  0.00000000E+00
  0.00000000E+00  0.00000000E+00  0.00000000E+00
  0.00000000E+00  0.00000000E+00  0.00000000E+00
  0.00000000E+00  0.00000000E+00  0.00000000E+00
  0.00000000E+00  0.00000000E+00  0.00000000E+00
  0.00000000E+00  0.00000000E+00  0.00000000E+00
  0.00000000E+00  0.00000000E+00  0.00000000E+00
  0.00000000E+00  0.00000000E+00  0.00000000E+00
  0.00000000E+00  0.00000000E+00  0.00000000E+00
  0.00000000E+00  0.00000000E+00  0.00000000E+00
  0.00000000E+00  0.00000000E+00  0.00000000E+00
  0.00000000E+00  0.00000000E+00  0.00000000E+00
  0.00000000E+00  0.00000000E+00  0.00000000E+00
  0.00000000E+00  0.00000000E+00  0.00000000E+00
  0.00000000E+00  0.00000000E+00  0.00000000E+00
  0.00000000E+00  0.00000000E+00  0.00000000E+00
  0.00000000E+00  0.00000000E+00  0.00000000E+00
  0.00000000E+00  0.00000000E+00  0.00000000E+00
  0.00000000E+00  0.00000000E+00  0.00000000E+00
  0.00000000E+00  0.00000000E+00  0.00000000E+00
  0.00000000E+00  0.00000000E+00  0.00000000E+00
  0.00000000E+00  0.00000000E+00  0.00000000E+00
  0.00000000E+00  0.00000000E+00  0.00000000E+00
  0.00000000E+00  0.00000000E+00  0.00000000E+00
  0.00000000E+00  0.00000000E+00  0.00000000E+00
  0.00000000E+00  0.00000000E+00  0.00000000E+00
  0.00000000E+00  0.00000000E+00  0.00000000E+00
  0.00000000E+00  0.00000000E+00  0.00000000E+00
  0.00000000E+00  0.00000000E+00  0.00000000E+00
  0.00000000E+00  0.00000000E+00  0.00000000E+00
  0.00000000E+00  0.00000000E+00  0.00000000E+00
  0.00000000E+00  0.00000000E+00  0.00000000E+00
  0.00000000E+00  0.00000000E+00  0.00000000E+00
  0.00000000E+00  0.00000000E+00  0.00000000E+00
  0.00000000E+00  0.00000000E+00  0.00000000E+00
  0.00000000E+00  0.00000000E+00  0.00000000E+00
  0.00000000E+00  0.00000000E+00  0.00000000E+00
  0.00000000E+00  0.00000000E+00  0.00000000E+00
  0.00000000E+00  0.00000000E+00  0.00000000E+00
  0.00000000E+00  0.00000000E+00  0.00000000E+00
  0.00000000E+00  0.00000000E+00  0.00000000E+00
  0.00000000E+00  0.00000000E+00  0.00000000E+00
  0.00000000E+00  0.00000000E+00  0.00000000E+00
  0.00000000E+00  0.00000000E+00  0.00000000E+00
  0.00000000E+00  0.00000000E+00  0.00000000E+00
  0.00000000E+00  0.00000000E+00  0.00000000E+00
  0.00000000E+00  0.00000000E+00  0.00000000E+00
  0.00000000E+00  0.00000000E+00  0.00000000E+00
  0.00000000E+00  0.00000000E+00  0.00000000E+00
  0.00000000E+00  0.00000000E+00  0.00000000E+00
  0.00000000E+00  0.00000000E+00  0.00000000E+00
  0.00000000E+00  0.00000000E+00  0.00000000E+00
  0.00000000E+00  0.00000000E+00  0.00000000E+00
  0.00000000E+00  0.00000000E+00  0.00000000E+00
  0.00000000E+00  0.00000000E+00  0.00000000E+00
  0.00000000E+00  0.00000000E+00  0.00000000E+00
  0.00000000E+00  0.00000000E+00  0.00000000E+00
  0.00000000E+00  0.00000000E+00  0.00000000E+00
  0.00000000E+00  0.00000000E+00  0.00000000E+00
  0.00000000E+00  0.00000000E+00  0.00000000E+00
  0.00000000E+00  0.00000000E+00  0.00000000E+00
  0.00000000E+00  0.00000000E+00  0.00000000E+00
  0.00000000E+00  0.00000000E+00  0.00000000E+00
  0.00000000E+00  0.00000000E+00  0.00000000E+00
  0.00000000E+00  0.00000000E+00  0.00000000E+00
  0.00000000E+00  0.00000000E+00  0.00000000E+00
  0.00000000E+00  0.00000000E+00  0.00000000E+00
  0.00000000E+00  0.00000000E+00  0.00000000E+00
  0.00000000E+00  0.00000000E+00  0.00000000E+00
  0.00000000E+00  0.00000000E+00  0.00000000E+00
  0.00000000E+00  0.00000000E+00  0.00000000E+00
  0.00000000E+00  0.00000000E+00  0.00000000E+00
  0.00000000E+00  0.00000000E+00  0.00000000E+00
  0.00000000E+00  0.00000000E+00  0.00000000E+00
  0.00000000E+00  0.00000000E+00  0.00000000E+00
  0.00000000E+00  0.00000000E+00  0.00000000E+00
  0.00000000E+00  0.00000000E+00  0.00000000E+00
  0.00000000E+00  0.00000000E+00  0.00000000E+00
  0.00000000E+00  0.00000000E+00  0.00000000E+00
  0.00000000E+00  0.00000000E+00  0.00000000E+00
  0.00000000E+00  0.00000000E+00  0.00000000E+00
  0.00000000E+00  0.00000000E+00  0.00000000E+00
  0.00000000E+00  0.00000000E+00  0.00000000E+00
  0.00000000E+00  0.00000000E+00  0.00000000E+00
  0.00000000E+00  0.00000000E+00  0.00000000E+00
