Cs Zn Cl                                
   1.00000000000000     
    10.1593549999999997  -10.1593549999999997    0.0000000000000000
    10.1593549999999997   10.1593549999999997    0.0000000000000000
     0.0000000000000000    0.0000000000000000   20.3187099999999994
   Cl   Cs   Zn
    96    32    32
Direct
  0.0042591882285008  0.2531565374396433  0.9870397628589803
  0.0076347147674622  0.2451963072172034  0.2574537037244296
  0.0021589819025756  0.2479653880068747  0.4902286292598532
  0.0024558360639097  0.2542159224184513  0.7668132855175449
  0.5105197354410114  0.2437356975055758  0.0179291699174327
  0.5122570581647666  0.2469187799473000  0.2312971722953652
  0.5057804439768790  0.2503435140815806  0.5082605430622543
  0.4965359524831831  0.2468433140793350  0.7399151324926363
  0.2532247122207734  0.5029907023097855  0.9994052547190901
  0.2499962716647359  0.5115460842468067  0.2693321844723838
  0.2423106945027637  0.5107097431065277  0.4827986199323992
  0.2418948585142349  0.4907307897340475  0.7485938160909023
  0.9917845233168925  0.7554777081046146  0.0175635458083175
  0.9874978665075534  0.7517719537453105  0.2293212127018741
  0.9989084882234815  0.7497135588574015  0.5003921776242114
  0.0086661393968653  0.7583329944952178  0.7513011863112128
  0.7419908654215037  0.5071233980420921  0.9849596222978648
  0.7444016971997777  0.4877213668153392  0.2562276480243851
  0.7421690171519373  0.4902148722198050  0.4900031062009270
  0.7449253327283688  0.5089465325357942  0.7670900351122570
  0.4928321257272956  0.7415782020748473  0.0087399062986881
  0.4927188427111958  0.7476902231084448  0.2434750147208879
  0.5088733610778100  0.7423329601692809  0.5152727783865008
  0.5067354212657554  0.7410296037925138  0.7327670068447256
  0.2494486750926191  0.0022252698695117  0.0093658272564327
  0.2474515974626333  0.0089293985668369  0.2421776076702464
  0.2495826708624067  0.0002804533785318  0.5127440341520876
  0.2504228527198618  0.9973268697094682  0.7329464144724489
  0.7473555370204268  0.0019503858687293  0.9910629857274049
  0.7508152413134765  0.9891407512824425  0.2682707087295355
  0.7561396214489409  0.9882800397815831  0.4811404480717297
  0.7518695170595425  0.0012311997188481  0.7613285729828220
  0.1187308977540489  0.1491540554607244  0.1227819798962169
  0.1481923708924289  0.1174107594624507  0.3762982447579268
  0.1292341951419594  0.1245737558145175  0.6245045928781565
  0.1240076217663602  0.1276742267833561  0.8759251526173306
  0.6408119859752721  0.1048179446891434  0.1277494185859156
  0.6265182622636116  0.1281188371111920  0.3754402978938622
  0.6517665794393304  0.1124192604294624  0.6243007128812720
  0.6009170742065608  0.1343159747831947  0.8751153257905542
  0.3782180261833757  0.3804877409288201  0.1259523242832081
  0.3784296986296478  0.3771297804264460  0.3764970562119549
  0.3507130516971297  0.3777593631421723  0.6166886850111321
  0.3836131747767031  0.3431394985317514  0.8772880729458565
  0.1290566045971520  0.6264203799508116  0.1264772336861661
  0.1065938813211326  0.6394442828649370  0.3669499686712376
  0.1303888709469048  0.6053797078252088  0.6180343187333485
  0.1173574322947718  0.6456601285893516  0.8838588929578248
  0.9011296181244681  0.3614374123773597  0.1241329024278430
  0.8635924516141165  0.3704168569108606  0.3737116420796865
  0.8557506825096691  0.4001892591424884  0.6280219477513072
  0.8789320413478875  0.3763558387565141  0.8774253634757184
  0.6109647790976741  0.6212873029911781  0.1260912636696329
  0.6238885917372163  0.6115388871108776  0.3733227461471372
  0.6473168598893647  0.6097148552133143  0.6267628558500368
  0.6027581383973754  0.6381142489948849  0.8726743558604030
  0.3748801999371699  0.8665015028327473  0.1261376464713211
  0.3633650279648626  0.9028019915000078  0.3758951126847997
  0.3748985336075005  0.8762628174447330  0.6224082424924788
  0.3952886580382374  0.8499840191109244  0.8716650788346595
  0.8557808702511578  0.8867997596405186  0.1268652367625890
  0.8864579544685918  0.8539891199304017  0.3678780807796643
  0.8709935981694167  0.9068512926846952  0.6247010876725744
  0.9013383199962348  0.8750097255916173  0.8820722282701330
  0.8768553620962785  0.1214747013792347  0.1249542230175607
  0.8915350687105789  0.1235697392034373  0.3742743464595487
  0.8887789791114706  0.1560884354989213  0.6286385634158069
  0.8643743878182690  0.1206013968374964  0.8762923302774548
  0.3683625700477571  0.1188476570504022  0.1251728232163373
  0.3934624335617811  0.1429422667391977  0.3718126568891728
  0.3895152734986776  0.1299582471151798  0.6223575848666473
  0.3644325880292993  0.0934559965189514  0.8716684391451798
  0.1435058494712428  0.3930156393154248  0.1327463810658548
  0.1161204837242503  0.3689518993425249  0.3739774677111416
  0.0989092152885997  0.3675018814888360  0.6256100352115294
  0.1377987755019006  0.3940702203120920  0.8756748972825572
  0.8560618477633489  0.6015045166183498  0.1235637072474468
  0.8713402131285811  0.6180428747524467  0.3729018509545695
  0.8900309057992890  0.6473597946803517  0.6286196861835490
  0.8711937021893469  0.6332246734352007  0.8818578680024713
  0.6504049049281845  0.3830976292539831  0.1197971020532093
  0.6133678718374962  0.3622065176590555  0.3714238031021088
  0.6128236775452414  0.3671053730424372  0.6278526380338327
  0.6214465756961088  0.3753890200062723  0.8752743108117016
  0.3646861335840228  0.6163656372828328  0.1318097347210627
  0.3858761838978869  0.6516230490476805  0.3797818534805979
  0.3766265018031139  0.6196194240700740  0.6195021500449333
  0.3596757545951519  0.6038896800026778  0.8698723290036592
  0.1275904119227861  0.8906372585955659  0.1266350033634914
  0.1221327398700409  0.8771607050550954  0.3729302602915537
  0.1138429436502808  0.8572924098642729  0.6250681396027032
  0.1522445276156353  0.8842972630161229  0.8732431467914429
  0.6206720638765726  0.8707900110337431  0.1249350032983347
  0.6043695401702041  0.8565703703445195  0.3772455679858190
  0.6337911829092576  0.8706849792424166  0.6233952648983612
  0.6380548217791229  0.8790037860887012  0.8756234009616679
  0.0031925336166236  0.0052687789564163  0.0042771305623616
  0.9976327751499164  0.9974046281901467  0.2494557688302442
  0.0033926421782347  0.9981754577719221  0.4992626753490270
  0.0069507947134036  0.0054764632273120  0.7486007587894759
  0.4993056406248991  0.0004542580288106  0.0004722197129416
  0.5033897467303718  0.0007416821696638  0.2516748808138723
  0.5045578822368194  0.9982697276919734  0.4985853383104820
  0.5005767400754362  0.9945693680993691  0.7492280055928440
  0.2496976393007241  0.2544927430543009  0.0009739480615835
  0.2552876439663649  0.2548663211563322  0.2502886645792607
  0.2498714112460763  0.2474303594178128  0.4957762404212629
  0.2454960294298935  0.2457902770775525  0.7520565487242912
  0.9993326280279163  0.4999164181324311  0.0034180951875684
  0.9997649940823924  0.5017612886710268  0.2479039430390541
  0.9948563849354695  0.4996566573435318  0.4975090086828017
  0.9935979974251140  0.5001595307109601  0.7510526850547053
  0.7529120208958169  0.2513853352709776  0.0007354603200333
  0.7513752353478887  0.2437729288609560  0.2462970653017812
  0.7526463144344767  0.2439202019180152  0.5009295530596151
  0.7517436853760379  0.2540253251688094  0.7511041734928104
  0.4980898044503868  0.4938306302884570  0.9981763253528515
  0.4950514603860298  0.4944046848632934  0.2507042884537641
  0.4953506456321673  0.5022273179343391  0.4975003313338252
  0.4983179657690197  0.5007538866066609  0.7509359000777104
  0.2514762169815522  0.7517350664090756  0.0009325211798634
  0.2474530312396199  0.7522974813595540  0.2533569650753930
  0.2519397682733479  0.7556043331033032  0.4974517094771819
  0.2569938762326909  0.7510646762551160  0.7486024379637636
  0.7493298096486583  0.7473768331933596  0.0051555972873761
  0.7479843431323930  0.7475451801442848  0.2492575306409229
  0.7530335081582531  0.7476845070873244  0.4984881134082419
  0.7523982478069002  0.7484222037890710  0.7493312350353489
  0.9923238780224385  0.2375406933485049  0.1361182381098307
  0.9862740409669604  0.2619548226059949  0.3724621391517707
  0.0164087169802668  0.2387915445003396  0.6100578973545639
  0.9866806306009771  0.2389702866647400  0.8768483097414846
  0.4766205461595359  0.2503872354994942  0.1246172465266238
  0.5023780677389699  0.2526696035967654  0.3878034005303956
  0.4780068313772472  0.2696240705674682  0.6238722880771419
  0.5099859360785045  0.2575449350211537  0.8599045263338898
  0.2524250915229800  0.5046480265397548  0.1160011120991798
  0.2470115586790459  0.4759866679363725  0.3759827606250729
  0.2623890622471290  0.5170294356420609  0.6402363581440974
  0.2336756562124719  0.5153811791345474  0.8803127104025568
  0.0295752238627674  0.7546838848854541  0.1239220672332101
  0.0016270157515246  0.7518211701638059  0.3832145137973050
  0.0160950541726365  0.7368156403538036  0.6190056374829535
  0.9860211334061881  0.7344904277494990  0.8596959004375401
  0.7344462700078144  0.5096034067349564  0.1372691104392452
  0.7560934442324930  0.5073928998536427  0.3720708623031876
  0.7315268028241576  0.4849678320786076  0.6085837987497231
  0.7551460907074504  0.4828623607649113  0.8758817852756515
  0.5088292988053909  0.7548583070009582  0.1264873117429354
  0.5126315908709983  0.7353961235574170  0.3618125557139731
  0.4969753171011662  0.7677865070668101  0.6241362118692708
  0.5174810413852287  0.7622474614646877  0.8915543288920365
  0.2650696204379645  0.9880018599602691  0.1269661560743651
  0.2380051894366585  0.9917815792179374  0.3626972542670127
  0.2648783453900624  0.0120047731595295  0.6229755483520317
  0.2357654540879746  0.0122198067291627  0.8895757896811135
  0.7523990068722808  0.9998391659061923  0.1127740871015558
  0.7541308240248324  0.0262303778888855  0.3748392704176306
  0.7428615631396949  0.9897313378054566  0.6401399774149871
  0.7720808932930058  0.9807818614987814  0.8765449743243670
 
  0.00000000E+00  0.00000000E+00  0.00000000E+00
  0.00000000E+00  0.00000000E+00  0.00000000E+00
  0.00000000E+00  0.00000000E+00  0.00000000E+00
  0.00000000E+00  0.00000000E+00  0.00000000E+00
  0.00000000E+00  0.00000000E+00  0.00000000E+00
  0.00000000E+00  0.00000000E+00  0.00000000E+00
  0.00000000E+00  0.00000000E+00  0.00000000E+00
  0.00000000E+00  0.00000000E+00  0.00000000E+00
  0.00000000E+00  0.00000000E+00  0.00000000E+00
  0.00000000E+00  0.00000000E+00  0.00000000E+00
  0.00000000E+00  0.00000000E+00  0.00000000E+00
  0.00000000E+00  0.00000000E+00  0.00000000E+00
  0.00000000E+00  0.00000000E+00  0.00000000E+00
  0.00000000E+00  0.00000000E+00  0.00000000E+00
  0.00000000E+00  0.00000000E+00  0.00000000E+00
  0.00000000E+00  0.00000000E+00  0.00000000E+00
  0.00000000E+00  0.00000000E+00  0.00000000E+00
  0.00000000E+00  0.00000000E+00  0.00000000E+00
  0.00000000E+00  0.00000000E+00  0.00000000E+00
  0.00000000E+00  0.00000000E+00  0.00000000E+00
  0.00000000E+00  0.00000000E+00  0.00000000E+00
  0.00000000E+00  0.00000000E+00  0.00000000E+00
  0.00000000E+00  0.00000000E+00  0.00000000E+00
  0.00000000E+00  0.00000000E+00  0.00000000E+00
  0.00000000E+00  0.00000000E+00  0.00000000E+00
  0.00000000E+00  0.00000000E+00  0.00000000E+00
  0.00000000E+00  0.00000000E+00  0.00000000E+00
  0.00000000E+00  0.00000000E+00  0.00000000E+00
  0.00000000E+00  0.00000000E+00  0.00000000E+00
  0.00000000E+00  0.00000000E+00  0.00000000E+00
  0.00000000E+00  0.00000000E+00  0.00000000E+00
  0.00000000E+00  0.00000000E+00  0.00000000E+00
  0.00000000E+00  0.00000000E+00  0.00000000E+00
  0.00000000E+00  0.00000000E+00  0.00000000E+00
  0.00000000E+00  0.00000000E+00  0.00000000E+00
  0.00000000E+00  0.00000000E+00  0.00000000E+00
  0.00000000E+00  0.00000000E+00  0.00000000E+00
  0.00000000E+00  0.00000000E+00  0.00000000E+00
  0.00000000E+00  0.00000000E+00  0.00000000E+00
  0.00000000E+00  0.00000000E+00  0.00000000E+00
  0.00000000E+00  0.00000000E+00  0.00000000E+00
  0.00000000E+00  0.00000000E+00  0.00000000E+00
  0.00000000E+00  0.00000000E+00  0.00000000E+00
  0.00000000E+00  0.00000000E+00  0.00000000E+00
  0.00000000E+00  0.00000000E+00  0.00000000E+00
  0.00000000E+00  0.00000000E+00  0.00000000E+00
  0.00000000E+00  0.00000000E+00  0.00000000E+00
  0.00000000E+00  0.00000000E+00  0.00000000E+00
  0.00000000E+00  0.00000000E+00  0.00000000E+00
  0.00000000E+00  0.00000000E+00  0.00000000E+00
  0.00000000E+00  0.00000000E+00  0.00000000E+00
  0.00000000E+00  0.00000000E+00  0.00000000E+00
  0.00000000E+00  0.00000000E+00  0.00000000E+00
  0.00000000E+00  0.00000000E+00  0.00000000E+00
  0.00000000E+00  0.00000000E+00  0.00000000E+00
  0.00000000E+00  0.00000000E+00  0.00000000E+00
  0.00000000E+00  0.00000000E+00  0.00000000E+00
  0.00000000E+00  0.00000000E+00  0.00000000E+00
  0.00000000E+00  0.00000000E+00  0.00000000E+00
  0.00000000E+00  0.00000000E+00  0.00000000E+00
  0.00000000E+00  0.00000000E+00  0.00000000E+00
  0.00000000E+00  0.00000000E+00  0.00000000E+00
  0.00000000E+00  0.00000000E+00  0.00000000E+00
  0.00000000E+00  0.00000000E+00  0.00000000E+00
  0.00000000E+00  0.00000000E+00  0.00000000E+00
  0.00000000E+00  0.00000000E+00  0.00000000E+00
  0.00000000E+00  0.00000000E+00  0.00000000E+00
  0.00000000E+00  0.00000000E+00  0.00000000E+00
  0.00000000E+00  0.00000000E+00  0.00000000E+00
  0.00000000E+00  0.00000000E+00  0.00000000E+00
  0.00000000E+00  0.00000000E+00  0.00000000E+00
  0.00000000E+00  0.00000000E+00  0.00000000E+00
  0.00000000E+00  0.00000000E+00  0.00000000E+00
  0.00000000E+00  0.00000000E+00  0.00000000E+00
  0.00000000E+00  0.00000000E+00  0.00000000E+00
  0.00000000E+00  0.00000000E+00  0.00000000E+00
  0.00000000E+00  0.00000000E+00  0.00000000E+00
  0.00000000E+00  0.00000000E+00  0.00000000E+00
  0.00000000E+00  0.00000000E+00  0.00000000E+00
  0.00000000E+00  0.00000000E+00  0.00000000E+00
  0.00000000E+00  0.00000000E+00  0.00000000E+00
  0.00000000E+00  0.00000000E+00  0.00000000E+00
  0.00000000E+00  0.00000000E+00  0.00000000E+00
  0.00000000E+00  0.00000000E+00  0.00000000E+00
  0.00000000E+00  0.00000000E+00  0.00000000E+00
  0.00000000E+00  0.00000000E+00  0.00000000E+00
  0.00000000E+00  0.00000000E+00  0.00000000E+00
  0.00000000E+00  0.00000000E+00  0.00000000E+00
  0.00000000E+00  0.00000000E+00  0.00000000E+00
  0.00000000E+00  0.00000000E+00  0.00000000E+00
  0.00000000E+00  0.00000000E+00  0.00000000E+00
  0.00000000E+00  0.00000000E+00  0.00000000E+00
  0.00000000E+00  0.00000000E+00  0.00000000E+00
  0.00000000E+00  0.00000000E+00  0.00000000E+00
  0.00000000E+00  0.00000000E+00  0.00000000E+00
  0.00000000E+00  0.00000000E+00  0.00000000E+00
  0.00000000E+00  0.00000000E+00  0.00000000E+00
  0.00000000E+00  0.00000000E+00  0.00000000E+00
  0.00000000E+00  0.00000000E+00  0.00000000E+00
  0.00000000E+00  0.00000000E+00  0.00000000E+00
  0.00000000E+00  0.00000000E+00  0.00000000E+00
  0.00000000E+00  0.00000000E+00  0.00000000E+00
  0.00000000E+00  0.00000000E+00  0.00000000E+00
  0.00000000E+00  0.00000000E+00  0.00000000E+00
  0.00000000E+00  0.00000000E+00  0.00000000E+00
  0.00000000E+00  0.00000000E+00  0.00000000E+00
  0.00000000E+00  0.00000000E+00  0.00000000E+00
  0.00000000E+00  0.00000000E+00  0.00000000E+00
  0.00000000E+00  0.00000000E+00  0.00000000E+00
  0.00000000E+00  0.00000000E+00  0.00000000E+00
  0.00000000E+00  0.00000000E+00  0.00000000E+00
  0.00000000E+00  0.00000000E+00  0.00000000E+00
  0.00000000E+00  0.00000000E+00  0.00000000E+00
  0.00000000E+00  0.00000000E+00  0.00000000E+00
  0.00000000E+00  0.00000000E+00  0.00000000E+00
  0.00000000E+00  0.00000000E+00  0.00000000E+00
  0.00000000E+00  0.00000000E+00  0.00000000E+00
  0.00000000E+00  0.00000000E+00  0.00000000E+00
  0.00000000E+00  0.00000000E+00  0.00000000E+00
  0.00000000E+00  0.00000000E+00  0.00000000E+00
  0.00000000E+00  0.00000000E+00  0.00000000E+00
  0.00000000E+00  0.00000000E+00  0.00000000E+00
  0.00000000E+00  0.00000000E+00  0.00000000E+00
  0.00000000E+00  0.00000000E+00  0.00000000E+00
  0.00000000E+00  0.00000000E+00  0.00000000E+00
  0.00000000E+00  0.00000000E+00  0.00000000E+00
  0.00000000E+00  0.00000000E+00  0.00000000E+00
  0.00000000E+00  0.00000000E+00  0.00000000E+00
  0.00000000E+00  0.00000000E+00  0.00000000E+00
  0.00000000E+00  0.00000000E+00  0.00000000E+00
  0.00000000E+00  0.00000000E+00  0.00000000E+00
  0.00000000E+00  0.00000000E+00  0.00000000E+00
  0.00000000E+00  0.00000000E+00  0.00000000E+00
  0.00000000E+00  0.00000000E+00  0.00000000E+00
  0.00000000E+00  0.00000000E+00  0.00000000E+00
  0.00000000E+00  0.00000000E+00  0.00000000E+00
  0.00000000E+00  0.00000000E+00  0.00000000E+00
  0.00000000E+00  0.00000000E+00  0.00000000E+00
  0.00000000E+00  0.00000000E+00  0.00000000E+00
  0.00000000E+00  0.00000000E+00  0.00000000E+00
  0.00000000E+00  0.00000000E+00  0.00000000E+00
  0.00000000E+00  0.00000000E+00  0.00000000E+00
  0.00000000E+00  0.00000000E+00  0.00000000E+00
  0.00000000E+00  0.00000000E+00  0.00000000E+00
  0.00000000E+00  0.00000000E+00  0.00000000E+00
  0.00000000E+00  0.00000000E+00  0.00000000E+00
  0.00000000E+00  0.00000000E+00  0.00000000E+00
  0.00000000E+00  0.00000000E+00  0.00000000E+00
  0.00000000E+00  0.00000000E+00  0.00000000E+00
  0.00000000E+00  0.00000000E+00  0.00000000E+00
  0.00000000E+00  0.00000000E+00  0.00000000E+00
  0.00000000E+00  0.00000000E+00  0.00000000E+00
  0.00000000E+00  0.00000000E+00  0.00000000E+00
  0.00000000E+00  0.00000000E+00  0.00000000E+00
  0.00000000E+00  0.00000000E+00  0.00000000E+00
  0.00000000E+00  0.00000000E+00  0.00000000E+00
  0.00000000E+00  0.00000000E+00  0.00000000E+00
  0.00000000E+00  0.00000000E+00  0.00000000E+00
  0.00000000E+00  0.00000000E+00  0.00000000E+00
  0.00000000E+00  0.00000000E+00  0.00000000E+00
