Mg Ag Cl                                
   1.00000000000000     
     9.8283240000000003   -9.8283240000000003    0.0000000000000000
     9.8283240000000003    9.8283240000000003    0.0000000000000000
     0.0000000000000000    0.0000000000000000   19.6566469999999995
   Ag   Cl   Mg
    32    96    32
Direct
 -0.0168728232634249  0.0581396843119143 -0.0000952234766450
  0.0046714037280041  0.0016645584073815  0.2505278608634477
 -0.0162803463814181  0.9427878930790584  0.4997925693063687
  0.0045463325076005  0.0124738824786571  0.7567331075756594
  0.4831205480536001  0.0571467848775125 -0.0003712204682705
  0.5045161106084730  0.0131812240883119  0.2435336203014866
  0.4825396785612739 -0.0600851023201235  0.4991168651586031
  0.5038168013573300 -0.0186320294791688  0.7413497953914757
  0.2669112462147394  0.3075064568178364 -0.0003924245854455
  0.2457332020142880  0.2402128788783561  0.2549263814990774
  0.2671516619062076  0.1922694558517378  0.4990646418349199
  0.2464889206569416  0.2379340293044039  0.7451389404974920
 -0.0170199213773985  0.5574972589501698 -0.0002626870516513
  0.0039829301672213  0.5115906494634129  0.2448765879628332
 -0.0167093057860665  0.4423864453761238  0.4997648049765092
  0.0039169953754449  0.5021765538548157  0.7507342520679692
  0.7668145725943885  0.3073298509704449 -0.0010626780740745
  0.7458202286325759  0.2661175407212062  0.2429264884634757
  0.7670017462811753  0.1927317105586925  0.4992399161417162
  0.7452563920798386  0.2426830310891488  0.7458224168970908
  0.4833025623523934  0.5567218216116424  0.9995413994667262
  0.5048441685663565  0.5067291262414985  0.2468750300681244
  0.4834916523915431  0.4420652536421377  0.4997680546343410
  0.5051258504635294  0.4919529051399882  0.7475230952865323
  0.2669529391001253  0.8070705119014256 -0.0006426528833988
  0.2461852178212965  0.7373993075211275  0.2562101621982792
  0.2673883449890891  0.6917644888757506  0.4999447364066913
  0.2460039722070501  0.7398622350648049  0.7458483254392905
  0.7674194415312806  0.8077168530907897 -0.0001302174238054
  0.7463164278927483  0.7625621955209042  0.2443707588474380
  0.7670291287404731  0.6923508802215690  0.4990502795884776
  0.7469748236302756  0.7603778861229030  0.7552428104272736
 -0.0541527714750530  0.2736935623483612 -0.0001237607704487
  0.0585777703730400  0.2486622210722094  0.2500799626099817
  0.9464208460046377  0.2257508826397085  0.5000211358561345
  0.0586629610994437  0.2498426403110637  0.7497228089308254
  0.4459340314094557  0.2736014852161893  0.0006212742497572
  0.5581829003512951  0.2479823777687835  0.2497946545622517
  0.4463833579707607  0.2253669717422466  0.5003978091686804
  0.5581726065435556  0.2514574643199072  0.7499952893160736
  0.3040260596960017  0.5237101760461723  0.0002043899228992
  0.1917770029055793  0.5015933439273208  0.2500117157030377
  0.3044570335090164  0.4761201426436253  0.5002616501019744
  0.1914231779941399  0.5012853174293329  0.7501761837995884
 -0.0534591493409868  0.7743863411770366  0.0003635303255839
  0.0584484040875728  0.7480630119349276  0.2501755392039901
 -0.0538835810470833  0.7263368858398493  0.5002030331037627
  0.0587002520171729  0.7494183881174512  0.7500969951618377
  0.8038888499095538  0.5239510705352659  0.0002248262197343
  0.6921195780716701  0.4965260060133697  0.2495668867008234
  0.8043031108280877  0.4759085435284507  0.5002255121931719
  0.6919917925409012  0.5006083052650148  0.7498691443926540
  0.4460897152098015  0.7735015577374873  0.0004235769613216
  0.5589620260615031  0.7476124677985452  0.2496158202378532
  0.4467620959321582  0.7244234317552813  0.5005177844411272
  0.5589579188053941  0.7526026842895471  0.7502216881060605
  0.3039076659610812  0.0238953641858233 -0.0001061950623797
  0.1919858318031966 -0.0000299256869953  0.2498870710553491
  0.3037804537420067 -0.0247995922437815  0.4997918165193962
  0.1920480697023308  0.0024396340615341  0.7499648604234166
  0.8038617730127852  0.0243592084541422  0.0006979177960040
  0.6918025394927914  0.9975630094120670  0.2498456069907190
  0.8044386759958870 -0.0238661372630985  0.5006674144645934
  0.6919196850578886 -0.0004746424658906  0.7499841278429558
  0.0937342292076741  0.1105967443771083  0.0999059636161170
  0.1571850820144028  0.1382997260599296  0.3991976543796085
  0.1574235863451134  0.1396830233125347  0.6001278963911989
  0.0921524097981162  0.1107289384119643  0.8986857489255703
  0.5924146654083525  0.1097224084215442  0.1011323800422218
  0.6557331050229513  0.1374968543377900  0.4006158981681439
  0.6581110992629337  0.1399165595516106  0.6011460142263566
  0.5945768234685237  0.1121515155905674  0.9009083170267954
  0.4068690433631707  0.4159521601894565  0.1544179029678329
  0.3436099058792341  0.3334759120803883  0.3459810532456385
  0.3438039051091911  0.3337442172189950  0.6548068797177474
  0.4067352463158688  0.4158246530571268  0.8460729575389355
  0.0927030644841230  0.6098753768554932  0.1007062644833250
  0.1570651486370342  0.6385984326366383  0.3997663207409821
  0.1577986797935835  0.6396627029026811  0.6009247353193620
  0.0939227062531417  0.6115395064098107  0.9003256990236823
  0.9063513490934099  0.4158138946874000  0.1546519826039076
  0.8431155947813465  0.3338505639209730  0.3457773969401428
  0.8439457561215727  0.3343118330820267  0.6542880734202213
  0.9066986893304151  0.4165268562586796  0.8456911575870747
  0.5930560814501729  0.6098971676038345  0.1004401611089298
  0.6563793248550920  0.6373179062443439  0.3997654127361200
  0.6567156687208068  0.6391042369782438  0.5997231661028389
  0.5938503905876884  0.6120150314716144  0.9000889909298535
  0.4069204060297320  0.9161078235615573  0.1539586277423735
  0.3440703722170750  0.8327994345882490  0.3461497726440834
  0.3444041566621708  0.8343275746647502  0.6552809801538713
  0.4076451997639680  0.9159943669924476  0.8458165432415981
  0.9068667121434895  0.9157403973704684  0.1555651347169733
  0.8432685483683038  0.8343799966474865  0.3455807538839587
  0.8433396346527304  0.8343538014805686  0.6547405502301400
  0.9060607980004568  0.9161365485878653  0.8460200969173439
  0.8438891689919354  0.1664708944910601  0.1546254782235983
  0.9066344600300845  0.0838422967127337  0.3462855388414020
  0.9072847067125376  0.0847782044180649  0.6553888265510412
  0.8431480074787729  0.1659272232898846  0.8447808660151869
  0.3433961841048456  0.1650095491478597  0.1551713219241729
  0.4067059946969707  0.0838419085375268  0.3450327899625540
  0.4060424065961160  0.0837851075183911  0.6544369313660977
  0.3430869030603609  0.1661135949488255  0.8463475787053525
  0.1566075590999144  0.3605708930893553  0.1002030517354150
  0.0942657347053405  0.3880595920858272  0.4002959243350125
  0.0939314012585489  0.3892500800520795  0.6000539040890993
  0.1558144710993667  0.3615249945064140  0.9002921491141775
  0.8440932000278211  0.6657015268423688  0.1547101846364965
  0.9069995285153565  0.5837774455538283  0.3458021821110623
  0.9070864601419738  0.5842022668564111  0.6540818300656766
  0.8439581540938402  0.6664354414883008  0.8462268418460162
  0.6575786185096912  0.3593913218401703  0.1007907786913006
  0.5939422106511353  0.3878309172515426  0.4001317763230335
  0.5932884806754017  0.3892842717703692  0.6005027727771537
  0.6555831582044256  0.3621926243860928  0.9003883489187476
  0.3434649471759549  0.6653161962505176  0.1548911907251980
  0.4064698912131227  0.5838164023108904  0.3450892619151881
  0.4065858326485264  0.5839087148498362  0.6557284177914448
  0.3433124014166169  0.6657107524189029  0.8458881431079270
  0.1566603152736073  0.8602748312483398  0.0998482932181650
  0.0932279936675244  0.8884776833225323  0.3993132555694732
  0.0941185104575855  0.8889339715551090  0.5998173011025798
  0.1566529306750110  0.8617048680526204  0.8997489951898062
  0.6577290139999609  0.8598827182618340  0.1008253598807810
  0.5947090433508258  0.8871436673849925  0.4005531713630578
  0.5921869424309975  0.8902076754811721  0.6012969413039214
  0.6569770045698691  0.8614084053990017  0.9000008675366569
  0.0020712391058886  0.2637107174263868  0.1273911719859953
  0.0005789377894215  0.2363851336975443  0.3722505164175008
  0.0009749974516756  0.2366170119854287  0.6270004953030596
  0.0015227227611847  0.2651966920659014  0.8727554224407459
  0.5003012429571507  0.2639286845134500  0.1274732422353429
  0.5017758100586641  0.2355511404085771  0.3730877774188651
  0.5014213899948371  0.2355743321855595  0.6274198950698944
  0.5010625416823533  0.2636379543782973  0.8726613995725584
  0.2493555093690340  0.5128534756248253  0.1273484800995485
  0.2484725381622034  0.4846171594599405  0.3728668746966062
  0.2486374050463579  0.4854325866596064  0.6275184878694994
  0.2491239471615980  0.5134302399894719  0.8727930578539826
  0.0022768721571916  0.7643410624376568  0.1270705869345560
  0.0001291845183949  0.7358900918941061  0.3728830505057395
  0.0008853269808518  0.7368792469008453  0.6278796177011191
  0.0022401156067829  0.7644650903566669  0.8727951544383385
  0.7489112591507083  0.5143018440371016  0.1268527009272194
  0.7492993013313684  0.4856279631124025  0.3729585553499503
  0.7492877328959636  0.4866006163972423  0.6276119000389411
  0.7482411611936088  0.5142998559115839  0.8723825013226769
  0.5005720296094710  0.7637806741195526  0.1277141094456628
  0.5022254796866208  0.7354840283732555  0.3724613413417252
  0.5025387053629721  0.7344835590224841  0.6270771587542073
  0.5003084152889918  0.7636011080237355  0.8729651921457083
  0.2490177674590731  0.0126084085564069  0.1271022671499513
  0.2491575993321304 -0.0154401591569667  0.3724760616767965
  0.2482092986574213 -0.0145409439796071  0.6269497123568740
  0.2503122574320865  0.0134564989958999  0.8724582825408516
  0.7493538765457449  0.0146146250742493  0.1276776421316345
  0.7487288991914927 -0.0137197981971715  0.3728474039770870
  0.7503892861095832 -0.0136040769624962  0.6274178475945807
  0.7480045434307683  0.0149225496656716  0.8732554631262840
 
  0.00000000E+00  0.00000000E+00  0.00000000E+00
  0.00000000E+00  0.00000000E+00  0.00000000E+00
  0.00000000E+00  0.00000000E+00  0.00000000E+00
  0.00000000E+00  0.00000000E+00  0.00000000E+00
  0.00000000E+00  0.00000000E+00  0.00000000E+00
  0.00000000E+00  0.00000000E+00  0.00000000E+00
  0.00000000E+00  0.00000000E+00  0.00000000E+00
  0.00000000E+00  0.00000000E+00  0.00000000E+00
  0.00000000E+00  0.00000000E+00  0.00000000E+00
  0.00000000E+00  0.00000000E+00  0.00000000E+00
  0.00000000E+00  0.00000000E+00  0.00000000E+00
  0.00000000E+00  0.00000000E+00  0.00000000E+00
  0.00000000E+00  0.00000000E+00  0.00000000E+00
  0.00000000E+00  0.00000000E+00  0.00000000E+00
  0.00000000E+00  0.00000000E+00  0.00000000E+00
  0.00000000E+00  0.00000000E+00  0.00000000E+00
  0.00000000E+00  0.00000000E+00  0.00000000E+00
  0.00000000E+00  0.00000000E+00  0.00000000E+00
  0.00000000E+00  0.00000000E+00  0.00000000E+00
  0.00000000E+00  0.00000000E+00  0.00000000E+00
  0.00000000E+00  0.00000000E+00  0.00000000E+00
  0.00000000E+00  0.00000000E+00  0.00000000E+00
  0.00000000E+00  0.00000000E+00  0.00000000E+00
  0.00000000E+00  0.00000000E+00  0.00000000E+00
  0.00000000E+00  0.00000000E+00  0.00000000E+00
  0.00000000E+00  0.00000000E+00  0.00000000E+00
  0.00000000E+00  0.00000000E+00  0.00000000E+00
  0.00000000E+00  0.00000000E+00  0.00000000E+00
  0.00000000E+00  0.00000000E+00  0.00000000E+00
  0.00000000E+00  0.00000000E+00  0.00000000E+00
  0.00000000E+00  0.00000000E+00  0.00000000E+00
  0.00000000E+00  0.00000000E+00  0.00000000E+00
  0.00000000E+00  0.00000000E+00  0.00000000E+00
  0.00000000E+00  0.00000000E+00  0.00000000E+00
  0.00000000E+00  0.00000000E+00  0.00000000E+00
  0.00000000E+00  0.00000000E+00  0.00000000E+00
  0.00000000E+00  0.00000000E+00  0.00000000E+00
  0.00000000E+00  0.00000000E+00  0.00000000E+00
  0.00000000E+00  0.00000000E+00  0.00000000E+00
  0.00000000E+00  0.00000000E+00  0.00000000E+00
  0.00000000E+00  0.00000000E+00  0.00000000E+00
  0.00000000E+00  0.00000000E+00  0.00000000E+00
  0.00000000E+00  0.00000000E+00  0.00000000E+00
  0.00000000E+00  0.00000000E+00  0.00000000E+00
  0.00000000E+00  0.00000000E+00  0.00000000E+00
  0.00000000E+00  0.00000000E+00  0.00000000E+00
  0.00000000E+00  0.00000000E+00  0.00000000E+00
  0.00000000E+00  0.00000000E+00  0.00000000E+00
  0.00000000E+00  0.00000000E+00  0.00000000E+00
  0.00000000E+00  0.00000000E+00  0.00000000E+00
  0.00000000E+00  0.00000000E+00  0.00000000E+00
  0.00000000E+00  0.00000000E+00  0.00000000E+00
  0.00000000E+00  0.00000000E+00  0.00000000E+00
  0.00000000E+00  0.00000000E+00  0.00000000E+00
  0.00000000E+00  0.00000000E+00  0.00000000E+00
  0.00000000E+00  0.00000000E+00  0.00000000E+00
  0.00000000E+00  0.00000000E+00  0.00000000E+00
  0.00000000E+00  0.00000000E+00  0.00000000E+00
  0.00000000E+00  0.00000000E+00  0.00000000E+00
  0.00000000E+00  0.00000000E+00  0.00000000E+00
  0.00000000E+00  0.00000000E+00  0.00000000E+00
  0.00000000E+00  0.00000000E+00  0.00000000E+00
  0.00000000E+00  0.00000000E+00  0.00000000E+00
  0.00000000E+00  0.00000000E+00  0.00000000E+00
  0.00000000E+00  0.00000000E+00  0.00000000E+00
  0.00000000E+00  0.00000000E+00  0.00000000E+00
  0.00000000E+00  0.00000000E+00  0.00000000E+00
  0.00000000E+00  0.00000000E+00  0.00000000E+00
  0.00000000E+00  0.00000000E+00  0.00000000E+00
  0.00000000E+00  0.00000000E+00  0.00000000E+00
  0.00000000E+00  0.00000000E+00  0.00000000E+00
  0.00000000E+00  0.00000000E+00  0.00000000E+00
  0.00000000E+00  0.00000000E+00  0.00000000E+00
  0.00000000E+00  0.00000000E+00  0.00000000E+00
  0.00000000E+00  0.00000000E+00  0.00000000E+00
  0.00000000E+00  0.00000000E+00  0.00000000E+00
  0.00000000E+00  0.00000000E+00  0.00000000E+00
  0.00000000E+00  0.00000000E+00  0.00000000E+00
  0.00000000E+00  0.00000000E+00  0.00000000E+00
  0.00000000E+00  0.00000000E+00  0.00000000E+00
  0.00000000E+00  0.00000000E+00  0.00000000E+00
  0.00000000E+00  0.00000000E+00  0.00000000E+00
  0.00000000E+00  0.00000000E+00  0.00000000E+00
  0.00000000E+00  0.00000000E+00  0.00000000E+00
  0.00000000E+00  0.00000000E+00  0.00000000E+00
  0.00000000E+00  0.00000000E+00  0.00000000E+00
  0.00000000E+00  0.00000000E+00  0.00000000E+00
  0.00000000E+00  0.00000000E+00  0.00000000E+00
  0.00000000E+00  0.00000000E+00  0.00000000E+00
  0.00000000E+00  0.00000000E+00  0.00000000E+00
  0.00000000E+00  0.00000000E+00  0.00000000E+00
  0.00000000E+00  0.00000000E+00  0.00000000E+00
  0.00000000E+00  0.00000000E+00  0.00000000E+00
  0.00000000E+00  0.00000000E+00  0.00000000E+00
  0.00000000E+00  0.00000000E+00  0.00000000E+00
  0.00000000E+00  0.00000000E+00  0.00000000E+00
  0.00000000E+00  0.00000000E+00  0.00000000E+00
  0.00000000E+00  0.00000000E+00  0.00000000E+00
  0.00000000E+00  0.00000000E+00  0.00000000E+00
  0.00000000E+00  0.00000000E+00  0.00000000E+00
  0.00000000E+00  0.00000000E+00  0.00000000E+00
  0.00000000E+00  0.00000000E+00  0.00000000E+00
  0.00000000E+00  0.00000000E+00  0.00000000E+00
  0.00000000E+00  0.00000000E+00  0.00000000E+00
  0.00000000E+00  0.00000000E+00  0.00000000E+00
  0.00000000E+00  0.00000000E+00  0.00000000E+00
  0.00000000E+00  0.00000000E+00  0.00000000E+00
  0.00000000E+00  0.00000000E+00  0.00000000E+00
  0.00000000E+00  0.00000000E+00  0.00000000E+00
  0.00000000E+00  0.00000000E+00  0.00000000E+00
  0.00000000E+00  0.00000000E+00  0.00000000E+00
  0.00000000E+00  0.00000000E+00  0.00000000E+00
  0.00000000E+00  0.00000000E+00  0.00000000E+00
  0.00000000E+00  0.00000000E+00  0.00000000E+00
  0.00000000E+00  0.00000000E+00  0.00000000E+00
  0.00000000E+00  0.00000000E+00  0.00000000E+00
  0.00000000E+00  0.00000000E+00  0.00000000E+00
  0.00000000E+00  0.00000000E+00  0.00000000E+00
  0.00000000E+00  0.00000000E+00  0.00000000E+00
  0.00000000E+00  0.00000000E+00  0.00000000E+00
  0.00000000E+00  0.00000000E+00  0.00000000E+00
  0.00000000E+00  0.00000000E+00  0.00000000E+00
  0.00000000E+00  0.00000000E+00  0.00000000E+00
  0.00000000E+00  0.00000000E+00  0.00000000E+00
  0.00000000E+00  0.00000000E+00  0.00000000E+00
  0.00000000E+00  0.00000000E+00  0.00000000E+00
  0.00000000E+00  0.00000000E+00  0.00000000E+00
  0.00000000E+00  0.00000000E+00  0.00000000E+00
  0.00000000E+00  0.00000000E+00  0.00000000E+00
  0.00000000E+00  0.00000000E+00  0.00000000E+00
  0.00000000E+00  0.00000000E+00  0.00000000E+00
  0.00000000E+00  0.00000000E+00  0.00000000E+00
  0.00000000E+00  0.00000000E+00  0.00000000E+00
  0.00000000E+00  0.00000000E+00  0.00000000E+00
  0.00000000E+00  0.00000000E+00  0.00000000E+00
  0.00000000E+00  0.00000000E+00  0.00000000E+00
  0.00000000E+00  0.00000000E+00  0.00000000E+00
  0.00000000E+00  0.00000000E+00  0.00000000E+00
  0.00000000E+00  0.00000000E+00  0.00000000E+00
  0.00000000E+00  0.00000000E+00  0.00000000E+00
  0.00000000E+00  0.00000000E+00  0.00000000E+00
  0.00000000E+00  0.00000000E+00  0.00000000E+00
  0.00000000E+00  0.00000000E+00  0.00000000E+00
  0.00000000E+00  0.00000000E+00  0.00000000E+00
  0.00000000E+00  0.00000000E+00  0.00000000E+00
  0.00000000E+00  0.00000000E+00  0.00000000E+00
  0.00000000E+00  0.00000000E+00  0.00000000E+00
  0.00000000E+00  0.00000000E+00  0.00000000E+00
  0.00000000E+00  0.00000000E+00  0.00000000E+00
  0.00000000E+00  0.00000000E+00  0.00000000E+00
  0.00000000E+00  0.00000000E+00  0.00000000E+00
  0.00000000E+00  0.00000000E+00  0.00000000E+00
  0.00000000E+00  0.00000000E+00  0.00000000E+00
  0.00000000E+00  0.00000000E+00  0.00000000E+00
  0.00000000E+00  0.00000000E+00  0.00000000E+00
  0.00000000E+00  0.00000000E+00  0.00000000E+00
  0.00000000E+00  0.00000000E+00  0.00000000E+00
  0.00000000E+00  0.00000000E+00  0.00000000E+00
  0.00000000E+00  0.00000000E+00  0.00000000E+00
  0.00000000E+00  0.00000000E+00  0.00000000E+00
