Cs Ga Br                                
   1.00000000000000     
    11.0223440000000004  -11.0223440000000004    0.0000000000000000
    11.0223440000000004   11.0223440000000004    0.0000000000000000
     0.0000000000000000    0.0000000000000000   22.0446890000000018
   Cs   Ga   Br
    32    32    96
Direct
  0.0056449186478308  0.0056812297937686  0.0029611022313667
  0.0038355305583787  0.0084393745330242  0.2487861727628204
  0.0059322341128827  0.0072618206160205  0.5019236640954318
  0.0055050520376021  0.0039884446987890  0.7501552953483630
  0.4974676573072458  0.9973648133616366 -0.0010936184925816
  0.5043219651382600  0.9956694128657526  0.2486937412819569
  0.5058608843375305 -0.0023970074182020  0.5003174929474934
  0.4990944355568489  0.9972183228197796  0.7529451487087497
  0.2483785072110511  0.2484855579683998 -0.0021705479416160
  0.2471853717698022  0.2521652676358591  0.2495966698268653
  0.2467572446276993  0.2527023052762530  0.5018351687553477
  0.2486092060010961  0.2494254740199287  0.7504702045247319
  0.0022288524351954  0.5031682595728221  0.0001028528264082
 -0.0009268693103137  0.5075475226145206  0.2526055337226276
 -0.0037498754834938  0.5036841303057146  0.5017328716601730
 -0.0033440919833670  0.4987373974948126  0.7464002978237702
  0.7482378958429813  0.2407139846522702 -0.0041785065142897
  0.7483259046427804  0.2476423319304744  0.2529304911257930
  0.7527867204714274  0.2463763114367144  0.5008252459670023
  0.7512547270305212  0.2448184533340122  0.7496841124459286
  0.4914959469653546  0.4964290852778594 -0.0055110438329074
  0.4940933781499554  0.4958173547448005  0.2537515091242672
  0.4922386981563163  0.5005411861168398  0.5013050056053495
  0.4949682632532068  0.5001898809235350  0.7493611324745182
  0.2516887182166360  0.7566254041733037  0.0006346675579369
  0.2548023111713103  0.7496680590287783  0.2488467290701396
  0.2509601134610027  0.7525587762356689  0.5031784457105476
  0.2490789508896434  0.7561876819190124  0.7510566853632610
  0.7508536288108257  0.7528621611130788  0.0013126842227911
  0.7539004205109372  0.7532758821422482  0.2500572804604403
  0.7490793937504121  0.7525679052935400  0.5018664894210344
  0.7455884403985046  0.7494046820940742  0.7484566840303242
 -0.0001290163185464  0.2530045863613062  0.1248188574526525
  0.0098819450971453  0.2437225927706592  0.3758413412681655
  0.9983425270654469  0.2488125883877952  0.6284851388041115
 -0.0022106050441963  0.2537208227690905  0.8751110349682661
  0.4940526618059601  0.2391615870008124  0.1236945932328457
  0.4901282936320536  0.2397933796027248  0.3761646169864430
  0.5100892362859394  0.2345766616250651  0.6249956567985473
  0.4994032989052788  0.2486285616296448  0.8719378828681771
  0.2575104903721126  0.4913411436672453  0.1239734405870696
  0.2491463935887180  0.5006792211448020  0.3740346172652150
  0.2577932093396884  0.4920512539944281  0.6250578312775457
  0.2497740456257535  0.4996959690810476  0.8737793937679995
  0.0012318990537329  0.7523195860438425  0.1112616818176548
 -0.0113085659339431  0.7419871803271091  0.3621749992797929
 -0.0002939896488315  0.7503709677459033  0.6109621354593803
 -0.0146479216760798  0.7376117902516349  0.8596861238804379
  0.7341088309432093  0.4844808599143422  0.1097615489754583
  0.7331954451070023  0.4813389240502008  0.3773785340504187
  0.7420372646124536  0.4921228435721933  0.6227553204742345
  0.7465216427687104  0.4874988717094854  0.8662164814822689
  0.5009332505007761  0.7496953668325889  0.1241495166413412
  0.5084107126396398  0.7398559290963784  0.3720051098730560
  0.5065863044771143  0.7559736510469472  0.6209517562360726
  0.5090294138713068  0.7394136892174626  0.8740489852805948
  0.2493928846184835 -0.0011039731719248  0.1275980890790887
  0.2650739670355527 -0.0170829195313187  0.3757758386804539
  0.2530754242207769  0.0010870284143786  0.6262421980872898
  0.2502633029597137  0.0000881128189927  0.8762424099803577
  0.7464189946607445  0.0048434291309296  0.1252118349925668
  0.7486989599149799 -0.0012159515395651  0.3742822071409989
  0.7583855691413881 -0.0021977262443272  0.6246895349958915
  0.7535141236874239  0.0025495851580944  0.8753770209259136
  0.0003951128811556  0.2525403168749702 -0.0053397026960294
  0.9925967157931180  0.2619352794856419  0.2584932600341509
  0.9978667255941874  0.2571773916372034  0.4945518337678689
  0.0035490478474007  0.2507975208533104  0.7536373165975369
  0.4969745568910462  0.2467940152291777 -0.0052591432385705
  0.4985924374316198  0.2489892818826130  0.2536047404662360
  0.4964877063160348  0.2473289599153684  0.5084375639276478
  0.4971130193174799  0.2473952558441939  0.7418493548512308
  0.2440246006057709  0.5063146993198461  0.0065621253157085
  0.2438215629815876  0.5046092985537535  0.2426662702186063
  0.2402397398144882  0.5081383474406450  0.5095970152887452
  0.2404921448046946  0.5091250104157307  0.7411868464065691
  0.0023031910785753  0.7547917869619595  0.0010018712894484
  0.0088735524190538  0.7591561495169303  0.2538482656788737
  0.0014609606692822  0.7575353792810749  0.5003404935336416
 -0.0002890641937444  0.7550076324327025  0.7509879191191275
  0.7511712153103487  0.5011639562896995  0.0012133092967396
  0.7449354640698104  0.5005314430854008  0.2661355586045607
  0.7486992511789026  0.5050401296278091  0.4908207961182983
  0.7486503801509146  0.5037828357214331  0.7438982638569378
  0.5002017155723238  0.7459667618402771  0.9910539830585408
  0.5072988408162178  0.7397242002661308  0.2486636912425567
  0.4985760020406313  0.7479666618014116  0.5050385470720656
  0.4953290856004087  0.7501185908548075  0.7567963829386759
  0.2486615262517758  0.0028910703069391 -0.0052394632027483
  0.2501347956207274 -0.0003623244550544  0.2610050842592641
  0.2546109458862484  0.0014313826413051  0.4912467629216964
  0.2500692531326040  0.0019339782278922  0.7554064808794518
  0.7581698471018701 -0.0067361348501265  0.0085394732914061
  0.7609400477587738 -0.0030218256326001  0.2428657387272153
  0.7603508600151627  0.9974395802164894  0.4965157739487252
  0.7554628364523904 -0.0085044413096919  0.7538857781045722
  0.1210472976404959  0.1334696590317245  0.1265911020459941
  0.1250271573832333  0.1361867937514192  0.3746272973484021
  0.1281473542878070  0.1294430954772602  0.6237744907581844
  0.1305698195899839  0.1231283351393339  0.8748841843451579
  0.6293033008933967  0.1187109606583419  0.1249725256208387
  0.6279317388162103  0.1187033412470046  0.3748100210445945
  0.6269110827153053  0.1224304508901290  0.6253607491181786
  0.6262869858677090  0.1159585908127309  0.8749293967540864
  0.3685291198467118  0.3773596136102868  0.1241601047386168
  0.3625902759479357  0.3730716222276669  0.3766988964491387
  0.3685149224757283  0.3807653029123972  0.6254660696379192
  0.3683394042676746  0.3769454108174404  0.8716832905599405
  0.1157995610984951  0.6391764908761821  0.1269308686244406
  0.1138534671491663  0.6478398954697306  0.3800957859701627
  0.1116983374458678  0.6373241709904064  0.6270499777726409
  0.1147540707419643  0.6501016320032922  0.8766523694994659
  0.8640299378322678  0.4038735793211586  0.1336128983997703
  0.8645955118549712  0.3897971331303918  0.3785883738778641
  0.8759877601457271  0.3808197822950110  0.6212646869728431
  0.8788018236804978  0.3686464456551229  0.8747180189826163
  0.6500530078924932  0.6126396711021319  0.1319385846504415
  0.6341075905386738  0.6159919189478672  0.3796170505549443
  0.6133518667210148  0.6262683603580660  0.6261329928617552
  0.6214626240664125  0.6254151377333000  0.8735745756401478
  0.3777340403982267  0.8675755641164615  0.1249666563894637
  0.3779889395219425  0.8734937818432946  0.3757079138899465
  0.3769718329273912  0.8634082403856642  0.6283522345779645
  0.3665554192860510  0.8843175566546629  0.8756290268913242
  0.8876261717266721  0.8691409462430085  0.1278602495798278
  0.9010538494969317  0.8728743812825003  0.3767082193469347
  0.8866776875013057  0.8657259862803344  0.6273545317886039
  0.8965811146791280  0.8656018801279237  0.8796662283928895
  0.8711156009484220  0.1267186878067331  0.1260034978491608
  0.8856352693428683  0.1380701032332506  0.3748091341575522
  0.8799270556539255  0.1272126705707536  0.6254956419707314
  0.8873046693688540  0.1229070033534413  0.8757135497972770
  0.3719420675897432  0.1209416478508991  0.1257787850011763
  0.3634146638789296  0.1147221328159268  0.3756918762458232
  0.3781845480744205  0.1269505045785024  0.6250570748716128
  0.3637105934751088  0.1173019536125660  0.8734507715040994
  0.1240388599662793  0.3967035897136017  0.1253875358105846
  0.1050341033217894  0.3772283197046843  0.3767264739441890
  0.1288163389834126  0.3914669756905676  0.6247535468929577
  0.1192193387912719  0.3726873463437294  0.8742567709064187
  0.8885707295103095  0.6418453671983171  0.1282863977249217
  0.8766807669267958  0.6360075279503623  0.3749888425087592
  0.8819425586416151  0.6375970664577438  0.6232704903472344
  0.8767259150428537  0.6273133885072414  0.8748179398375868
  0.6256385116964250  0.3758044574098732  0.1251326843821157
  0.6209528528947775  0.3724800714478640  0.3818153869676882
  0.6172333535746291  0.3726378794635258  0.6220746326692734
  0.6222899844583949  0.3692692827851935  0.8714275137544236
  0.3647343190861871  0.6153865784265709  0.1236819897931890
  0.3718932403197171  0.6238363307951984  0.3762245610820036
  0.3587994259592720  0.6202019485400595  0.6267183710779348
  0.3740582969869530  0.6392532923562055  0.8742213086858693
  0.1146384135480869  0.8663431592594226  0.1277744659962001
  0.1347621864504885  0.8918370832611876  0.3777924866278643
  0.1166637319569486  0.8659737084507553  0.6261134148666727
  0.1330735365884085  0.8901799348435722  0.8757219031403615
  0.6365779068770715  0.8720764971628174  0.1244163608306883
  0.6352957070712347  0.8712954595335771  0.3740746885887423
  0.6236518575246878  0.8690364861659743  0.6282549788934523
  0.6167389158462723  0.8660075435873095  0.8757279635852664
 
  0.00000000E+00  0.00000000E+00  0.00000000E+00
  0.00000000E+00  0.00000000E+00  0.00000000E+00
  0.00000000E+00  0.00000000E+00  0.00000000E+00
  0.00000000E+00  0.00000000E+00  0.00000000E+00
  0.00000000E+00  0.00000000E+00  0.00000000E+00
  0.00000000E+00  0.00000000E+00  0.00000000E+00
  0.00000000E+00  0.00000000E+00  0.00000000E+00
  0.00000000E+00  0.00000000E+00  0.00000000E+00
  0.00000000E+00  0.00000000E+00  0.00000000E+00
  0.00000000E+00  0.00000000E+00  0.00000000E+00
  0.00000000E+00  0.00000000E+00  0.00000000E+00
  0.00000000E+00  0.00000000E+00  0.00000000E+00
  0.00000000E+00  0.00000000E+00  0.00000000E+00
  0.00000000E+00  0.00000000E+00  0.00000000E+00
  0.00000000E+00  0.00000000E+00  0.00000000E+00
  0.00000000E+00  0.00000000E+00  0.00000000E+00
  0.00000000E+00  0.00000000E+00  0.00000000E+00
  0.00000000E+00  0.00000000E+00  0.00000000E+00
  0.00000000E+00  0.00000000E+00  0.00000000E+00
  0.00000000E+00  0.00000000E+00  0.00000000E+00
  0.00000000E+00  0.00000000E+00  0.00000000E+00
  0.00000000E+00  0.00000000E+00  0.00000000E+00
  0.00000000E+00  0.00000000E+00  0.00000000E+00
  0.00000000E+00  0.00000000E+00  0.00000000E+00
  0.00000000E+00  0.00000000E+00  0.00000000E+00
  0.00000000E+00  0.00000000E+00  0.00000000E+00
  0.00000000E+00  0.00000000E+00  0.00000000E+00
  0.00000000E+00  0.00000000E+00  0.00000000E+00
  0.00000000E+00  0.00000000E+00  0.00000000E+00
  0.00000000E+00  0.00000000E+00  0.00000000E+00
  0.00000000E+00  0.00000000E+00  0.00000000E+00
  0.00000000E+00  0.00000000E+00  0.00000000E+00
  0.00000000E+00  0.00000000E+00  0.00000000E+00
  0.00000000E+00  0.00000000E+00  0.00000000E+00
  0.00000000E+00  0.00000000E+00  0.00000000E+00
  0.00000000E+00  0.00000000E+00  0.00000000E+00
  0.00000000E+00  0.00000000E+00  0.00000000E+00
  0.00000000E+00  0.00000000E+00  0.00000000E+00
  0.00000000E+00  0.00000000E+00  0.00000000E+00
  0.00000000E+00  0.00000000E+00  0.00000000E+00
  0.00000000E+00  0.00000000E+00  0.00000000E+00
  0.00000000E+00  0.00000000E+00  0.00000000E+00
  0.00000000E+00  0.00000000E+00  0.00000000E+00
  0.00000000E+00  0.00000000E+00  0.00000000E+00
  0.00000000E+00  0.00000000E+00  0.00000000E+00
  0.00000000E+00  0.00000000E+00  0.00000000E+00
  0.00000000E+00  0.00000000E+00  0.00000000E+00
  0.00000000E+00  0.00000000E+00  0.00000000E+00
  0.00000000E+00  0.00000000E+00  0.00000000E+00
  0.00000000E+00  0.00000000E+00  0.00000000E+00
  0.00000000E+00  0.00000000E+00  0.00000000E+00
  0.00000000E+00  0.00000000E+00  0.00000000E+00
  0.00000000E+00  0.00000000E+00  0.00000000E+00
  0.00000000E+00  0.00000000E+00  0.00000000E+00
  0.00000000E+00  0.00000000E+00  0.00000000E+00
  0.00000000E+00  0.00000000E+00  0.00000000E+00
  0.00000000E+00  0.00000000E+00  0.00000000E+00
  0.00000000E+00  0.00000000E+00  0.00000000E+00
  0.00000000E+00  0.00000000E+00  0.00000000E+00
  0.00000000E+00  0.00000000E+00  0.00000000E+00
  0.00000000E+00  0.00000000E+00  0.00000000E+00
  0.00000000E+00  0.00000000E+00  0.00000000E+00
  0.00000000E+00  0.00000000E+00  0.00000000E+00
  0.00000000E+00  0.00000000E+00  0.00000000E+00
  0.00000000E+00  0.00000000E+00  0.00000000E+00
  0.00000000E+00  0.00000000E+00  0.00000000E+00
  0.00000000E+00  0.00000000E+00  0.00000000E+00
  0.00000000E+00  0.00000000E+00  0.00000000E+00
  0.00000000E+00  0.00000000E+00  0.00000000E+00
  0.00000000E+00  0.00000000E+00  0.00000000E+00
  0.00000000E+00  0.00000000E+00  0.00000000E+00
  0.00000000E+00  0.00000000E+00  0.00000000E+00
  0.00000000E+00  0.00000000E+00  0.00000000E+00
  0.00000000E+00  0.00000000E+00  0.00000000E+00
  0.00000000E+00  0.00000000E+00  0.00000000E+00
  0.00000000E+00  0.00000000E+00  0.00000000E+00
  0.00000000E+00  0.00000000E+00  0.00000000E+00
  0.00000000E+00  0.00000000E+00  0.00000000E+00
  0.00000000E+00  0.00000000E+00  0.00000000E+00
  0.00000000E+00  0.00000000E+00  0.00000000E+00
  0.00000000E+00  0.00000000E+00  0.00000000E+00
  0.00000000E+00  0.00000000E+00  0.00000000E+00
  0.00000000E+00  0.00000000E+00  0.00000000E+00
  0.00000000E+00  0.00000000E+00  0.00000000E+00
  0.00000000E+00  0.00000000E+00  0.00000000E+00
  0.00000000E+00  0.00000000E+00  0.00000000E+00
  0.00000000E+00  0.00000000E+00  0.00000000E+00
  0.00000000E+00  0.00000000E+00  0.00000000E+00
  0.00000000E+00  0.00000000E+00  0.00000000E+00
  0.00000000E+00  0.00000000E+00  0.00000000E+00
  0.00000000E+00  0.00000000E+00  0.00000000E+00
  0.00000000E+00  0.00000000E+00  0.00000000E+00
  0.00000000E+00  0.00000000E+00  0.00000000E+00
  0.00000000E+00  0.00000000E+00  0.00000000E+00
  0.00000000E+00  0.00000000E+00  0.00000000E+00
  0.00000000E+00  0.00000000E+00  0.00000000E+00
  0.00000000E+00  0.00000000E+00  0.00000000E+00
  0.00000000E+00  0.00000000E+00  0.00000000E+00
  0.00000000E+00  0.00000000E+00  0.00000000E+00
  0.00000000E+00  0.00000000E+00  0.00000000E+00
  0.00000000E+00  0.00000000E+00  0.00000000E+00
  0.00000000E+00  0.00000000E+00  0.00000000E+00
  0.00000000E+00  0.00000000E+00  0.00000000E+00
  0.00000000E+00  0.00000000E+00  0.00000000E+00
  0.00000000E+00  0.00000000E+00  0.00000000E+00
  0.00000000E+00  0.00000000E+00  0.00000000E+00
  0.00000000E+00  0.00000000E+00  0.00000000E+00
  0.00000000E+00  0.00000000E+00  0.00000000E+00
  0.00000000E+00  0.00000000E+00  0.00000000E+00
  0.00000000E+00  0.00000000E+00  0.00000000E+00
  0.00000000E+00  0.00000000E+00  0.00000000E+00
  0.00000000E+00  0.00000000E+00  0.00000000E+00
  0.00000000E+00  0.00000000E+00  0.00000000E+00
  0.00000000E+00  0.00000000E+00  0.00000000E+00
  0.00000000E+00  0.00000000E+00  0.00000000E+00
  0.00000000E+00  0.00000000E+00  0.00000000E+00
  0.00000000E+00  0.00000000E+00  0.00000000E+00
  0.00000000E+00  0.00000000E+00  0.00000000E+00
  0.00000000E+00  0.00000000E+00  0.00000000E+00
  0.00000000E+00  0.00000000E+00  0.00000000E+00
  0.00000000E+00  0.00000000E+00  0.00000000E+00
  0.00000000E+00  0.00000000E+00  0.00000000E+00
  0.00000000E+00  0.00000000E+00  0.00000000E+00
  0.00000000E+00  0.00000000E+00  0.00000000E+00
  0.00000000E+00  0.00000000E+00  0.00000000E+00
  0.00000000E+00  0.00000000E+00  0.00000000E+00
  0.00000000E+00  0.00000000E+00  0.00000000E+00
  0.00000000E+00  0.00000000E+00  0.00000000E+00
  0.00000000E+00  0.00000000E+00  0.00000000E+00
  0.00000000E+00  0.00000000E+00  0.00000000E+00
  0.00000000E+00  0.00000000E+00  0.00000000E+00
  0.00000000E+00  0.00000000E+00  0.00000000E+00
  0.00000000E+00  0.00000000E+00  0.00000000E+00
  0.00000000E+00  0.00000000E+00  0.00000000E+00
  0.00000000E+00  0.00000000E+00  0.00000000E+00
  0.00000000E+00  0.00000000E+00  0.00000000E+00
  0.00000000E+00  0.00000000E+00  0.00000000E+00
  0.00000000E+00  0.00000000E+00  0.00000000E+00
  0.00000000E+00  0.00000000E+00  0.00000000E+00
  0.00000000E+00  0.00000000E+00  0.00000000E+00
  0.00000000E+00  0.00000000E+00  0.00000000E+00
  0.00000000E+00  0.00000000E+00  0.00000000E+00
  0.00000000E+00  0.00000000E+00  0.00000000E+00
  0.00000000E+00  0.00000000E+00  0.00000000E+00
  0.00000000E+00  0.00000000E+00  0.00000000E+00
  0.00000000E+00  0.00000000E+00  0.00000000E+00
  0.00000000E+00  0.00000000E+00  0.00000000E+00
  0.00000000E+00  0.00000000E+00  0.00000000E+00
  0.00000000E+00  0.00000000E+00  0.00000000E+00
  0.00000000E+00  0.00000000E+00  0.00000000E+00
  0.00000000E+00  0.00000000E+00  0.00000000E+00
  0.00000000E+00  0.00000000E+00  0.00000000E+00
  0.00000000E+00  0.00000000E+00  0.00000000E+00
  0.00000000E+00  0.00000000E+00  0.00000000E+00
  0.00000000E+00  0.00000000E+00  0.00000000E+00
  0.00000000E+00  0.00000000E+00  0.00000000E+00
  0.00000000E+00  0.00000000E+00  0.00000000E+00
  0.00000000E+00  0.00000000E+00  0.00000000E+00
  0.00000000E+00  0.00000000E+00  0.00000000E+00
  0.00000000E+00  0.00000000E+00  0.00000000E+00
