In Sn Cl                                
   1.00000000000000     
    11.1151079999999993  -11.1151079999999993    0.0000000000000000
    11.1151079999999993   11.1151079999999993    0.0000000000000000
     0.0000000000000000    0.0000000000000000   22.2302150000000012
   Cl   In   Sn
    96    32    32
Direct
  0.9773113351338202  0.3028895738804316  0.0057875576187371
  0.0331230932851002  0.2927986705294681  0.2579252086803996
  0.9443587678536902  0.2831774485145298  0.5075734012992636
  0.0146211590159155  0.2462423406071052  0.7551110059481047
  0.4771681548058473  0.3181427029036186  0.0240948555053268
  0.5336521833932513  0.1708328445097300  0.2698183142883437
  0.4779852078232025  0.3137606208782283  0.5129551334089748
  0.5221531036788247  0.2356185294723604  0.7670030347988016
  0.2296941852534544  0.4321149343686559  0.9897013989143951
  0.2418407500629151  0.5449389541181336  0.2397286888605480
  0.2640513955867246  0.4639220045507570  0.4945302854265267
  0.2663418156405060  0.5727183532840525  0.7416190206274140
  0.9912478155371048  0.8268725694687636  0.9876838471737169
  0.0034711227391810  0.6898761571474684  0.2352528929768700
 -0.0068423604916499  0.8176615761966282  0.4837860890763346
  0.0508398917186656  0.7471398118631238  0.7360106750070200
  0.7233629811287474  0.4370441102733978  0.0086941925831068
  0.7656394857247399  0.5195959374968178  0.2561436921124136
  0.7640824112585348  0.5023899805496722  0.5156377499169494
  0.7801318429054399  0.5661631497940459  0.7695504479627904
  0.4864380772176232  0.8116192578655609  0.0072242224075717
  0.4302969438581861  0.7256287399874251  0.2551560119265667
  0.5558989672753071  0.7435287934632417  0.5060392717436947
  0.5163461097379168  0.6811749575726677  0.7619800780052720
  0.2179297045154966  0.9429578235142940  0.0059804975814009
  0.2993032628769761  0.0525103506414496  0.2506838832348666
  0.2237673464021420  0.9660114832187449  0.4953626751789319
  0.2973339941001230  0.0180566881556200  0.7545382310815170
  0.7241665036464441  0.9351148399713524  0.9840223924753747
  0.7606422512924508  0.0636308037195581  0.2306087731208660
  0.7252411995301062  0.9223890513377543  0.4753077991845182
  0.7460409826199877  0.0229438574777446  0.7296407810295280
  0.1452404765141570  0.1604503266710485  0.0679412477122409
  0.0955766033839403  0.1129916366667079  0.3477998950476998
  0.1521788121056885  0.1328032915122574  0.5930239358579291
  0.1854634468251971  0.1363114234200707  0.8822545083951834
  0.6392053305011648  0.1846992391765379  0.1056644046689947
  0.5898972161599730  0.1074444235443423  0.4269872239748320
  0.6318022649418360  0.0958252642969122  0.5952511345367896
  0.6767947849372768  0.1408947629383699  0.8967261962339035
  0.3200652172946123  0.3503677630426104  0.1622824316083893
  0.3715819999023462  0.4106252479550770  0.3552082652992825
  0.3529727711163114  0.3348397379048560  0.6538753327574133
  0.3780393044656929  0.3509974944526082  0.8665862571148367
  0.1451925596658807  0.6735957020333139  0.1019583698819650
  0.0882860227276143  0.6218137291757729  0.4286055207383598
  0.1747544061766958  0.6581078881156520  0.6023085034170406
  0.1619047402685308  0.6356003940202926  0.9289361497114409
  0.8395701851950549  0.3534770165318951  0.1401917024575881
  0.9044960343548175  0.4376173080676345  0.3738113677090450
  0.8507947587315796  0.3343884662935555  0.6571825288397887
  0.8730750836759447  0.3454026783134856  0.8618373563335358
  0.6404848068954051  0.6610115092983938  0.0900416103066605
  0.5697968286429846  0.5932864569003399  0.3498437791335762
  0.6820380869775506  0.6577965788019053  0.6323419307799707
  0.6681502509445804  0.6508325748920808  0.9141975035900460
  0.3377467005066883  0.8610751384262189  0.1360111212765493
  0.4098488170358438  0.9299703613788466  0.3761494247493370
  0.3705633389482254  0.8364779425081444  0.5917390753442280
  0.3404170837681126  0.8056042114363025  0.8439532511820209
  0.8388257654501727  0.8811187852351787  0.1513490471431287
  0.8633445216053731  0.8888178404891045  0.3321093237621244
  0.8613038365828231  0.8250723810337659  0.6618929816319167
  0.8719177274185274  0.8322517934297828  0.8438625626984755
  0.9182102500324497  0.1120524959826255  0.0960393528105855
  0.8424659863333135  0.1016465835143262  0.4042286395977135
  0.8692236604982939  0.0915463179296471  0.5885458098604117
  0.9154586828856769  0.1168218662783394  0.8711557030211386
  0.3813313839254297  0.0832445304199389  0.0782833215045656
  0.3286220290813435  0.1514149382032891  0.3983969289653232
  0.3848425251841366  0.0987288016567329  0.5819287669372828
  0.4190462719853285  0.1292241847158074  0.8924042625644140
  0.0977905987953211  0.4303572622833539  0.1292822018323331
  0.1366037590838075  0.3250897946009356  0.4027052918741096
  0.0739656088082154  0.3905622631142149  0.6242887076573921
  0.0915126286071764  0.4358152086629614  0.8589643452001530
  0.8775137919322040  0.5776888785194337  0.1021664799735942
  0.8114605538069151  0.6585958713060246  0.3860032429936174
  0.9095023824737434  0.5783883732668530  0.6297206570801687
  0.9079053711450100  0.6273088987525031  0.9246332035291345
  0.5701851337041589  0.3849107255424188  0.1740566555037675
  0.6672636878848121  0.3112883641944973  0.3723816731659711
  0.5737654100534815  0.4214422105809379  0.6499964545709420
  0.6069477820086870  0.4417596992041716  0.8554386861945393
  0.4079420772641267  0.6291667224990322  0.0940884083930608
  0.3329481207584380  0.6328428845672077  0.3977933185609246
  0.3971685743805195  0.5771746042125050  0.6020011375621852
  0.4153403330264568  0.6054492993331078  0.9063533759843664
  0.0857098431862560  0.8812850649424564  0.1631654886668154
  0.1488079098354923  0.8236390477979338  0.3559822767905115
  0.0748499611067616  0.9084158272726053  0.6238415425517145
  0.1184919940180936  0.9207452441910433  0.8511540900345896
  0.5993543611057248  0.9407670858084252  0.1305330237586944
  0.6229897661488639  0.8274262461079983  0.3144987271976606
  0.5891530181185634  0.8784850616182441  0.6496832797749931
  0.5938409556468217  0.9292449896606036  0.8451064860360991
  0.0480282133429572  0.0159720884681009  0.9683630395592429
  0.9462187088860163  0.9962299414687050  0.2307446026748446
  0.0280972669953174  0.0082125082560858  0.5092983396473924
  0.9719610012778828  0.9345509390248623  0.7494806726767561
  0.5345635796086097 -0.0007024230425168  0.0049123664675393
  0.4794558040203132  0.9790883431464728  0.2508908167364386
  0.5101479160189741  0.9748657465393739  0.5168985808355629
  0.5486078336162300  0.0296787415691581  0.7312572206144712
  0.2980616356270248  0.2356213694957703  0.9860693084596460
  0.2319474978494694  0.2421447371525147  0.2926464279647091
  0.2818148301665483  0.2519616816589737  0.5194877738056441
  0.3118147594842801  0.2112142958242725  0.7806900141224961
  0.0375841357531638  0.5002046280751486 -0.0010263133009255
  0.9610413776081992  0.4820975951972641  0.2284904845220929
  0.9679769295398672  0.4766519823675414  0.5054428323922363
  0.9724975019964398  0.4485322979489879  0.7355981950667173
  0.7836442462089860  0.2540025003283429  0.0169042138708056
  0.7047862420745589  0.2573237980885150  0.2324057302254990
  0.7593541527246054  0.2080543960694585  0.4976547106699786
  0.8055621589873423  0.2124719425052916  0.7798781767488345
  0.5378015957317288  0.5264966908921420  0.9968717518458101
  0.4451476810130557  0.5215866262380092  0.2521828732091860
  0.4530392205494595  0.5049587540879490  0.4752246646965803
  0.4689538212367300  0.4896161653508022  0.7636630222394051
  0.2849475069006702  0.7498360101566911  0.0127918224822453
  0.2184508124379893  0.7448268835833946  0.2267787548379226
  0.2225396066932631  0.7542572034175482  0.4798280211951792
  0.2466594834001440  0.7588525493463152  0.7171006075278566
  0.7864678978511581  0.7376738280609019  0.0085470866429336
  0.7769045326116433  0.7404530335724807  0.2628547617671029
  0.7494787057501751  0.7319059938757226  0.5110359629028441
  0.7172559886118501  0.7461630354742034  0.7513193938114994
  0.0171171875232981  0.2450752870937567  0.1124776014049223
  0.0000551396913826  0.2478981373544000  0.3671450625743730
  0.9869873860670962  0.2480742148411081  0.6208706775621993
  0.0148431257159740  0.2550474785804934  0.8731137033546411
  0.4855546563506203  0.2557754951507291  0.1319821016348181
  0.5185108212483959  0.2382910379941379  0.3789980991287384
  0.5027863515457295  0.2777454000597596  0.6279842344885873
  0.5213558233626543  0.2620370387477934  0.8830538199155824
  0.2507489830541939  0.4912886565879367  0.1261959381935047
  0.2325754597144918  0.4993668069642941  0.3806408667062696
  0.2512296523959754  0.5128721069980325  0.6295273105762700
  0.2403343460508650  0.5043182940179181  0.8834914586111957
  0.0003933663433793  0.7505641010362747  0.1256113253759493
  0.0042030408211279  0.7475024699014595  0.3775999297716102
  0.0025081260054690  0.7517411835305943  0.6231029742191980
  0.0066648954830245  0.7500411834323973  0.8849210309690501
  0.7411858797207799  0.4896991349810081  0.1237410393138860
  0.7505498725422513  0.5019328501083365  0.3745602458112753
  0.7567918630982572  0.5060808844524687  0.6344489688211692
  0.7550244729904874  0.5142299357488893  0.8814732777716070
  0.5060463553866260  0.7584668592312128  0.1192137751883324
  0.4945918582268137  0.7415405546201485  0.3621801630469402
  0.5011817353736384  0.7384981224871298  0.6177094071355305
  0.4908093968632805  0.7447899373787220  0.8701386065932950
  0.2478488960001975  0.0012592234477767  0.1163564774338027
  0.2607251516124606  0.0066245255185393  0.3653579301404680
  0.2537363970083221  0.0017636054966362  0.6094698974452236
  0.2700129105672541  0.9872020512176083  0.8679913182013288
  0.7478073179386038  0.0162133840499330  0.1171260507393855
  0.7335533436487049  0.9887215165855896  0.3674776964605287
  0.7478057232188472  0.9803068564736723  0.6131085762732765
  0.7428309381820902  0.9908901496770860  0.8735689250192942
 
  0.00000000E+00  0.00000000E+00  0.00000000E+00
  0.00000000E+00  0.00000000E+00  0.00000000E+00
  0.00000000E+00  0.00000000E+00  0.00000000E+00
  0.00000000E+00  0.00000000E+00  0.00000000E+00
  0.00000000E+00  0.00000000E+00  0.00000000E+00
  0.00000000E+00  0.00000000E+00  0.00000000E+00
  0.00000000E+00  0.00000000E+00  0.00000000E+00
  0.00000000E+00  0.00000000E+00  0.00000000E+00
  0.00000000E+00  0.00000000E+00  0.00000000E+00
  0.00000000E+00  0.00000000E+00  0.00000000E+00
  0.00000000E+00  0.00000000E+00  0.00000000E+00
  0.00000000E+00  0.00000000E+00  0.00000000E+00
  0.00000000E+00  0.00000000E+00  0.00000000E+00
  0.00000000E+00  0.00000000E+00  0.00000000E+00
  0.00000000E+00  0.00000000E+00  0.00000000E+00
  0.00000000E+00  0.00000000E+00  0.00000000E+00
  0.00000000E+00  0.00000000E+00  0.00000000E+00
  0.00000000E+00  0.00000000E+00  0.00000000E+00
  0.00000000E+00  0.00000000E+00  0.00000000E+00
  0.00000000E+00  0.00000000E+00  0.00000000E+00
  0.00000000E+00  0.00000000E+00  0.00000000E+00
  0.00000000E+00  0.00000000E+00  0.00000000E+00
  0.00000000E+00  0.00000000E+00  0.00000000E+00
  0.00000000E+00  0.00000000E+00  0.00000000E+00
  0.00000000E+00  0.00000000E+00  0.00000000E+00
  0.00000000E+00  0.00000000E+00  0.00000000E+00
  0.00000000E+00  0.00000000E+00  0.00000000E+00
  0.00000000E+00  0.00000000E+00  0.00000000E+00
  0.00000000E+00  0.00000000E+00  0.00000000E+00
  0.00000000E+00  0.00000000E+00  0.00000000E+00
  0.00000000E+00  0.00000000E+00  0.00000000E+00
  0.00000000E+00  0.00000000E+00  0.00000000E+00
  0.00000000E+00  0.00000000E+00  0.00000000E+00
  0.00000000E+00  0.00000000E+00  0.00000000E+00
  0.00000000E+00  0.00000000E+00  0.00000000E+00
  0.00000000E+00  0.00000000E+00  0.00000000E+00
  0.00000000E+00  0.00000000E+00  0.00000000E+00
  0.00000000E+00  0.00000000E+00  0.00000000E+00
  0.00000000E+00  0.00000000E+00  0.00000000E+00
  0.00000000E+00  0.00000000E+00  0.00000000E+00
  0.00000000E+00  0.00000000E+00  0.00000000E+00
  0.00000000E+00  0.00000000E+00  0.00000000E+00
  0.00000000E+00  0.00000000E+00  0.00000000E+00
  0.00000000E+00  0.00000000E+00  0.00000000E+00
  0.00000000E+00  0.00000000E+00  0.00000000E+00
  0.00000000E+00  0.00000000E+00  0.00000000E+00
  0.00000000E+00  0.00000000E+00  0.00000000E+00
  0.00000000E+00  0.00000000E+00  0.00000000E+00
  0.00000000E+00  0.00000000E+00  0.00000000E+00
  0.00000000E+00  0.00000000E+00  0.00000000E+00
  0.00000000E+00  0.00000000E+00  0.00000000E+00
  0.00000000E+00  0.00000000E+00  0.00000000E+00
  0.00000000E+00  0.00000000E+00  0.00000000E+00
  0.00000000E+00  0.00000000E+00  0.00000000E+00
  0.00000000E+00  0.00000000E+00  0.00000000E+00
  0.00000000E+00  0.00000000E+00  0.00000000E+00
  0.00000000E+00  0.00000000E+00  0.00000000E+00
  0.00000000E+00  0.00000000E+00  0.00000000E+00
  0.00000000E+00  0.00000000E+00  0.00000000E+00
  0.00000000E+00  0.00000000E+00  0.00000000E+00
  0.00000000E+00  0.00000000E+00  0.00000000E+00
  0.00000000E+00  0.00000000E+00  0.00000000E+00
  0.00000000E+00  0.00000000E+00  0.00000000E+00
  0.00000000E+00  0.00000000E+00  0.00000000E+00
  0.00000000E+00  0.00000000E+00  0.00000000E+00
  0.00000000E+00  0.00000000E+00  0.00000000E+00
  0.00000000E+00  0.00000000E+00  0.00000000E+00
  0.00000000E+00  0.00000000E+00  0.00000000E+00
  0.00000000E+00  0.00000000E+00  0.00000000E+00
  0.00000000E+00  0.00000000E+00  0.00000000E+00
  0.00000000E+00  0.00000000E+00  0.00000000E+00
  0.00000000E+00  0.00000000E+00  0.00000000E+00
  0.00000000E+00  0.00000000E+00  0.00000000E+00
  0.00000000E+00  0.00000000E+00  0.00000000E+00
  0.00000000E+00  0.00000000E+00  0.00000000E+00
  0.00000000E+00  0.00000000E+00  0.00000000E+00
  0.00000000E+00  0.00000000E+00  0.00000000E+00
  0.00000000E+00  0.00000000E+00  0.00000000E+00
  0.00000000E+00  0.00000000E+00  0.00000000E+00
  0.00000000E+00  0.00000000E+00  0.00000000E+00
  0.00000000E+00  0.00000000E+00  0.00000000E+00
  0.00000000E+00  0.00000000E+00  0.00000000E+00
  0.00000000E+00  0.00000000E+00  0.00000000E+00
  0.00000000E+00  0.00000000E+00  0.00000000E+00
  0.00000000E+00  0.00000000E+00  0.00000000E+00
  0.00000000E+00  0.00000000E+00  0.00000000E+00
  0.00000000E+00  0.00000000E+00  0.00000000E+00
  0.00000000E+00  0.00000000E+00  0.00000000E+00
  0.00000000E+00  0.00000000E+00  0.00000000E+00
  0.00000000E+00  0.00000000E+00  0.00000000E+00
  0.00000000E+00  0.00000000E+00  0.00000000E+00
  0.00000000E+00  0.00000000E+00  0.00000000E+00
  0.00000000E+00  0.00000000E+00  0.00000000E+00
  0.00000000E+00  0.00000000E+00  0.00000000E+00
  0.00000000E+00  0.00000000E+00  0.00000000E+00
  0.00000000E+00  0.00000000E+00  0.00000000E+00
  0.00000000E+00  0.00000000E+00  0.00000000E+00
  0.00000000E+00  0.00000000E+00  0.00000000E+00
  0.00000000E+00  0.00000000E+00  0.00000000E+00
  0.00000000E+00  0.00000000E+00  0.00000000E+00
  0.00000000E+00  0.00000000E+00  0.00000000E+00
  0.00000000E+00  0.00000000E+00  0.00000000E+00
  0.00000000E+00  0.00000000E+00  0.00000000E+00
  0.00000000E+00  0.00000000E+00  0.00000000E+00
  0.00000000E+00  0.00000000E+00  0.00000000E+00
  0.00000000E+00  0.00000000E+00  0.00000000E+00
  0.00000000E+00  0.00000000E+00  0.00000000E+00
  0.00000000E+00  0.00000000E+00  0.00000000E+00
  0.00000000E+00  0.00000000E+00  0.00000000E+00
  0.00000000E+00  0.00000000E+00  0.00000000E+00
  0.00000000E+00  0.00000000E+00  0.00000000E+00
  0.00000000E+00  0.00000000E+00  0.00000000E+00
  0.00000000E+00  0.00000000E+00  0.00000000E+00
  0.00000000E+00  0.00000000E+00  0.00000000E+00
  0.00000000E+00  0.00000000E+00  0.00000000E+00
  0.00000000E+00  0.00000000E+00  0.00000000E+00
  0.00000000E+00  0.00000000E+00  0.00000000E+00
  0.00000000E+00  0.00000000E+00  0.00000000E+00
  0.00000000E+00  0.00000000E+00  0.00000000E+00
  0.00000000E+00  0.00000000E+00  0.00000000E+00
  0.00000000E+00  0.00000000E+00  0.00000000E+00
  0.00000000E+00  0.00000000E+00  0.00000000E+00
  0.00000000E+00  0.00000000E+00  0.00000000E+00
  0.00000000E+00  0.00000000E+00  0.00000000E+00
  0.00000000E+00  0.00000000E+00  0.00000000E+00
  0.00000000E+00  0.00000000E+00  0.00000000E+00
  0.00000000E+00  0.00000000E+00  0.00000000E+00
  0.00000000E+00  0.00000000E+00  0.00000000E+00
  0.00000000E+00  0.00000000E+00  0.00000000E+00
  0.00000000E+00  0.00000000E+00  0.00000000E+00
  0.00000000E+00  0.00000000E+00  0.00000000E+00
  0.00000000E+00  0.00000000E+00  0.00000000E+00
  0.00000000E+00  0.00000000E+00  0.00000000E+00
  0.00000000E+00  0.00000000E+00  0.00000000E+00
  0.00000000E+00  0.00000000E+00  0.00000000E+00
  0.00000000E+00  0.00000000E+00  0.00000000E+00
  0.00000000E+00  0.00000000E+00  0.00000000E+00
  0.00000000E+00  0.00000000E+00  0.00000000E+00
  0.00000000E+00  0.00000000E+00  0.00000000E+00
  0.00000000E+00  0.00000000E+00  0.00000000E+00
  0.00000000E+00  0.00000000E+00  0.00000000E+00
  0.00000000E+00  0.00000000E+00  0.00000000E+00
  0.00000000E+00  0.00000000E+00  0.00000000E+00
  0.00000000E+00  0.00000000E+00  0.00000000E+00
  0.00000000E+00  0.00000000E+00  0.00000000E+00
  0.00000000E+00  0.00000000E+00  0.00000000E+00
  0.00000000E+00  0.00000000E+00  0.00000000E+00
  0.00000000E+00  0.00000000E+00  0.00000000E+00
  0.00000000E+00  0.00000000E+00  0.00000000E+00
  0.00000000E+00  0.00000000E+00  0.00000000E+00
  0.00000000E+00  0.00000000E+00  0.00000000E+00
  0.00000000E+00  0.00000000E+00  0.00000000E+00
  0.00000000E+00  0.00000000E+00  0.00000000E+00
  0.00000000E+00  0.00000000E+00  0.00000000E+00
  0.00000000E+00  0.00000000E+00  0.00000000E+00
  0.00000000E+00  0.00000000E+00  0.00000000E+00
  0.00000000E+00  0.00000000E+00  0.00000000E+00
  0.00000000E+00  0.00000000E+00  0.00000000E+00
  0.00000000E+00  0.00000000E+00  0.00000000E+00
  0.00000000E+00  0.00000000E+00  0.00000000E+00
