Tl Hg Cl                                
   1.00000000000000     
    10.6528679999999998  -10.6528679999999998    0.0000000000000000
    10.6528679999999998   10.6528679999999998    0.0000000000000000
     0.0000000000000000    0.0000000000000000   21.3057349999999985
   Cl   Hg   Tl
    96    32    32
Direct
  0.0727427441056028  0.1505686614146165  0.0277943807112161
  0.1237106444206660  0.0730314332226519  0.2356051002755894
  0.1729904665421272  0.0703554545479604  0.4631017822464429
  0.1632005402565853  0.0859525128095934  0.7267700297449355
  0.6172987001611048  0.1801754117554540  0.0488765697721503
  0.6078848087758386  0.1417961828067034  0.2240949068417236
  0.6601702415337208  0.0974824637913376  0.5367112688912925
  0.6362402669691165  0.0698082894621941  0.7289907300924472
  0.4083854479718687  0.3268810130076336  0.0039385966382935
  0.4118968942794067  0.3651465592665618  0.2730752233373485
  0.3479309250683177  0.3872420952879300  0.5014699747014653
  0.3437240995025898  0.4144685420815639  0.8264150193948573
  0.1171537014594345  0.6535724838160096  0.0064856939080845
  0.0823683328315701  0.6559742654687847  0.1800043964639814
  0.1337557900141176  0.5749592790959979  0.5068120081824200
  0.1315836621468878  0.5800264447237865  0.7256142875913137
  0.8557826962128070  0.3484959413189779  0.9336908182106514
  0.8839635001392347  0.3974234610464719  0.2856512973397058
  0.8588815662302033  0.4218304185404885  0.4636458735097948
  0.8487366368830068  0.4365090295990691  0.7513821529243725
  0.5944937282587489  0.6568936068292196  0.9964264991936955
  0.5323975169505142  0.6573374221609245  0.2557017138043653
  0.6435837603540113  0.6370741801350448  0.5212453443787531
  0.6397995621988097  0.5930362011577498  0.6926825733544174
  0.3804093800274968  0.8425354836915504  0.9989135645707654
  0.4385773952902779  0.8851925305772456  0.2614171083464426
  0.3547555830998815  0.9048887199145438  0.4689295443168331
  0.3802439521700731  0.9150592753522847  0.7968261665801338
  0.9126761065252457  0.8697766797285041  0.9712424965797577
  0.9419621268973534  0.8136684665117101  0.2605262108796396
  0.8431243770766274  0.8873557427710614  0.4825920080081813
  0.8991408022284554  0.9253465639390284  0.7503998295145354
  0.8369482402620296  0.0919400293987986  0.9968443153410622
  0.8495618669904083  0.1504281425753544  0.2409420209160931
  0.9213250868742316  0.1520808538643312  0.5078317934057185
  0.8923478192894136  0.1723674222067924  0.7687030962749911
  0.3255100630548247  0.0782374702721578  0.0469180620105441
  0.3597228744379845  0.1401325266426245  0.2165306379019351
  0.4163871451054845  0.1447496169272972  0.5301862378923958
  0.3969781096430333  0.1870201915080165  0.7499096871250132
  0.1045545705020205  0.3982262634867148  0.9754790963159327
  0.1223550671912177  0.3248951303356220  0.2780973885068008
  0.0956456731510278  0.3384124332798152  0.4536853795190293
  0.1167454128040382  0.3258844898571910  0.7638884683410314
  0.8599912985695481  0.5831019937006577  0.0240639722876942
  0.7985612454093437  0.6172975868895654  0.2215734759749123
  0.8916363699001564  0.6444770630531103  0.5302476505039594
  0.8905895665654510  0.6853406622231251  0.7238389208305609
  0.6282340329252252  0.4168630922600788  0.9794258290699939
  0.6449181454812946  0.3891251884745504  0.2310571063169330
  0.6059198777611806  0.3830258472175549  0.5376464033888635
  0.6306687057318855  0.3418113259387764  0.7516006427639566
  0.3530018281283032  0.5825708330669045  0.9748592437612316
  0.2757712208107420  0.5509953059351058  0.2505585826913886
  0.4030560195696680  0.6237829881299118  0.5451150968230649
  0.3908643872347745  0.6752772285438268  0.7366087344498228
  0.1402404364047340  0.8985726197212621  0.0488123428910959
  0.1917065517642993  0.8539742986733441  0.2839791421890276
  0.0903137249519577  0.8259873780329183  0.4597006334830228
  0.1198305395796758  0.8302817392800771  0.7310052711950498
  0.6222284584458747  0.9071980372011194  0.9399969920090794
  0.7032876874247285  0.9123290961280593  0.2577944487858467
  0.5972191636386384  0.8795619952729321  0.4750263816084244
  0.6081755714795433  0.8138908409670266  0.7752813970749683
  0.9426984107167343  0.9786352849617582  0.1345266045135321
  0.9532711696406931  0.0183856636418641  0.3680075050422432
  0.0245138605368536  0.9734930349635860  0.5937813437035786
  0.0536802391307136  0.0161782032338439  0.8816563171978675
  0.5311113795899381  0.9620179037887203  0.1062353483864205
  0.5139535753917998  0.0702032796659119  0.3790192871890022
  0.4539682626381175  0.9477883511595615  0.6301236803632826
  0.4617623391724981  0.0806741407961466  0.9045265305204302
  0.2195138465919823  0.3054952094015456  0.1182405759733082
  0.3032674534316535  0.2254432779385925  0.3805893571077848
  0.2116251549074129  0.2390882030469404  0.6032979831632364
  0.2349567068827493  0.2054336871948043  0.9027014644948641
  0.0194188647977938  0.4421976403645803  0.1353563915000113
  0.0488695661511658  0.5598078694187955  0.3443202838057824
  0.0068725837893351  0.4259477918789640  0.6189015639777572
  0.9814041627745872  0.5604941168767357  0.8698133104872291
  0.8125408238772616  0.3235534032520290  0.1038099051967949
  0.7272625689123282  0.2468385725088837  0.3983478130250263
  0.7849322376760062  0.2761629065870386  0.6195964639489265
  0.6859293498757906  0.1840204127911741  0.8816573158007029
  0.4857421019137789  0.5046444724814376  0.1234923066074759
  0.5238530390632735  0.5032837045944729  0.3929511509031625
  0.4332444977000297  0.4256314220809479  0.6616462110729929
  0.5469339923755548  0.5510596532731968  0.8489584885824110
  0.3047972760377713  0.7307692803440432  0.1345798998704236
  0.2962749181947916  0.6771254265818972  0.3887096464276533
  0.2398445668035678  0.7806134416448903  0.5957071367460214
  0.2260774872509103  0.7542535999810865  0.8739082988720982
  0.7413954471303732  0.8018408501969781  0.0967446689728364
  0.7272779586596329  0.7133246965434521  0.3750393183766953
  0.7255934934595776  0.8357711709374178  0.6289909286209958
  0.7867769071035571  0.7293803501747288  0.8805290739456593
  0.9997173828515636  0.0023165916841964  0.0112944826730168
  0.0193106391487345  0.9534907163394144  0.2518244233495819
  0.0162514181862965  0.9923157499750735  0.4759998656629640
  0.0351597168459290  0.0047896758677338  0.7540360804125686
  0.5074076355350405  0.0317271862845961  0.0061903505942756
  0.5254536953980916  0.0153826468917450  0.2548433486107541
  0.5004513665093513  0.0042682360498773  0.5101221274907020
  0.5068913235785241  0.9842796879850143  0.7505642259226103
  0.2590430964292200  0.2325308152475423  0.0176027229213782
  0.2457004248147338  0.2387422339543483  0.2475506637077558
  0.2340517898882424  0.2373016333769713  0.4880826333522308
  0.2669772468692658  0.2739079552377700  0.7706702468690421
  0.9750230625142363  0.4848361008312325  0.9929636397010820
  0.0166490355873617  0.5064688285275361  0.2396440838971978
  0.9979491554668807  0.4864512200058234  0.4993241015023421
  0.9894791328786406  0.5107809902801550  0.7425778250682817
  0.7522698029566421  0.2481745528182339  0.9955454588570194
  0.7687714282946193  0.2866465840543934  0.2263287105244488
  0.7655385246193630  0.2459857911263122  0.5086316667463796
  0.7563340575211215  0.2519284534515358  0.7762365903794458
  0.4860926901920901  0.4954546513857608  0.9946155843286415
  0.4668354607407165  0.5133128230834693  0.2598735865494768
  0.4918561851131824  0.4952084513088422  0.5211380381035555
  0.4861713389702471  0.4939378259243051  0.7544770700425687
  0.2412160495745735  0.7585193449872839  0.0091258519067747
  0.2205088340686227  0.7043069949088701  0.2504564495349051
  0.2568534801008853  0.7538506737464312  0.4837716648591980
  0.2580914518345060  0.7575126897043102  0.7483739461456238
  0.7249919140909663  0.7801668247963580  0.9826950360695916
  0.7491745261313383  0.7610522628124160  0.2527820663174011
  0.7507220437373517  0.7596426291334305  0.5152949232317574
  0.7357045253457790  0.7288097914873841  0.7351911072767208
  0.0067073862648218  0.2326714562164647  0.1519344805985793
  0.9543687956212367  0.2385274815154651  0.3731038803304982
  0.0089575902844108  0.2253265507837754  0.6351434107662308
  0.0276736561699282  0.2243930046307946  0.8920837076504549
  0.4877784622358846  0.2897752728751739  0.1384291431581874
  0.4984692964314627  0.2750124736341501  0.4129814853745445
  0.5428827468240038  0.2272742343909739  0.6353379805206036
  0.4985706288636677  0.2808633519780435  0.8772983975161797
  0.2220376947490207  0.5281325629982959  0.1031872607100367
  0.2344779741812805  0.4662048502115537  0.3897264316981947
  0.2219278393886622  0.4547296698792518  0.6134563897461834
  0.1954725253606904  0.5420781524969307  0.8770546734681646
  0.9587725394514576  0.7725510295060931  0.0983132713831897
  0.9406499214132248  0.7269602877231121  0.3968143185610680
  0.0308666732731341  0.7631200458887212  0.5993802799618246
  0.9969408608844122  0.7662318185810268  0.8559848707474601
  0.6990266413646534  0.5077909042611228  0.1073300749196512
  0.7282940189580317  0.5048593019545504  0.3552959735513902
  0.7734593026511474  0.4951352345192652  0.6061454913109421
  0.7625767856308553  0.5224361151067536  0.8796207648924838
  0.5051155660627502  0.7453440641779467  0.1132549297718139
  0.5143113855946558  0.7124662599177108  0.4044475990664768
  0.5286228802935549  0.7510796998532457  0.6277965539566197
  0.4763810107250934  0.7482481467013860  0.8843103994194476
  0.2783570036273902  0.9464018120114875  0.1522847990174046
  0.3061237181015372  0.0125674511957272  0.3563309976999490
  0.2573129722988270  0.0016326528537159  0.5920721460684670
  0.2600730615591127  0.9938085468724467  0.9179921700571055
  0.7424978388353497  0.0249087337364719  0.1242596331768145
  0.7182280603253464  0.0208348253511967  0.4018827799826000
  0.8117616991700859  0.0174914795883308  0.6186455340301199
  0.7793650677675860  0.9993083861172128  0.8740688019268519
 
  0.00000000E+00  0.00000000E+00  0.00000000E+00
  0.00000000E+00  0.00000000E+00  0.00000000E+00
  0.00000000E+00  0.00000000E+00  0.00000000E+00
  0.00000000E+00  0.00000000E+00  0.00000000E+00
  0.00000000E+00  0.00000000E+00  0.00000000E+00
  0.00000000E+00  0.00000000E+00  0.00000000E+00
  0.00000000E+00  0.00000000E+00  0.00000000E+00
  0.00000000E+00  0.00000000E+00  0.00000000E+00
  0.00000000E+00  0.00000000E+00  0.00000000E+00
  0.00000000E+00  0.00000000E+00  0.00000000E+00
  0.00000000E+00  0.00000000E+00  0.00000000E+00
  0.00000000E+00  0.00000000E+00  0.00000000E+00
  0.00000000E+00  0.00000000E+00  0.00000000E+00
  0.00000000E+00  0.00000000E+00  0.00000000E+00
  0.00000000E+00  0.00000000E+00  0.00000000E+00
  0.00000000E+00  0.00000000E+00  0.00000000E+00
  0.00000000E+00  0.00000000E+00  0.00000000E+00
  0.00000000E+00  0.00000000E+00  0.00000000E+00
  0.00000000E+00  0.00000000E+00  0.00000000E+00
  0.00000000E+00  0.00000000E+00  0.00000000E+00
  0.00000000E+00  0.00000000E+00  0.00000000E+00
  0.00000000E+00  0.00000000E+00  0.00000000E+00
  0.00000000E+00  0.00000000E+00  0.00000000E+00
  0.00000000E+00  0.00000000E+00  0.00000000E+00
  0.00000000E+00  0.00000000E+00  0.00000000E+00
  0.00000000E+00  0.00000000E+00  0.00000000E+00
  0.00000000E+00  0.00000000E+00  0.00000000E+00
  0.00000000E+00  0.00000000E+00  0.00000000E+00
  0.00000000E+00  0.00000000E+00  0.00000000E+00
  0.00000000E+00  0.00000000E+00  0.00000000E+00
  0.00000000E+00  0.00000000E+00  0.00000000E+00
  0.00000000E+00  0.00000000E+00  0.00000000E+00
  0.00000000E+00  0.00000000E+00  0.00000000E+00
  0.00000000E+00  0.00000000E+00  0.00000000E+00
  0.00000000E+00  0.00000000E+00  0.00000000E+00
  0.00000000E+00  0.00000000E+00  0.00000000E+00
  0.00000000E+00  0.00000000E+00  0.00000000E+00
  0.00000000E+00  0.00000000E+00  0.00000000E+00
  0.00000000E+00  0.00000000E+00  0.00000000E+00
  0.00000000E+00  0.00000000E+00  0.00000000E+00
  0.00000000E+00  0.00000000E+00  0.00000000E+00
  0.00000000E+00  0.00000000E+00  0.00000000E+00
  0.00000000E+00  0.00000000E+00  0.00000000E+00
  0.00000000E+00  0.00000000E+00  0.00000000E+00
  0.00000000E+00  0.00000000E+00  0.00000000E+00
  0.00000000E+00  0.00000000E+00  0.00000000E+00
  0.00000000E+00  0.00000000E+00  0.00000000E+00
  0.00000000E+00  0.00000000E+00  0.00000000E+00
  0.00000000E+00  0.00000000E+00  0.00000000E+00
  0.00000000E+00  0.00000000E+00  0.00000000E+00
  0.00000000E+00  0.00000000E+00  0.00000000E+00
  0.00000000E+00  0.00000000E+00  0.00000000E+00
  0.00000000E+00  0.00000000E+00  0.00000000E+00
  0.00000000E+00  0.00000000E+00  0.00000000E+00
  0.00000000E+00  0.00000000E+00  0.00000000E+00
  0.00000000E+00  0.00000000E+00  0.00000000E+00
  0.00000000E+00  0.00000000E+00  0.00000000E+00
  0.00000000E+00  0.00000000E+00  0.00000000E+00
  0.00000000E+00  0.00000000E+00  0.00000000E+00
  0.00000000E+00  0.00000000E+00  0.00000000E+00
  0.00000000E+00  0.00000000E+00  0.00000000E+00
  0.00000000E+00  0.00000000E+00  0.00000000E+00
  0.00000000E+00  0.00000000E+00  0.00000000E+00
  0.00000000E+00  0.00000000E+00  0.00000000E+00
  0.00000000E+00  0.00000000E+00  0.00000000E+00
  0.00000000E+00  0.00000000E+00  0.00000000E+00
  0.00000000E+00  0.00000000E+00  0.00000000E+00
  0.00000000E+00  0.00000000E+00  0.00000000E+00
  0.00000000E+00  0.00000000E+00  0.00000000E+00
  0.00000000E+00  0.00000000E+00  0.00000000E+00
  0.00000000E+00  0.00000000E+00  0.00000000E+00
  0.00000000E+00  0.00000000E+00  0.00000000E+00
  0.00000000E+00  0.00000000E+00  0.00000000E+00
  0.00000000E+00  0.00000000E+00  0.00000000E+00
  0.00000000E+00  0.00000000E+00  0.00000000E+00
  0.00000000E+00  0.00000000E+00  0.00000000E+00
  0.00000000E+00  0.00000000E+00  0.00000000E+00
  0.00000000E+00  0.00000000E+00  0.00000000E+00
  0.00000000E+00  0.00000000E+00  0.00000000E+00
  0.00000000E+00  0.00000000E+00  0.00000000E+00
  0.00000000E+00  0.00000000E+00  0.00000000E+00
  0.00000000E+00  0.00000000E+00  0.00000000E+00
  0.00000000E+00  0.00000000E+00  0.00000000E+00
  0.00000000E+00  0.00000000E+00  0.00000000E+00
  0.00000000E+00  0.00000000E+00  0.00000000E+00
  0.00000000E+00  0.00000000E+00  0.00000000E+00
  0.00000000E+00  0.00000000E+00  0.00000000E+00
  0.00000000E+00  0.00000000E+00  0.00000000E+00
  0.00000000E+00  0.00000000E+00  0.00000000E+00
  0.00000000E+00  0.00000000E+00  0.00000000E+00
  0.00000000E+00  0.00000000E+00  0.00000000E+00
  0.00000000E+00  0.00000000E+00  0.00000000E+00
  0.00000000E+00  0.00000000E+00  0.00000000E+00
  0.00000000E+00  0.00000000E+00  0.00000000E+00
  0.00000000E+00  0.00000000E+00  0.00000000E+00
  0.00000000E+00  0.00000000E+00  0.00000000E+00
  0.00000000E+00  0.00000000E+00  0.00000000E+00
  0.00000000E+00  0.00000000E+00  0.00000000E+00
  0.00000000E+00  0.00000000E+00  0.00000000E+00
  0.00000000E+00  0.00000000E+00  0.00000000E+00
  0.00000000E+00  0.00000000E+00  0.00000000E+00
  0.00000000E+00  0.00000000E+00  0.00000000E+00
  0.00000000E+00  0.00000000E+00  0.00000000E+00
  0.00000000E+00  0.00000000E+00  0.00000000E+00
  0.00000000E+00  0.00000000E+00  0.00000000E+00
  0.00000000E+00  0.00000000E+00  0.00000000E+00
  0.00000000E+00  0.00000000E+00  0.00000000E+00
  0.00000000E+00  0.00000000E+00  0.00000000E+00
  0.00000000E+00  0.00000000E+00  0.00000000E+00
  0.00000000E+00  0.00000000E+00  0.00000000E+00
  0.00000000E+00  0.00000000E+00  0.00000000E+00
  0.00000000E+00  0.00000000E+00  0.00000000E+00
  0.00000000E+00  0.00000000E+00  0.00000000E+00
  0.00000000E+00  0.00000000E+00  0.00000000E+00
  0.00000000E+00  0.00000000E+00  0.00000000E+00
  0.00000000E+00  0.00000000E+00  0.00000000E+00
  0.00000000E+00  0.00000000E+00  0.00000000E+00
  0.00000000E+00  0.00000000E+00  0.00000000E+00
  0.00000000E+00  0.00000000E+00  0.00000000E+00
  0.00000000E+00  0.00000000E+00  0.00000000E+00
  0.00000000E+00  0.00000000E+00  0.00000000E+00
  0.00000000E+00  0.00000000E+00  0.00000000E+00
  0.00000000E+00  0.00000000E+00  0.00000000E+00
  0.00000000E+00  0.00000000E+00  0.00000000E+00
  0.00000000E+00  0.00000000E+00  0.00000000E+00
  0.00000000E+00  0.00000000E+00  0.00000000E+00
  0.00000000E+00  0.00000000E+00  0.00000000E+00
  0.00000000E+00  0.00000000E+00  0.00000000E+00
  0.00000000E+00  0.00000000E+00  0.00000000E+00
  0.00000000E+00  0.00000000E+00  0.00000000E+00
  0.00000000E+00  0.00000000E+00  0.00000000E+00
  0.00000000E+00  0.00000000E+00  0.00000000E+00
  0.00000000E+00  0.00000000E+00  0.00000000E+00
  0.00000000E+00  0.00000000E+00  0.00000000E+00
  0.00000000E+00  0.00000000E+00  0.00000000E+00
  0.00000000E+00  0.00000000E+00  0.00000000E+00
  0.00000000E+00  0.00000000E+00  0.00000000E+00
  0.00000000E+00  0.00000000E+00  0.00000000E+00
  0.00000000E+00  0.00000000E+00  0.00000000E+00
  0.00000000E+00  0.00000000E+00  0.00000000E+00
  0.00000000E+00  0.00000000E+00  0.00000000E+00
  0.00000000E+00  0.00000000E+00  0.00000000E+00
  0.00000000E+00  0.00000000E+00  0.00000000E+00
  0.00000000E+00  0.00000000E+00  0.00000000E+00
  0.00000000E+00  0.00000000E+00  0.00000000E+00
  0.00000000E+00  0.00000000E+00  0.00000000E+00
  0.00000000E+00  0.00000000E+00  0.00000000E+00
  0.00000000E+00  0.00000000E+00  0.00000000E+00
  0.00000000E+00  0.00000000E+00  0.00000000E+00
  0.00000000E+00  0.00000000E+00  0.00000000E+00
  0.00000000E+00  0.00000000E+00  0.00000000E+00
  0.00000000E+00  0.00000000E+00  0.00000000E+00
  0.00000000E+00  0.00000000E+00  0.00000000E+00
  0.00000000E+00  0.00000000E+00  0.00000000E+00
  0.00000000E+00  0.00000000E+00  0.00000000E+00
  0.00000000E+00  0.00000000E+00  0.00000000E+00
  0.00000000E+00  0.00000000E+00  0.00000000E+00
  0.00000000E+00  0.00000000E+00  0.00000000E+00
  0.00000000E+00  0.00000000E+00  0.00000000E+00
  0.00000000E+00  0.00000000E+00  0.00000000E+00
