Cs I Mg                                 
   1.00000000000000     
    11.8288510000000002  -11.8288510000000002    0.0000000000000000
    11.8288510000000002   11.8288510000000002    0.0000000000000000
     0.0000000000000000    0.0000000000000000   23.6577030000000015
   Cs   I    Mg
    32    96    32
Direct
 -0.0081681192939342  0.0076514465731424  0.0001487567702550
 -0.0053870053955705  0.0003191343901370  0.2522087583484175
 -0.0033805838535716 -0.0018806236078608  0.4955522969077150
 -0.0054806379791951  0.0028596510402574  0.7485157211381058
  0.4992553893725809  0.0040463324959487 -0.0009081204367365
  0.5052554764928254 -0.0048358335379483  0.2496641317906184
  0.5058013458560775 -0.0077335027606633  0.4970363646250863
  0.5018911293615175 -0.0016674308721312  0.7517215173460882
  0.2485521785711694  0.2562895811776990 -0.0001262514234397
  0.2520324966578029  0.2468244463290852  0.2481562503121564
  0.2534327398554685  0.2447785914165601  0.4990310117800948
  0.2507393291408377  0.2483609755863047  0.7541022697375571
  0.0008151385188322  0.5059289779870343 -0.0000390494015927
  0.0054352409771537  0.4960977048782284  0.2488365010923598
  0.0053895993983265  0.4931511931991441  0.4971177172352380
  0.0029799775457109  0.4990726943752253  0.7535895654377813
  0.7451960313798139  0.2570444063618737  0.9999162019041176
  0.7483555063498502  0.2473958142522685  0.2539341540767117
  0.7484637573870387  0.2464230290876456  0.4952625839406975
  0.7485718446347762  0.2504466281181357  0.7449861706707063
  0.4925919732375649  0.5064696675824173 -0.0001175680128755
  0.4949798424815425  0.4997839030236584  0.2517760834935864
  0.4971484256641252  0.4976018372875001  0.4954242039801656
  0.4943214390973224  0.5014600777842988  0.7489001025982303
  0.2477375056053707  0.7562452106030733 -0.0004120428557951
  0.2491740075330732  0.7474415626898088  0.2536719279090641
  0.2485996934107410  0.7462366757346396  0.4951595639953872
  0.2493434261544835  0.7508495951701409  0.7453386002336618
  0.7493971317134209  0.7561895642775899 -0.0003653611763483
  0.7531241368372109  0.7462924411958421  0.2485558080419585
  0.7544121095129966  0.7445710440810911  0.4995990902537240
  0.7529789010354517  0.7480311015617758  0.7547055201712656
  0.0127977079013192  0.2454310731936880 -0.0001099440190522
 -0.0165861223861697  0.2546288379561935  0.2488946717940512
  0.0155925614493028  0.2447784374737602  0.4984914965758979
 -0.0141321468223834  0.2549754372349010  0.7492993939476981
  0.5062382839847023  0.2637735318397567  0.9995438850426155
  0.4915746821490638  0.2339041996478271  0.2497590203588204
  0.5064945719014963  0.2631064363598604  0.4987273332365991
  0.4927380691022442  0.2363651454444731  0.7491715562478445
  0.2477800276131762  0.4940931905368091 -0.0004039434463454
  0.2520686036654505  0.5076726105868578  0.2492891611644067
  0.2480630959086455  0.4893543534707903  0.4989597414015119
  0.2509192603380863  0.5074922671589688  0.7495407206985493
  0.0086254424992795  0.7665179628946526 -0.0005571894383929
  0.9916243190513048  0.7345524246128715  0.2495521397790800
  0.0065488076468022  0.7629602460807473  0.4987116247086639
  0.9936244408425979  0.7367872292906810  0.7497118691228675
  0.7283388181970490  0.4997513437863995 -0.0002205470264633
  0.7710506643486276  0.5001827288158133  0.2493236918252398
  0.7305550002674313  0.4993537998233126  0.4989008069214870
  0.7686325354439710  0.4992939130255390  0.7497670622381071
  0.5129778576040289  0.7458755801328412  0.9993474968714209
  0.4842388938415826  0.7538617730485905  0.2496803370720674
  0.5165066840373015  0.7429801719093521  0.4987078988893818
  0.4863158379698063  0.7544865449096854  0.7488552310709224
  0.2277146175431441 -0.0025934167809187 -0.0003473167915864
  0.2711866784110388  0.0010970688060063  0.2497618522128547
  0.2296354599850648 -0.0021715480483556  0.4984846688042149
  0.2671549943589560  0.0019921524734844  0.7486991835423739
  0.7461069352055245 -0.0059161018837176 -0.0006096728889176
  0.7517330850934973  0.0076653980900786  0.2494437129661098
  0.7482208822731857 -0.0106969638439154  0.4989362675717219
  0.7507819035165268  0.0076752310689110  0.7492778399565710
  0.1119934070472388  0.1144620043347105  0.1348592785688654
  0.1272872012658355  0.1270399885159479  0.3630009033170682
  0.1384826235417321  0.1389152474492097  0.6319479896876479
  0.1116547832274301  0.1148023364067271  0.8661810548437011
  0.6113097953874309  0.1129602065910039  0.1223653941301838
  0.6272228149333559  0.1254820843038273  0.3775326295136568
  0.6388867025116624  0.1380725408633026  0.6202931515715145
  0.6119904579552324  0.1143617493257854  0.8772145033904192
  0.3855696312378949  0.3860041865511320  0.1273837353458174
  0.3712618107120172  0.3705251304539688  0.3700948083647124
  0.3591174336640601  0.3589456150747045  0.6280221592126427
  0.3846632398233975  0.3859848628263023  0.8720619425260748
  0.1142644336326126  0.6154495809376831  0.1221325823319189
  0.1274187489568656  0.6257181160590025  0.3771609837785589
  0.1395236603168853  0.6386783596535891  0.6205778347572373
  0.1145659961588461  0.6157924259411345  0.8780310695870710
  0.8849579554421866  0.3868821645182182  0.1141665343711336
  0.8723440981931280  0.3715849664279677  0.3845489080435571
  0.8610610139168785  0.3604735145613768  0.6141068507951906
  0.8848219489231768  0.3866265354817119  0.8849675150125152
  0.6138409236190511  0.6143013154268380  0.1349357161483109
  0.6278944822781980  0.6266633658562075  0.3627988623964107
  0.6397758792134938  0.6382272567775690  0.6338904433454026
  0.6140038525811946  0.6148004352854781  0.8650759435210307
  0.3852372558170478  0.8860257240007247  0.1151199418171639
  0.3730330997146621  0.8711763845596950  0.3846129578193090
  0.3613546031064800  0.8602247719252047  0.6142160886415821
  0.3846315161345067  0.8863090512823957  0.8821183113944386
  0.8858502202655328  0.8879490894407145  0.1273262284749668
  0.8720894974441069  0.8713539385551459  0.3705205047381722
  0.8597380215362233  0.8591505762907876  0.6281374102097418
  0.8851322151173637  0.8876071057892393  0.8722692215372720
  0.8602561509329854  0.1382467092479422  0.1193716939670729
  0.8770504780872347  0.1219420031001470  0.3793385454703412
  0.8883557926168808  0.1105323719272996  0.6191029583056550
  0.8601633758957029  0.1389377214524919  0.8793195595465249
  0.3619432010098457  0.1359094190871059  0.1142139563989849
  0.3783180286082531  0.1205589520752472  0.3867617308188421
  0.3890798515828947  0.1097298722110040  0.6130594658141385
  0.3621298949967470  0.1356381935132694  0.8849986668229961
  0.1348545669081333  0.3649713899534816  0.1297717953498909
  0.1228141254188411  0.3758092897893068  0.3680859308808033
  0.1101489509781237  0.3892416036663721  0.6291688514602221
  0.1341830594379091  0.3655706697658885  0.8707429287830843
  0.8646347271902487  0.6368497163364438  0.1139207037515261
  0.8781715986832213  0.6212312859831134  0.3859623178361022
  0.8902227836269648  0.6094356886002089  0.6147044079858496
  0.8647227349460148  0.6358870685607890  0.8851901077330208
  0.6350627477240326  0.3631508534396362  0.1359034298634151
  0.6220564858339181  0.3765053144356951  0.3632872215593649
  0.6105774064983728  0.3877374407403171  0.6330944386162595
  0.6349670852186661  0.3636796954733023  0.8641977829418432
  0.3628999762653771  0.6369415953911441  0.1198279443017344
  0.3773382652201351  0.6212716352621775  0.3795423216216594
  0.3887214684759521  0.6101156602982449  0.6190935801594625
  0.3629770403174352  0.6371315371789412  0.8786490922077306
  0.1349330087922557  0.8648476243790775  0.1370734404672286
  0.1221991013511167  0.8766884237558230  0.3626919657738943
  0.1106788688807836  0.8879032771302043  0.6331699652970196
  0.1348705479369831  0.8652350653914189  0.8629671279739802
  0.6358740002910260  0.8635105614351843  0.1303945274621532
  0.6233173047822769  0.8754747155935996  0.3682005194441544
  0.6105365629966921  0.8884038668492218  0.6284845320811671
  0.6345599325673761  0.8652241992763936  0.8701427393203043
 -0.0019349349117825  0.2501626858723655  0.1242613731111747
  0.0002949986668166  0.2491102741420344  0.3738939906397307
  0.0001573045417976  0.2495662323973258  0.6237712239363450
 -0.0022059519013500  0.2505961236167796  0.8744705270360231
  0.4992109538255198  0.2500092919856743  0.1245928497348786
  0.4992970000058494  0.2482785884247603  0.3741925142869876
  0.4992479646582012  0.2487184199255553  0.6240439394687103
  0.4992231814256430  0.2503404022777062  0.8743503270455173
  0.2491225347615312  0.5005630939267413  0.1244251245578003
  0.2498322951486510  0.4981114511655160  0.3743386831951405
  0.2495170399940690  0.4985400380799976  0.6242626355616969
  0.2490688859161040  0.5011348413281511  0.8742802744792416
 -0.0004971611469823  0.7513166398747356  0.1244001931064265
 -0.0002912279666076  0.7486466313192075  0.3740576663847108
 -0.0002835748530998  0.7487863746823179  0.6242479295201933
 -0.0003606631714540  0.7514712566380181  0.8745487583449725
  0.7487123437631971  0.4998585750627378  0.1246346557614208
  0.7502518112944070  0.4994120537525648  0.3741054874826255
  0.7498887636199210  0.4993818828333738  0.6242799086573841
  0.7483588136165096  0.4996815896992063  0.8746297355765992
  0.4989266100069075  0.7503866326399549  0.1244333996401177
  0.5005236737304815  0.7488126145606137  0.3741962325839835
  0.5004079512301869  0.7488760876572804  0.6238838172772192
  0.4988163897937699  0.7504652289688056  0.8740664150318049
  0.2482742793918669  0.0001372587141616  0.1245281273160978
  0.2503099848898940 -0.0006748792641250  0.3738636827312659
  0.2497812833421093 -0.0007800354573055  0.6236630628403669
  0.2478842789419328  0.0001808276636202  0.8744397444863135
  0.7486974695327985  0.0008275215423546  0.1242729467350450
  0.7497558497434176 -0.0018820414630120  0.3742534041462581
  0.7496169511310937 -0.0014693198725459  0.6241965481707178
  0.7488885730279956  0.0015526479397048  0.8742065810492157
 
  0.00000000E+00  0.00000000E+00  0.00000000E+00
  0.00000000E+00  0.00000000E+00  0.00000000E+00
  0.00000000E+00  0.00000000E+00  0.00000000E+00
  0.00000000E+00  0.00000000E+00  0.00000000E+00
  0.00000000E+00  0.00000000E+00  0.00000000E+00
  0.00000000E+00  0.00000000E+00  0.00000000E+00
  0.00000000E+00  0.00000000E+00  0.00000000E+00
  0.00000000E+00  0.00000000E+00  0.00000000E+00
  0.00000000E+00  0.00000000E+00  0.00000000E+00
  0.00000000E+00  0.00000000E+00  0.00000000E+00
  0.00000000E+00  0.00000000E+00  0.00000000E+00
  0.00000000E+00  0.00000000E+00  0.00000000E+00
  0.00000000E+00  0.00000000E+00  0.00000000E+00
  0.00000000E+00  0.00000000E+00  0.00000000E+00
  0.00000000E+00  0.00000000E+00  0.00000000E+00
  0.00000000E+00  0.00000000E+00  0.00000000E+00
  0.00000000E+00  0.00000000E+00  0.00000000E+00
  0.00000000E+00  0.00000000E+00  0.00000000E+00
  0.00000000E+00  0.00000000E+00  0.00000000E+00
  0.00000000E+00  0.00000000E+00  0.00000000E+00
  0.00000000E+00  0.00000000E+00  0.00000000E+00
  0.00000000E+00  0.00000000E+00  0.00000000E+00
  0.00000000E+00  0.00000000E+00  0.00000000E+00
  0.00000000E+00  0.00000000E+00  0.00000000E+00
  0.00000000E+00  0.00000000E+00  0.00000000E+00
  0.00000000E+00  0.00000000E+00  0.00000000E+00
  0.00000000E+00  0.00000000E+00  0.00000000E+00
  0.00000000E+00  0.00000000E+00  0.00000000E+00
  0.00000000E+00  0.00000000E+00  0.00000000E+00
  0.00000000E+00  0.00000000E+00  0.00000000E+00
  0.00000000E+00  0.00000000E+00  0.00000000E+00
  0.00000000E+00  0.00000000E+00  0.00000000E+00
  0.00000000E+00  0.00000000E+00  0.00000000E+00
  0.00000000E+00  0.00000000E+00  0.00000000E+00
  0.00000000E+00  0.00000000E+00  0.00000000E+00
  0.00000000E+00  0.00000000E+00  0.00000000E+00
  0.00000000E+00  0.00000000E+00  0.00000000E+00
  0.00000000E+00  0.00000000E+00  0.00000000E+00
  0.00000000E+00  0.00000000E+00  0.00000000E+00
  0.00000000E+00  0.00000000E+00  0.00000000E+00
  0.00000000E+00  0.00000000E+00  0.00000000E+00
  0.00000000E+00  0.00000000E+00  0.00000000E+00
  0.00000000E+00  0.00000000E+00  0.00000000E+00
  0.00000000E+00  0.00000000E+00  0.00000000E+00
  0.00000000E+00  0.00000000E+00  0.00000000E+00
  0.00000000E+00  0.00000000E+00  0.00000000E+00
  0.00000000E+00  0.00000000E+00  0.00000000E+00
  0.00000000E+00  0.00000000E+00  0.00000000E+00
  0.00000000E+00  0.00000000E+00  0.00000000E+00
  0.00000000E+00  0.00000000E+00  0.00000000E+00
  0.00000000E+00  0.00000000E+00  0.00000000E+00
  0.00000000E+00  0.00000000E+00  0.00000000E+00
  0.00000000E+00  0.00000000E+00  0.00000000E+00
  0.00000000E+00  0.00000000E+00  0.00000000E+00
  0.00000000E+00  0.00000000E+00  0.00000000E+00
  0.00000000E+00  0.00000000E+00  0.00000000E+00
  0.00000000E+00  0.00000000E+00  0.00000000E+00
  0.00000000E+00  0.00000000E+00  0.00000000E+00
  0.00000000E+00  0.00000000E+00  0.00000000E+00
  0.00000000E+00  0.00000000E+00  0.00000000E+00
  0.00000000E+00  0.00000000E+00  0.00000000E+00
  0.00000000E+00  0.00000000E+00  0.00000000E+00
  0.00000000E+00  0.00000000E+00  0.00000000E+00
  0.00000000E+00  0.00000000E+00  0.00000000E+00
  0.00000000E+00  0.00000000E+00  0.00000000E+00
  0.00000000E+00  0.00000000E+00  0.00000000E+00
  0.00000000E+00  0.00000000E+00  0.00000000E+00
  0.00000000E+00  0.00000000E+00  0.00000000E+00
  0.00000000E+00  0.00000000E+00  0.00000000E+00
  0.00000000E+00  0.00000000E+00  0.00000000E+00
  0.00000000E+00  0.00000000E+00  0.00000000E+00
  0.00000000E+00  0.00000000E+00  0.00000000E+00
  0.00000000E+00  0.00000000E+00  0.00000000E+00
  0.00000000E+00  0.00000000E+00  0.00000000E+00
  0.00000000E+00  0.00000000E+00  0.00000000E+00
  0.00000000E+00  0.00000000E+00  0.00000000E+00
  0.00000000E+00  0.00000000E+00  0.00000000E+00
  0.00000000E+00  0.00000000E+00  0.00000000E+00
  0.00000000E+00  0.00000000E+00  0.00000000E+00
  0.00000000E+00  0.00000000E+00  0.00000000E+00
  0.00000000E+00  0.00000000E+00  0.00000000E+00
  0.00000000E+00  0.00000000E+00  0.00000000E+00
  0.00000000E+00  0.00000000E+00  0.00000000E+00
  0.00000000E+00  0.00000000E+00  0.00000000E+00
  0.00000000E+00  0.00000000E+00  0.00000000E+00
  0.00000000E+00  0.00000000E+00  0.00000000E+00
  0.00000000E+00  0.00000000E+00  0.00000000E+00
  0.00000000E+00  0.00000000E+00  0.00000000E+00
  0.00000000E+00  0.00000000E+00  0.00000000E+00
  0.00000000E+00  0.00000000E+00  0.00000000E+00
  0.00000000E+00  0.00000000E+00  0.00000000E+00
  0.00000000E+00  0.00000000E+00  0.00000000E+00
  0.00000000E+00  0.00000000E+00  0.00000000E+00
  0.00000000E+00  0.00000000E+00  0.00000000E+00
  0.00000000E+00  0.00000000E+00  0.00000000E+00
  0.00000000E+00  0.00000000E+00  0.00000000E+00
  0.00000000E+00  0.00000000E+00  0.00000000E+00
  0.00000000E+00  0.00000000E+00  0.00000000E+00
  0.00000000E+00  0.00000000E+00  0.00000000E+00
  0.00000000E+00  0.00000000E+00  0.00000000E+00
  0.00000000E+00  0.00000000E+00  0.00000000E+00
  0.00000000E+00  0.00000000E+00  0.00000000E+00
  0.00000000E+00  0.00000000E+00  0.00000000E+00
  0.00000000E+00  0.00000000E+00  0.00000000E+00
  0.00000000E+00  0.00000000E+00  0.00000000E+00
  0.00000000E+00  0.00000000E+00  0.00000000E+00
  0.00000000E+00  0.00000000E+00  0.00000000E+00
  0.00000000E+00  0.00000000E+00  0.00000000E+00
  0.00000000E+00  0.00000000E+00  0.00000000E+00
  0.00000000E+00  0.00000000E+00  0.00000000E+00
  0.00000000E+00  0.00000000E+00  0.00000000E+00
  0.00000000E+00  0.00000000E+00  0.00000000E+00
  0.00000000E+00  0.00000000E+00  0.00000000E+00
  0.00000000E+00  0.00000000E+00  0.00000000E+00
  0.00000000E+00  0.00000000E+00  0.00000000E+00
  0.00000000E+00  0.00000000E+00  0.00000000E+00
  0.00000000E+00  0.00000000E+00  0.00000000E+00
  0.00000000E+00  0.00000000E+00  0.00000000E+00
  0.00000000E+00  0.00000000E+00  0.00000000E+00
  0.00000000E+00  0.00000000E+00  0.00000000E+00
  0.00000000E+00  0.00000000E+00  0.00000000E+00
  0.00000000E+00  0.00000000E+00  0.00000000E+00
  0.00000000E+00  0.00000000E+00  0.00000000E+00
  0.00000000E+00  0.00000000E+00  0.00000000E+00
  0.00000000E+00  0.00000000E+00  0.00000000E+00
  0.00000000E+00  0.00000000E+00  0.00000000E+00
  0.00000000E+00  0.00000000E+00  0.00000000E+00
  0.00000000E+00  0.00000000E+00  0.00000000E+00
  0.00000000E+00  0.00000000E+00  0.00000000E+00
  0.00000000E+00  0.00000000E+00  0.00000000E+00
  0.00000000E+00  0.00000000E+00  0.00000000E+00
  0.00000000E+00  0.00000000E+00  0.00000000E+00
  0.00000000E+00  0.00000000E+00  0.00000000E+00
  0.00000000E+00  0.00000000E+00  0.00000000E+00
  0.00000000E+00  0.00000000E+00  0.00000000E+00
  0.00000000E+00  0.00000000E+00  0.00000000E+00
  0.00000000E+00  0.00000000E+00  0.00000000E+00
  0.00000000E+00  0.00000000E+00  0.00000000E+00
  0.00000000E+00  0.00000000E+00  0.00000000E+00
  0.00000000E+00  0.00000000E+00  0.00000000E+00
  0.00000000E+00  0.00000000E+00  0.00000000E+00
  0.00000000E+00  0.00000000E+00  0.00000000E+00
  0.00000000E+00  0.00000000E+00  0.00000000E+00
  0.00000000E+00  0.00000000E+00  0.00000000E+00
  0.00000000E+00  0.00000000E+00  0.00000000E+00
  0.00000000E+00  0.00000000E+00  0.00000000E+00
  0.00000000E+00  0.00000000E+00  0.00000000E+00
  0.00000000E+00  0.00000000E+00  0.00000000E+00
  0.00000000E+00  0.00000000E+00  0.00000000E+00
  0.00000000E+00  0.00000000E+00  0.00000000E+00
  0.00000000E+00  0.00000000E+00  0.00000000E+00
  0.00000000E+00  0.00000000E+00  0.00000000E+00
  0.00000000E+00  0.00000000E+00  0.00000000E+00
  0.00000000E+00  0.00000000E+00  0.00000000E+00
  0.00000000E+00  0.00000000E+00  0.00000000E+00
  0.00000000E+00  0.00000000E+00  0.00000000E+00
  0.00000000E+00  0.00000000E+00  0.00000000E+00
  0.00000000E+00  0.00000000E+00  0.00000000E+00
  0.00000000E+00  0.00000000E+00  0.00000000E+00
  0.00000000E+00  0.00000000E+00  0.00000000E+00
