Cl Tl Mg                                
   1.00000000000000     
    10.0336940000000006  -10.0336940000000006    0.0000000000000000
    10.0336940000000006   10.0336940000000006    0.0000000000000000
     0.0000000000000000    0.0000000000000000   20.0673880000000011
   Cl   Mg   Tl
    96    32    32
Direct
  0.1120570794413040  0.1381692369246690 -0.0113697517376548
  0.1367074572808459  0.1140989167841356  0.2632103203657597
  0.1129296850268918  0.1376783280538660  0.4885628443290286
  0.1366449885507302  0.1141125473330706  0.7632339184582976
  0.6138094821453564  0.1367571847493264  0.9856817192570202
  0.6386707771605235  0.1118501504716982  0.2622523409060053
  0.6146193274041165  0.1357845683165239  0.4855727803954171
  0.6388887908406575  0.1119467255180557  0.7617809603723154
  0.3885233842028566  0.3621442574477680  0.0113945651153219
  0.3643204111753807  0.3863730558828603  0.2368539719154095
  0.3880411528247573  0.3626093942548090  0.5111508203422487
  0.3641103482788463  0.3863267157276224  0.7367493268608417
  0.1139705798547598  0.6364427588655724 -0.0144591654628923
  0.1383279348458524  0.6123993615638705  0.2622726549529195
  0.1149819845045126  0.6358045424151877  0.4855612699590122
  0.1385543140071810  0.6123164537414901  0.7620617372154896
  0.8867322832504797  0.3635689188357704  0.0142549320495778
  0.8624501234685488  0.3881541413276097  0.2379601271203032
  0.8861795855291147  0.3644637659755613  0.5144674784117117
  0.8624220757583626  0.3882118623734411  0.7376132438252800
  0.6119965320815787  0.6383623076723657 -0.0113556151798088
  0.6369214286691792  0.6136964624113684  0.2632832797786769
  0.6134230601417735  0.6371721164859291  0.4885690513986878
  0.6366754274851655  0.6139638662343622  0.7627858102295777
  0.3864636866526457  0.8640651341640325  0.0141994019302429
  0.3624823242988760  0.8881468341636535  0.2379962399774088
  0.3860685355286823  0.8644874033090231  0.5144870706899487
  0.3626459475189972  0.8880749390618563  0.7376709847168368
  0.8884185541380786  0.8619527813534928  0.0113524153639014
  0.8641123892609869  0.8863196508433524  0.2370741646487166
  0.8879371652202069  0.8628870334952449  0.5110914550428903
  0.8641804859122539  0.8864352064837768  0.7367405161833160
  0.8626705622597920  0.1124837797642533  0.0142778136578132
  0.8876910815788686  0.1373523710103674  0.2357438355844448
  0.8635847351406877  0.1133539723217490  0.5145584751263774
  0.8878317365076664  0.1378329834744957  0.7353832305114553
  0.3628806410510927  0.1126999732638043  0.9853531347308510
  0.3879674858097116  0.1373738459877627  0.2646307497358834
  0.3636409773050683  0.1132457707701785  0.4853604979862710
  0.3878945243544178  0.1374106789702227  0.7645082014427859
  0.1377600714383354  0.3876163583639490  0.0145867012171261
  0.1133433655359079  0.3631431155697057  0.2352037328675018
  0.1374956579032576  0.3871757387636702  0.5147659975765773
  0.1132409054134834  0.3630517982919865  0.7353393938488539
  0.8627770333998206  0.6125228685651031  0.9853416440102936
  0.8879475476672501  0.6374089762521382  0.2646167623071747
  0.8641273671077047  0.6134587630031009  0.4851365575062005
  0.8877369507971236  0.6374078251426207  0.7646326187851105
  0.6378865124332151  0.3878433665557214  0.9856294043996183
  0.6130599353859119  0.3626245981758806  0.2644148604111439
  0.6373029017804033  0.3869090394592016  0.4852584119752767
  0.6130812235246037  0.3628583032164869  0.7643109256436198
  0.3628886066453598  0.6128325107110644  0.0145317766523376
  0.3876434398499004  0.6373181257723926  0.2356227391031076
  0.3638294037077313  0.6133107768048887  0.5144642529956223
  0.3877487387324177  0.6374751457905466  0.7353478278793296
  0.1376685612817565  0.8876448289652001  0.9855864630061367
  0.1132350435166094  0.8630842072586720  0.2645393834461978
  0.1373357991317448  0.8871162821935044  0.4854646507455102
  0.1132763021332180  0.8631811083850338  0.7642771949415408
  0.6377218549867376  0.8876831883386810  0.0145010265357157
  0.6130924179344943  0.8627176948255944  0.2352826442587891
  0.6371639692968458  0.8868316028877655  0.5146102207485010
  0.6132261494659180  0.8627910709042809  0.7352137567547244
  0.0268326811646545  0.9982508398579564  0.1251384834640757
 -0.0262727782004609  0.0022150860860994  0.3749128450846981
  0.0270067862901820  0.9982381397761341  0.6250603307243674
  0.9734984862656442  0.0021670798454381  0.8748609661645290
  0.4992309414021711  0.0276719825618538  0.1249690395160693
  0.5017232121976979  0.9723428026576363  0.3749711871874928
  0.4993521324569089  0.0278012248618756  0.6248947060889728
  0.5019414435203552 -0.0273917062568316  0.8748721307663644
  0.2523411022695683  0.2232729867661724  0.1249872309257499
  0.2482022725962850  0.2769067720431569  0.3749900544384870
  0.2523882367819497  0.2233433542491732  0.6249489482121010
  0.2483915685876710  0.2770709895720794  0.8750024859746171
 -0.0009625365106662  0.5278033625694856  0.1249535378641044
  0.0020430885952062  0.4723519294002612  0.3749895532293241
 -0.0006938053527384  0.5280814385418470  0.6250033834483169
  0.0016237863932356  0.4723974162222785  0.8748815695892620
  0.7228854696370137  0.2509672516970343  0.1249816155886713
  0.7781042369432218  0.2492176123002587  0.3750307813716617
  0.7223775582907854  0.2512293279779355  0.6249232857838173
  0.7779169315234707  0.2492167963658807  0.8748579482388587
  0.5271988562555354  0.4983885580220614  0.1250668400867743
  0.4738458427065069  0.5021997852815211  0.3748488616045038
  0.5269065318490967  0.4977655341298270  0.6249248888550990
  0.4735847851214955  0.5023152813638398  0.8748416937709947
  0.2228423018037117  0.7512063265736438  0.1250011238128150
  0.2781334128184185  0.7492711916142950  0.3750107800635964
  0.2225894345021693  0.7510680510129288  0.6249349135829763
  0.2779116571530873  0.7492692904844382  0.8749184671777368
  0.7522718397702273  0.7232262306485471  0.1249134695345494
  0.7483600749846400  0.7768376224278744  0.3749875320933062
  0.7528493443756120  0.7233245374566835  0.6249028061533800
  0.7482494326955504  0.7769803262907710  0.8749125312516864
  0.0002282026097020  0.0001275961376011  0.0000243891967089
  0.0004699211317257  0.0001545948485629  0.2500717032676759
  0.0004428531718023  0.0001987977879302  0.4999584003764215
  0.0003335216445561  0.0004672399782204  0.7499491858531170
  0.5002796315450059  0.0002054619853806 -0.0000885978288148
  0.5005691184882181  0.0000888386073808  0.2500700989694266
  0.5004700161565958 -0.0000051798120489  0.4999902425858874
  0.5006614279416762  0.0002318604796941  0.7499020013253487
  0.2502701973281125  0.2501862646546147  0.0000324524208992
  0.2505272123886302  0.2501342729915758  0.2499861988189013
  0.2505053172312761  0.2501520904509069  0.4999771341961237
  0.2503803139397837  0.2502223982463111  0.7500137834500428
  0.0001819248515715  0.5001068033474987 -0.0000782288566763
  0.0004875781048122  0.5000790309502413  0.2499915219982711
  0.0006278092565107  0.5001318675130388  0.5000838692820646
  0.0005237691535522  0.5003093206908175  0.7498938142026096
  0.7502205061548193  0.2501985912874629 -0.0000843435056657
  0.7504513970718674  0.2500782296267092  0.2500389544644411
  0.7504134738746809  0.2501035823243934  0.4999881874279584
  0.7503844093481212  0.2503106782576149  0.7498687654453638
  0.5002134299549496  0.5002640004601100 -0.0000173173266733
  0.5006392290028111  0.5001240177338417  0.2499439202925595
  0.5005295823900580  0.5001011162306417  0.4998749143051640
  0.5003577986007602  0.5000492479020696  0.7499189700504519
  0.2502126139597026  0.7501960515978843 -0.0000488744101095
  0.2504737588694047  0.7502271692200180  0.2500235465930022
  0.2505356831917442  0.7501560260498904  0.4999453381695215
  0.2504646587460216  0.7502508247672998  0.7498498826859553
  0.7502373859205983  0.7501236604517988 -0.0000494111053557
  0.7504496144354342  0.7500101977907935  0.2499454879539980
  0.7506566171112740  0.7500762851415390  0.4999216827214651
  0.7504601149104653  0.7501973242574700  0.7499420984733413
  0.0109834198547265  0.2391555764063825  0.1182162693713960
  0.0075045677205264  0.2430480376007987  0.3649973844574756
  0.0110933492383309  0.2398538944637562  0.6179309241386740
  0.0073228968933790  0.2430185813385623  0.8647253299888983
  0.4936168110951013  0.2572260107844035  0.1351639475242382
  0.4903663021917880  0.2604888612641406  0.3819111465704737
  0.4929938082472314  0.2572703516098774  0.6347130994609618
  0.4893695561413118  0.2613214958562147  0.8817932141578616
  0.2399779082104641  0.5105194958431526  0.1323755192770002
  0.2440723608767315  0.5064359196936998  0.3849422490318807
  0.2400401786533303  0.5109857467968536  0.6321052444727389
  0.2431361035143979  0.5068936738502227  0.8853097848692512
 -0.0065089754700170  0.7573123747834621  0.1353355107091261
 -0.0095587289579811  0.7604989379348105  0.3819189175400353
 -0.0069041484406397  0.7577448746091099  0.6348403471567254
 -0.0101123139974451  0.7614392887301010  0.8816286106018956
  0.7571973680195311  0.4933953786206358  0.1145141757094087
  0.7612003694348703  0.4898439178855078  0.3679875411937177
  0.7566314632143805  0.4935728808202761  0.6146997326631083
  0.7609208681646241  0.4898109816022838  0.8674166756660822
  0.5105673578825565  0.7396418683759411  0.1181394472237514
  0.5077737675867841  0.7427799086167359  0.3649067995117672
  0.5111471182299374  0.7393877321663762  0.6178761887626127
  0.5075494367569011  0.7428870444946277  0.8646536499961425
  0.2573748832306529 -0.0064750991299113  0.1148379656467240
  0.2609467940164789 -0.0101575239905229  0.3680994434213826
  0.2568763619026694 -0.0063433721391417  0.6148786156809191
  0.2611493954879960 -0.0104403892928735  0.8676154981910716
  0.7399309932731167  0.0101103271424223  0.1322510479285574
  0.7441197796936426  0.0065354111647364  0.3853414504620837
  0.7400342350012070  0.0105026891262280  0.6320827041300909
  0.7434604894223957  0.0069721466103055  0.8854150455178738
 
  0.00000000E+00  0.00000000E+00  0.00000000E+00
  0.00000000E+00  0.00000000E+00  0.00000000E+00
  0.00000000E+00  0.00000000E+00  0.00000000E+00
  0.00000000E+00  0.00000000E+00  0.00000000E+00
  0.00000000E+00  0.00000000E+00  0.00000000E+00
  0.00000000E+00  0.00000000E+00  0.00000000E+00
  0.00000000E+00  0.00000000E+00  0.00000000E+00
  0.00000000E+00  0.00000000E+00  0.00000000E+00
  0.00000000E+00  0.00000000E+00  0.00000000E+00
  0.00000000E+00  0.00000000E+00  0.00000000E+00
  0.00000000E+00  0.00000000E+00  0.00000000E+00
  0.00000000E+00  0.00000000E+00  0.00000000E+00
  0.00000000E+00  0.00000000E+00  0.00000000E+00
  0.00000000E+00  0.00000000E+00  0.00000000E+00
  0.00000000E+00  0.00000000E+00  0.00000000E+00
  0.00000000E+00  0.00000000E+00  0.00000000E+00
  0.00000000E+00  0.00000000E+00  0.00000000E+00
  0.00000000E+00  0.00000000E+00  0.00000000E+00
  0.00000000E+00  0.00000000E+00  0.00000000E+00
  0.00000000E+00  0.00000000E+00  0.00000000E+00
  0.00000000E+00  0.00000000E+00  0.00000000E+00
  0.00000000E+00  0.00000000E+00  0.00000000E+00
  0.00000000E+00  0.00000000E+00  0.00000000E+00
  0.00000000E+00  0.00000000E+00  0.00000000E+00
  0.00000000E+00  0.00000000E+00  0.00000000E+00
  0.00000000E+00  0.00000000E+00  0.00000000E+00
  0.00000000E+00  0.00000000E+00  0.00000000E+00
  0.00000000E+00  0.00000000E+00  0.00000000E+00
  0.00000000E+00  0.00000000E+00  0.00000000E+00
  0.00000000E+00  0.00000000E+00  0.00000000E+00
  0.00000000E+00  0.00000000E+00  0.00000000E+00
  0.00000000E+00  0.00000000E+00  0.00000000E+00
  0.00000000E+00  0.00000000E+00  0.00000000E+00
  0.00000000E+00  0.00000000E+00  0.00000000E+00
  0.00000000E+00  0.00000000E+00  0.00000000E+00
  0.00000000E+00  0.00000000E+00  0.00000000E+00
  0.00000000E+00  0.00000000E+00  0.00000000E+00
  0.00000000E+00  0.00000000E+00  0.00000000E+00
  0.00000000E+00  0.00000000E+00  0.00000000E+00
  0.00000000E+00  0.00000000E+00  0.00000000E+00
  0.00000000E+00  0.00000000E+00  0.00000000E+00
  0.00000000E+00  0.00000000E+00  0.00000000E+00
  0.00000000E+00  0.00000000E+00  0.00000000E+00
  0.00000000E+00  0.00000000E+00  0.00000000E+00
  0.00000000E+00  0.00000000E+00  0.00000000E+00
  0.00000000E+00  0.00000000E+00  0.00000000E+00
  0.00000000E+00  0.00000000E+00  0.00000000E+00
  0.00000000E+00  0.00000000E+00  0.00000000E+00
  0.00000000E+00  0.00000000E+00  0.00000000E+00
  0.00000000E+00  0.00000000E+00  0.00000000E+00
  0.00000000E+00  0.00000000E+00  0.00000000E+00
  0.00000000E+00  0.00000000E+00  0.00000000E+00
  0.00000000E+00  0.00000000E+00  0.00000000E+00
  0.00000000E+00  0.00000000E+00  0.00000000E+00
  0.00000000E+00  0.00000000E+00  0.00000000E+00
  0.00000000E+00  0.00000000E+00  0.00000000E+00
  0.00000000E+00  0.00000000E+00  0.00000000E+00
  0.00000000E+00  0.00000000E+00  0.00000000E+00
  0.00000000E+00  0.00000000E+00  0.00000000E+00
  0.00000000E+00  0.00000000E+00  0.00000000E+00
  0.00000000E+00  0.00000000E+00  0.00000000E+00
  0.00000000E+00  0.00000000E+00  0.00000000E+00
  0.00000000E+00  0.00000000E+00  0.00000000E+00
  0.00000000E+00  0.00000000E+00  0.00000000E+00
  0.00000000E+00  0.00000000E+00  0.00000000E+00
  0.00000000E+00  0.00000000E+00  0.00000000E+00
  0.00000000E+00  0.00000000E+00  0.00000000E+00
  0.00000000E+00  0.00000000E+00  0.00000000E+00
  0.00000000E+00  0.00000000E+00  0.00000000E+00
  0.00000000E+00  0.00000000E+00  0.00000000E+00
  0.00000000E+00  0.00000000E+00  0.00000000E+00
  0.00000000E+00  0.00000000E+00  0.00000000E+00
  0.00000000E+00  0.00000000E+00  0.00000000E+00
  0.00000000E+00  0.00000000E+00  0.00000000E+00
  0.00000000E+00  0.00000000E+00  0.00000000E+00
  0.00000000E+00  0.00000000E+00  0.00000000E+00
  0.00000000E+00  0.00000000E+00  0.00000000E+00
  0.00000000E+00  0.00000000E+00  0.00000000E+00
  0.00000000E+00  0.00000000E+00  0.00000000E+00
  0.00000000E+00  0.00000000E+00  0.00000000E+00
  0.00000000E+00  0.00000000E+00  0.00000000E+00
  0.00000000E+00  0.00000000E+00  0.00000000E+00
  0.00000000E+00  0.00000000E+00  0.00000000E+00
  0.00000000E+00  0.00000000E+00  0.00000000E+00
  0.00000000E+00  0.00000000E+00  0.00000000E+00
  0.00000000E+00  0.00000000E+00  0.00000000E+00
  0.00000000E+00  0.00000000E+00  0.00000000E+00
  0.00000000E+00  0.00000000E+00  0.00000000E+00
  0.00000000E+00  0.00000000E+00  0.00000000E+00
  0.00000000E+00  0.00000000E+00  0.00000000E+00
  0.00000000E+00  0.00000000E+00  0.00000000E+00
  0.00000000E+00  0.00000000E+00  0.00000000E+00
  0.00000000E+00  0.00000000E+00  0.00000000E+00
  0.00000000E+00  0.00000000E+00  0.00000000E+00
  0.00000000E+00  0.00000000E+00  0.00000000E+00
  0.00000000E+00  0.00000000E+00  0.00000000E+00
  0.00000000E+00  0.00000000E+00  0.00000000E+00
  0.00000000E+00  0.00000000E+00  0.00000000E+00
  0.00000000E+00  0.00000000E+00  0.00000000E+00
  0.00000000E+00  0.00000000E+00  0.00000000E+00
  0.00000000E+00  0.00000000E+00  0.00000000E+00
  0.00000000E+00  0.00000000E+00  0.00000000E+00
  0.00000000E+00  0.00000000E+00  0.00000000E+00
  0.00000000E+00  0.00000000E+00  0.00000000E+00
  0.00000000E+00  0.00000000E+00  0.00000000E+00
  0.00000000E+00  0.00000000E+00  0.00000000E+00
  0.00000000E+00  0.00000000E+00  0.00000000E+00
  0.00000000E+00  0.00000000E+00  0.00000000E+00
  0.00000000E+00  0.00000000E+00  0.00000000E+00
  0.00000000E+00  0.00000000E+00  0.00000000E+00
  0.00000000E+00  0.00000000E+00  0.00000000E+00
  0.00000000E+00  0.00000000E+00  0.00000000E+00
  0.00000000E+00  0.00000000E+00  0.00000000E+00
  0.00000000E+00  0.00000000E+00  0.00000000E+00
  0.00000000E+00  0.00000000E+00  0.00000000E+00
  0.00000000E+00  0.00000000E+00  0.00000000E+00
  0.00000000E+00  0.00000000E+00  0.00000000E+00
  0.00000000E+00  0.00000000E+00  0.00000000E+00
  0.00000000E+00  0.00000000E+00  0.00000000E+00
  0.00000000E+00  0.00000000E+00  0.00000000E+00
  0.00000000E+00  0.00000000E+00  0.00000000E+00
  0.00000000E+00  0.00000000E+00  0.00000000E+00
  0.00000000E+00  0.00000000E+00  0.00000000E+00
  0.00000000E+00  0.00000000E+00  0.00000000E+00
  0.00000000E+00  0.00000000E+00  0.00000000E+00
  0.00000000E+00  0.00000000E+00  0.00000000E+00
  0.00000000E+00  0.00000000E+00  0.00000000E+00
  0.00000000E+00  0.00000000E+00  0.00000000E+00
  0.00000000E+00  0.00000000E+00  0.00000000E+00
  0.00000000E+00  0.00000000E+00  0.00000000E+00
  0.00000000E+00  0.00000000E+00  0.00000000E+00
  0.00000000E+00  0.00000000E+00  0.00000000E+00
  0.00000000E+00  0.00000000E+00  0.00000000E+00
  0.00000000E+00  0.00000000E+00  0.00000000E+00
  0.00000000E+00  0.00000000E+00  0.00000000E+00
  0.00000000E+00  0.00000000E+00  0.00000000E+00
  0.00000000E+00  0.00000000E+00  0.00000000E+00
  0.00000000E+00  0.00000000E+00  0.00000000E+00
  0.00000000E+00  0.00000000E+00  0.00000000E+00
  0.00000000E+00  0.00000000E+00  0.00000000E+00
  0.00000000E+00  0.00000000E+00  0.00000000E+00
  0.00000000E+00  0.00000000E+00  0.00000000E+00
  0.00000000E+00  0.00000000E+00  0.00000000E+00
  0.00000000E+00  0.00000000E+00  0.00000000E+00
  0.00000000E+00  0.00000000E+00  0.00000000E+00
  0.00000000E+00  0.00000000E+00  0.00000000E+00
  0.00000000E+00  0.00000000E+00  0.00000000E+00
  0.00000000E+00  0.00000000E+00  0.00000000E+00
  0.00000000E+00  0.00000000E+00  0.00000000E+00
  0.00000000E+00  0.00000000E+00  0.00000000E+00
  0.00000000E+00  0.00000000E+00  0.00000000E+00
  0.00000000E+00  0.00000000E+00  0.00000000E+00
  0.00000000E+00  0.00000000E+00  0.00000000E+00
  0.00000000E+00  0.00000000E+00  0.00000000E+00
  0.00000000E+00  0.00000000E+00  0.00000000E+00
  0.00000000E+00  0.00000000E+00  0.00000000E+00
  0.00000000E+00  0.00000000E+00  0.00000000E+00
  0.00000000E+00  0.00000000E+00  0.00000000E+00
  0.00000000E+00  0.00000000E+00  0.00000000E+00
  0.00000000E+00  0.00000000E+00  0.00000000E+00
