Ca Br In                                
   1.00000000000000     
    11.3799150000000004  -11.3799150000000004    0.0000000000000000
    11.3799150000000004   11.3799150000000004    0.0000000000000000
     0.0000000000000000    0.0000000000000000   22.7598300000000009
   Br   Ca   In
    96    32    32
Direct
  0.1569990113465124  0.0936735393516123  0.9859364866399983
  0.1073472386491428  0.1396707152516490  0.2856485054407772
  0.0961702916077438  0.1566921100307378  0.4877684192129311
  0.1102801464364753  0.1395941824321668  0.7755400346023932
  0.6441337503690583  0.1109235061278940  0.9740268245417255
  0.5940804335346701  0.1569015221696635  0.2464167114265693
  0.5859439014123788  0.1628364939017912  0.4885367467022776
  0.5857227486935327  0.1660438820790567  0.7633990789295420
  0.3658195857770458  0.3845300572678244  0.0280067631394226
  0.3891080913808190  0.3572893421407450  0.2270633015817120
  0.3948501624008243  0.3606452215639885  0.5254190765561907
  0.3819311586992009  0.3696512556568947  0.7189390400799536
  0.1320697527923666  0.6115764165233526  0.9740377049636399
  0.0938715595085471  0.6523217848060254  0.2580110801529904
  0.0913060903563869  0.6620674616983402  0.4956352290016917
  0.1069618577452215  0.6374421041443784  0.7800901015119692
  0.8586045504267846  0.3906164601511974  0.0355783443262812
  0.9086688253341217  0.3382869334213560  0.2392719436700845
  0.8952910714234021  0.3538907859929321  0.5009681717447454
  0.8996995121343792  0.3434382852364784  0.7323163266859789
  0.6479536596073484  0.6015227222415873  0.9804466401597004
  0.5961252882467455  0.6541196922117418  0.2659145826479522
  0.6060732952766142  0.6488843695032567  0.4687718849286166
  0.5962292456808699  0.6555246435577343  0.7674190739580868
  0.3675615142319174  0.8815336619568591 -0.0000362644435294
  0.3927963625283903  0.8572770957080265  0.2523084143307696
  0.4089571143851798  0.8444463614206412  0.5071156230466419
  0.3943966646778471  0.8586123462757697  0.7429299900269086
  0.8453723057252196  0.9064292379883069  0.0157557206883919
  0.8930987780739077  0.8572198398891011  0.2277159969535122
  0.8909548289820899  0.8619129340962345  0.5218065886534652
  0.8888297464166153  0.8596002938134424  0.7191834615564519
  0.9097892887611515  0.1580266532563511  0.9793119297254846
  0.8526775970889841  0.1013731462717813  0.2770387358950965
  0.8517370938785291  0.1086325260067800  0.4705784859605311
  0.8370731913392422  0.0947478264002818  0.7658693945071517
  0.4007830254636750  0.1436095738600527  0.0241035410111199
  0.3479778154235860  0.0974578533268217  0.2310742537409051
  0.3490394638441907  0.1062276156417953  0.5295175758193275
  0.3479381878851575  0.1072215927134114  0.7264547724170912
  0.1065232668019201  0.3548625334337830  0.9771408055121582
  0.1524108511545809  0.4022311859454121  0.2690234223134372
  0.1546555039458872  0.4066715467030787  0.4826588459338427
  0.1348337105219093  0.3892792203125866  0.7839472760083649
  0.8937818761223313  0.6472773307853158  0.0178538752489250
  0.8561604267770733  0.6047110729424484  0.2150741607460267
  0.8443403155132686  0.5991465488121525  0.5188766343350848
  0.8438963290802379  0.5964996288799594  0.7324349837426477
  0.6143890572572468  0.3624943946752904  0.0259448608582760
  0.6475438181675170  0.3974160419573826  0.2172145188225356
  0.6553372308156211  0.4109919407994721  0.5148463316873679
  0.6536815811009647  0.4092947092538876  0.7299481990684972
  0.3800937094997370  0.6328018046598091  0.9651875265587281
  0.3494525129829347  0.5951458635456961  0.2646465334349561
  0.3458750970690414  0.5968733809789567  0.4819881819973694
  0.3584377088308113  0.6168420642775778  0.7731315845324288
  0.0937600441449025  0.8464771371395258  0.0185543849966573
  0.1536289866970298  0.9018644518171025  0.2310285820651247
  0.1437574919663645  0.8994913551601490  0.5298860400542400
  0.1351424497821697  0.8948683950381341  0.7223608813601905
  0.6122147317797474  0.8614827394092011  0.9611181214853429
  0.6496783738473025  0.8961514467169540  0.2751188625593042
  0.6422502832610607  0.8983548584100887  0.4706015790995396
  0.6501220700502334  0.9068415165956017  0.7657131920794016
  0.9813423621310893  0.0402656260736026  0.1270153119202261
  0.0051064051849227  0.9533064361347945  0.3764660195101339
  0.9891098799146221  0.0509412679411851  0.6260069325831913
 -0.0087313528634570  0.9569382730841719  0.8756020894700557
  0.5196345606354628  0.9681162690934833  0.1251737521921473
  0.4650104109956201  0.0193551495325640  0.3750752637673327
  0.5422720415725805  0.0126378056161183  0.6253454796815772
  0.4585583861272645  0.0221665468824335  0.8748294170818383
  0.2044813765935921  0.2641741747346080  0.1277102337893899
  0.2989456531882012  0.2517418258574352  0.3758335610229975
  0.2015705413535608  0.2597188014966700  0.6265257291558215
  0.2968890196323389  0.2347044737418555  0.8762064587354474
  0.0445211555510852  0.5069209461572614  0.1246234405784773
  0.9611181185037935  0.5228839036663818  0.3742126603094132
  0.0171997320817096  0.4882296186479376  0.6256243794954602
  0.9450345888299685  0.4825033068535792  0.8768180669735390
  0.7723961389341467  0.1978852719367892  0.1220878425500815
  0.7407093912185587  0.2866767891764185  0.3701605513285505
  0.7333221406614928  0.2214205055802638  0.6231119434262787
  0.7455571868429922  0.2978079886225600  0.8749741332904520
  0.5059724504286907  0.5443199867858889  0.1209895915428614
  0.5006670171491379  0.4519700859071502  0.3723783355762818
  0.4861493397613892  0.5469864383080200  0.6224189612802602
  0.5151000809245834  0.4504614259976373  0.8714569504821855
  0.2704103196704172  0.7366793684429769  0.1257169062092927
  0.2269243615742476  0.7855102273671986  0.3765136580659384
  0.2433098989513632  0.7116260670983412  0.6258258536470983
  0.2356186739306104  0.7936466642838818  0.8746732005768626
  0.7060888698231849  0.7613122130354075  0.1235494882911847
  0.7952774871143979  0.7431016446057481  0.3748351020044380
  0.7021420804651483  0.7681033830886315  0.6249732736677059
  0.7984690518036220  0.7631278578656328  0.8730088200445132
  0.0022288283127692  0.0022591850551736  0.0000361107908083
  0.0034491397186476  0.0007422312668027  0.2516860829156494
  0.9981713675838930  0.0048375123523474  0.5004336563821062
  0.9933724022792531  0.0023479559131498  0.7519210698221186
  0.5064370432723541 -0.0019261805474645  0.9994439920493132
  0.5062177818702700  0.0021282986462470  0.2504120368437839
  0.4942071215613625  0.0044586074891568  0.5015351527941916
  0.4973817784206924  0.0073542198027439  0.7500762891789540
  0.2499333574962389  0.2466800794025674  0.0026051374323579
  0.2445552486722230  0.2456667046419108  0.2518332042202329
  0.2499120749426305  0.2529837401160457  0.4999515646732853
  0.2507290092995588  0.2568652865953963  0.7516077236278496
 -0.0038938671915833  0.4971078038581106 -0.0002377363741814
  0.9963943635293342  0.4955833333075535  0.2498800890191880
  0.0034357520324891  0.5035418482358320  0.4985851744005316
  0.9950671410219507  0.5001678349377914  0.7527843338361300
  0.7551854417674418  0.2495551822155610 -0.0015562416404088
  0.7488250247081709  0.2517713696096607  0.2436585343261770
  0.7432302178003702  0.2517292801378709  0.4967195318456309
  0.7455197137442648  0.2510312192820368  0.7507386031397082
  0.4974987000063815  0.5010330465532333  0.9938132213207009
  0.5035904864061714  0.4995524459870973  0.2477909554830785
  0.5018083233454113  0.5037666727424217  0.4963324659806561
  0.4970613461851477  0.5011897514633805  0.7487223071949372
  0.2456963783064040  0.7480579458288192  0.0000359596034545
  0.2486662273075168  0.7435574746836935  0.2530669734119720
  0.2524739837010309  0.7524339424230790  0.5008753591336546
  0.2429095020401635  0.7541469764531988  0.7493610073838589
  0.7473571263990393  0.7510139265041369  0.9969872789619955
  0.7508218809935866  0.7455882285086906  0.2492436771304871
  0.7491985372096284  0.7538463905890983  0.5018696666530589
  0.7495457312538411  0.7499366440973561  0.7496642557040132
  0.9675765204235532  0.2481257982284047  0.1046009878974072
  0.9434474409029848  0.2300217548933497  0.3688404389726609
  0.0055344153057114  0.2530735578611160  0.6037569615919622
 -0.0007148065375702  0.2878195326275895  0.8657657277450402
  0.4887295846148369  0.2698040969369086  0.1153406509334703
  0.5083536058242581  0.2336145401993670  0.3658084723090361
  0.5246049296647899  0.2128744324760551  0.6238035132549571
  0.5101329398181572  0.2182866646364893  0.8930600689837370
  0.2489028738320573  0.4585425988998446  0.1483838251313410
  0.2893703929049866  0.4638960357946149  0.3735526292030283
  0.2925896215259615  0.4867916144601118  0.6049160889085782
  0.2351537709973051  0.5295375421443020  0.8638233250815961
  0.9920864329179812  0.7048998921346421  0.1365613242180254
  0.0146389552254477  0.7356107841897508  0.3763536559840966
  0.0429956569006394  0.7791401936397426  0.6140236741512021
  0.0195334328181058  0.7558184362462008  0.9032103587604278
  0.7149471368625926  0.5078767572457475  0.1041087257221632
  0.7518450517311005  0.5127318941430795  0.4127844532649391
  0.8045241054846305  0.4612024287002474  0.6296835145389738
  0.7161352301022544  0.4951520898607608  0.8517068397930574
  0.5108667966339174  0.7412314355052606  0.1523125883747334
  0.5189931039727934  0.7952680832067929  0.3902821971503624
  0.5075077906011246  0.7423366787044995  0.6517877670725976
  0.4443082409350504  0.7804397622469462  0.8791284636791237
  0.3067415633394319  0.9435763140167851  0.1317484020444968
  0.2508070530770296  0.9946792572649203  0.3340581919343353
  0.2114368736530204  0.0476173148554115  0.6278281619301741
  0.2429407126844705  0.0411390058655328  0.8619748363533486
  0.7879094660704770  0.9811077319631590  0.1409269110666045
  0.7941348933113427  0.9544955206570933  0.3761256475913529
  0.7624383427709092  0.9811780705390566  0.6572615932540534
  0.7608877042319026  0.9618256637492406  0.8871284806117957
 
  0.00000000E+00  0.00000000E+00  0.00000000E+00
  0.00000000E+00  0.00000000E+00  0.00000000E+00
  0.00000000E+00  0.00000000E+00  0.00000000E+00
  0.00000000E+00  0.00000000E+00  0.00000000E+00
  0.00000000E+00  0.00000000E+00  0.00000000E+00
  0.00000000E+00  0.00000000E+00  0.00000000E+00
  0.00000000E+00  0.00000000E+00  0.00000000E+00
  0.00000000E+00  0.00000000E+00  0.00000000E+00
  0.00000000E+00  0.00000000E+00  0.00000000E+00
  0.00000000E+00  0.00000000E+00  0.00000000E+00
  0.00000000E+00  0.00000000E+00  0.00000000E+00
  0.00000000E+00  0.00000000E+00  0.00000000E+00
  0.00000000E+00  0.00000000E+00  0.00000000E+00
  0.00000000E+00  0.00000000E+00  0.00000000E+00
  0.00000000E+00  0.00000000E+00  0.00000000E+00
  0.00000000E+00  0.00000000E+00  0.00000000E+00
  0.00000000E+00  0.00000000E+00  0.00000000E+00
  0.00000000E+00  0.00000000E+00  0.00000000E+00
  0.00000000E+00  0.00000000E+00  0.00000000E+00
  0.00000000E+00  0.00000000E+00  0.00000000E+00
  0.00000000E+00  0.00000000E+00  0.00000000E+00
  0.00000000E+00  0.00000000E+00  0.00000000E+00
  0.00000000E+00  0.00000000E+00  0.00000000E+00
  0.00000000E+00  0.00000000E+00  0.00000000E+00
  0.00000000E+00  0.00000000E+00  0.00000000E+00
  0.00000000E+00  0.00000000E+00  0.00000000E+00
  0.00000000E+00  0.00000000E+00  0.00000000E+00
  0.00000000E+00  0.00000000E+00  0.00000000E+00
  0.00000000E+00  0.00000000E+00  0.00000000E+00
  0.00000000E+00  0.00000000E+00  0.00000000E+00
  0.00000000E+00  0.00000000E+00  0.00000000E+00
  0.00000000E+00  0.00000000E+00  0.00000000E+00
  0.00000000E+00  0.00000000E+00  0.00000000E+00
  0.00000000E+00  0.00000000E+00  0.00000000E+00
  0.00000000E+00  0.00000000E+00  0.00000000E+00
  0.00000000E+00  0.00000000E+00  0.00000000E+00
  0.00000000E+00  0.00000000E+00  0.00000000E+00
  0.00000000E+00  0.00000000E+00  0.00000000E+00
  0.00000000E+00  0.00000000E+00  0.00000000E+00
  0.00000000E+00  0.00000000E+00  0.00000000E+00
  0.00000000E+00  0.00000000E+00  0.00000000E+00
  0.00000000E+00  0.00000000E+00  0.00000000E+00
  0.00000000E+00  0.00000000E+00  0.00000000E+00
  0.00000000E+00  0.00000000E+00  0.00000000E+00
  0.00000000E+00  0.00000000E+00  0.00000000E+00
  0.00000000E+00  0.00000000E+00  0.00000000E+00
  0.00000000E+00  0.00000000E+00  0.00000000E+00
  0.00000000E+00  0.00000000E+00  0.00000000E+00
  0.00000000E+00  0.00000000E+00  0.00000000E+00
  0.00000000E+00  0.00000000E+00  0.00000000E+00
  0.00000000E+00  0.00000000E+00  0.00000000E+00
  0.00000000E+00  0.00000000E+00  0.00000000E+00
  0.00000000E+00  0.00000000E+00  0.00000000E+00
  0.00000000E+00  0.00000000E+00  0.00000000E+00
  0.00000000E+00  0.00000000E+00  0.00000000E+00
  0.00000000E+00  0.00000000E+00  0.00000000E+00
  0.00000000E+00  0.00000000E+00  0.00000000E+00
  0.00000000E+00  0.00000000E+00  0.00000000E+00
  0.00000000E+00  0.00000000E+00  0.00000000E+00
  0.00000000E+00  0.00000000E+00  0.00000000E+00
  0.00000000E+00  0.00000000E+00  0.00000000E+00
  0.00000000E+00  0.00000000E+00  0.00000000E+00
  0.00000000E+00  0.00000000E+00  0.00000000E+00
  0.00000000E+00  0.00000000E+00  0.00000000E+00
  0.00000000E+00  0.00000000E+00  0.00000000E+00
  0.00000000E+00  0.00000000E+00  0.00000000E+00
  0.00000000E+00  0.00000000E+00  0.00000000E+00
  0.00000000E+00  0.00000000E+00  0.00000000E+00
  0.00000000E+00  0.00000000E+00  0.00000000E+00
  0.00000000E+00  0.00000000E+00  0.00000000E+00
  0.00000000E+00  0.00000000E+00  0.00000000E+00
  0.00000000E+00  0.00000000E+00  0.00000000E+00
  0.00000000E+00  0.00000000E+00  0.00000000E+00
  0.00000000E+00  0.00000000E+00  0.00000000E+00
  0.00000000E+00  0.00000000E+00  0.00000000E+00
  0.00000000E+00  0.00000000E+00  0.00000000E+00
  0.00000000E+00  0.00000000E+00  0.00000000E+00
  0.00000000E+00  0.00000000E+00  0.00000000E+00
  0.00000000E+00  0.00000000E+00  0.00000000E+00
  0.00000000E+00  0.00000000E+00  0.00000000E+00
  0.00000000E+00  0.00000000E+00  0.00000000E+00
  0.00000000E+00  0.00000000E+00  0.00000000E+00
  0.00000000E+00  0.00000000E+00  0.00000000E+00
  0.00000000E+00  0.00000000E+00  0.00000000E+00
  0.00000000E+00  0.00000000E+00  0.00000000E+00
  0.00000000E+00  0.00000000E+00  0.00000000E+00
  0.00000000E+00  0.00000000E+00  0.00000000E+00
  0.00000000E+00  0.00000000E+00  0.00000000E+00
  0.00000000E+00  0.00000000E+00  0.00000000E+00
  0.00000000E+00  0.00000000E+00  0.00000000E+00
  0.00000000E+00  0.00000000E+00  0.00000000E+00
  0.00000000E+00  0.00000000E+00  0.00000000E+00
  0.00000000E+00  0.00000000E+00  0.00000000E+00
  0.00000000E+00  0.00000000E+00  0.00000000E+00
  0.00000000E+00  0.00000000E+00  0.00000000E+00
  0.00000000E+00  0.00000000E+00  0.00000000E+00
  0.00000000E+00  0.00000000E+00  0.00000000E+00
  0.00000000E+00  0.00000000E+00  0.00000000E+00
  0.00000000E+00  0.00000000E+00  0.00000000E+00
  0.00000000E+00  0.00000000E+00  0.00000000E+00
  0.00000000E+00  0.00000000E+00  0.00000000E+00
  0.00000000E+00  0.00000000E+00  0.00000000E+00
  0.00000000E+00  0.00000000E+00  0.00000000E+00
  0.00000000E+00  0.00000000E+00  0.00000000E+00
  0.00000000E+00  0.00000000E+00  0.00000000E+00
  0.00000000E+00  0.00000000E+00  0.00000000E+00
  0.00000000E+00  0.00000000E+00  0.00000000E+00
  0.00000000E+00  0.00000000E+00  0.00000000E+00
  0.00000000E+00  0.00000000E+00  0.00000000E+00
  0.00000000E+00  0.00000000E+00  0.00000000E+00
  0.00000000E+00  0.00000000E+00  0.00000000E+00
  0.00000000E+00  0.00000000E+00  0.00000000E+00
  0.00000000E+00  0.00000000E+00  0.00000000E+00
  0.00000000E+00  0.00000000E+00  0.00000000E+00
  0.00000000E+00  0.00000000E+00  0.00000000E+00
  0.00000000E+00  0.00000000E+00  0.00000000E+00
  0.00000000E+00  0.00000000E+00  0.00000000E+00
  0.00000000E+00  0.00000000E+00  0.00000000E+00
  0.00000000E+00  0.00000000E+00  0.00000000E+00
  0.00000000E+00  0.00000000E+00  0.00000000E+00
  0.00000000E+00  0.00000000E+00  0.00000000E+00
  0.00000000E+00  0.00000000E+00  0.00000000E+00
  0.00000000E+00  0.00000000E+00  0.00000000E+00
  0.00000000E+00  0.00000000E+00  0.00000000E+00
  0.00000000E+00  0.00000000E+00  0.00000000E+00
  0.00000000E+00  0.00000000E+00  0.00000000E+00
  0.00000000E+00  0.00000000E+00  0.00000000E+00
  0.00000000E+00  0.00000000E+00  0.00000000E+00
  0.00000000E+00  0.00000000E+00  0.00000000E+00
  0.00000000E+00  0.00000000E+00  0.00000000E+00
  0.00000000E+00  0.00000000E+00  0.00000000E+00
  0.00000000E+00  0.00000000E+00  0.00000000E+00
  0.00000000E+00  0.00000000E+00  0.00000000E+00
  0.00000000E+00  0.00000000E+00  0.00000000E+00
  0.00000000E+00  0.00000000E+00  0.00000000E+00
  0.00000000E+00  0.00000000E+00  0.00000000E+00
  0.00000000E+00  0.00000000E+00  0.00000000E+00
  0.00000000E+00  0.00000000E+00  0.00000000E+00
  0.00000000E+00  0.00000000E+00  0.00000000E+00
  0.00000000E+00  0.00000000E+00  0.00000000E+00
  0.00000000E+00  0.00000000E+00  0.00000000E+00
  0.00000000E+00  0.00000000E+00  0.00000000E+00
  0.00000000E+00  0.00000000E+00  0.00000000E+00
  0.00000000E+00  0.00000000E+00  0.00000000E+00
  0.00000000E+00  0.00000000E+00  0.00000000E+00
  0.00000000E+00  0.00000000E+00  0.00000000E+00
  0.00000000E+00  0.00000000E+00  0.00000000E+00
  0.00000000E+00  0.00000000E+00  0.00000000E+00
  0.00000000E+00  0.00000000E+00  0.00000000E+00
  0.00000000E+00  0.00000000E+00  0.00000000E+00
  0.00000000E+00  0.00000000E+00  0.00000000E+00
  0.00000000E+00  0.00000000E+00  0.00000000E+00
  0.00000000E+00  0.00000000E+00  0.00000000E+00
  0.00000000E+00  0.00000000E+00  0.00000000E+00
  0.00000000E+00  0.00000000E+00  0.00000000E+00
  0.00000000E+00  0.00000000E+00  0.00000000E+00
  0.00000000E+00  0.00000000E+00  0.00000000E+00
  0.00000000E+00  0.00000000E+00  0.00000000E+00
  0.00000000E+00  0.00000000E+00  0.00000000E+00
  0.00000000E+00  0.00000000E+00  0.00000000E+00
