I Tl Cd                                 
   1.00000000000000     
    11.9001310000000000  -11.9001310000000000    0.0000000000000000
    11.9001310000000000   11.9001310000000000    0.0000000000000000
     0.0000000000000000    0.0000000000000000   23.8002630000000011
   Cd   I    Tl
    32    96    32
Direct
  0.9689185413048494  0.0093023759720447  0.9619113113164333
  0.0267289379420852  0.0665885061995852  0.2561419469040862
  0.0125758904611114  0.9881215654738191  0.5125385440056895
  0.0188645076643170  0.9723313731981428  0.7442657773439377
  0.4575878058188705  0.0257606991279820  0.0206261367733243
  0.5061754323965247  0.9460988549644950  0.2326077027487525
  0.5022258774458108  0.9307312203489069  0.4965418116495553
  0.4669006639948687  0.0282417079880165  0.7795958892076393
  0.2826665654157922  0.2696171110251367  0.0361237050193420
  0.2707168701041767  0.2698008635155250  0.2486890116735223
  0.2959640946006423  0.2922535341019320  0.4705422236138982
  0.2815058436639676  0.2583762293813948  0.7323080500099370
  0.9793012369610902  0.5229292735227954  0.9728244773899927
  0.0055565702321683  0.4398736515149602  0.2331427704040083
  0.0804838412349466  0.4813178623983501  0.5060843581484467
  0.0434578047014908  0.4715737548923735  0.7057045346518365
  0.7913785415094979  0.2607685537082700  0.9464954909139639
  0.7756212375230448  0.2796269859381492  0.2591166271230954
  0.7767272774978858  0.2464034588066432  0.5278973233897857
  0.7348767467665676  0.2154947857124426  0.7296106765088584
  0.4569019440438367  0.5088198400094406  0.0486625897375724
  0.5118777163791577  0.4813500902710174  0.2662855870462321
  0.5149566405258186  0.4594164737224286  0.4570428597818830
  0.5345281010660384  0.4705896210446303  0.7535220060229029
  0.2525197991447455  0.8167030253742147  0.9980473605293173
  0.2728037417299817  0.7923765246676849  0.2310795685137773
  0.2770825850911671  0.7311508041450469  0.5055545644468834
  0.2816061000938787  0.8069534099658571  0.7255619768180306
  0.7626378002498353  0.8086449948274463  0.0212293126408622
  0.7493576674556434  0.7755250647338580  0.2180347531494140
  0.7858824210663546  0.8035139031275963  0.4881819885007386
  0.7387952993198341  0.7371290519681992  0.7616152746493067
  0.0658631281516174  0.1470548338658468  0.9599558414289336
  0.1839535170129118  0.1133314391073575  0.2918841131098185
  0.1356350733291667  0.0854864195226960  0.4707901549971142
  0.0632411649634318  0.1263096078317121  0.7810572911322807
  0.5658333839119081  0.1438591649747742  0.0474866265706219
  0.6111046646687637  0.0705559683335376  0.2466418125344903
  0.6685854218794286  0.1193434532964022  0.5209624347640143
  0.5866481190182727  0.1219366688374210  0.7182645817195328
  0.4316592737311829  0.3443280949488008  0.0147136492087293
  0.3588732360540699  0.4184212967627419  0.2070918279893932
  0.3790674775491140  0.4144880991217721  0.5286876488315957
  0.4377367740439856  0.3219975797047324  0.7091062571177215
  0.0712409526540426  0.6175583207089616  0.0458841543642470
  0.0871523982487243  0.5889093733380912  0.2309533597766912
  0.1708011248080707  0.5987444016108506  0.5605295514063293
  0.0647027399378139  0.6355952996949851  0.7187756621384138
  0.9350122417816036  0.3501671780762784  0.9611534685882586
  0.8512839723308476  0.4304854786622899  0.2849499609157972
  0.8125959148064552  0.3893304155787076  0.4704063066428512
  0.9273548995173453  0.3743567420585693  0.7583139800318665
  0.5511981149492848  0.6143313089495646  0.9828352187935575
  0.6455724431939400  0.5834034530469144  0.2918794507225922
  0.6304064564253042  0.5730611662663975  0.4850025996645447
  0.5914494637670078  0.6468072108125353  0.7892996217687398
  0.4090723599728978  0.8758259661000887  0.9677843790488355
  0.3587436720204735  0.9152734184721646  0.2902670197799567
  0.3389063738074823  0.8886798059048215  0.4698863422307396
  0.4395247267240480  0.8615783496368492  0.7616696794918224
  0.9145440357951561  0.8746930643892639  0.0366522459051171
  0.8232379344287942  0.9228625531117910  0.2067965572154500
  0.8441793651847964  0.9575121240689661  0.5131455522941522
  0.9243376350298952  0.8422041365944934  0.7135961693941917
  0.8274431429710944  0.1127725346649801  0.0056720423039046
  0.9415392375253847  0.2094066371919276  0.2334561286687414
  0.9308384394118223  0.1807441667322887  0.5176569504863388
  0.8408069601988331  0.1000365770859740  0.6848319444840587
  0.3016976305481464  0.1048925806812801  0.0106326259520150
  0.3967893853617085  0.1626955276384798  0.2189582891158866
  0.3729978255235195  0.1467118690129068  0.4856661955040908
  0.3210261696640083  0.0772636947265204  0.7342740346742100
  0.1678726702442910  0.3694695324317472  0.9878082129442858
  0.1227383757020254  0.3524460021626357  0.2934287740669604
  0.1321076560685626  0.3224747556463387  0.4798271606369298
  0.1965443441335614  0.4223300163469756  0.7425759851358784
  0.8290065684535476  0.5869991024714690  0.9877305534653142
  0.8720353639155164  0.6726450325186427  0.2509815090013007
  0.8812792602100921  0.6718509676975416  0.5073895409551686
  0.8427163116542264  0.6227381174590479  0.8077424866219224
  0.6735579330762091  0.3618398465395340  0.9848582109703353
  0.5892378500183304  0.3323570743397397  0.2831899561504705
  0.5766921284028423  0.3073420332354301  0.4551134471308510
  0.6676121237407798  0.3763166664180462  0.7920768867754567
  0.3128116315389570  0.5868781227173402  0.0471065587840088
  0.3571606991539403  0.6548532921368287  0.2230533838802783
  0.4149270499852545  0.6607724161573250  0.5478940634140269
  0.3250376076122807  0.6514857502551531  0.7545169224047160
  0.1310214039734569  0.9241580618741787  0.9634683124335787
  0.1159787682652294  0.8292806499948254  0.2627874584449383
  0.0747269053931400  0.8369224879991591  0.4786786544483583
  0.1607825224013130  0.8824136147332045  0.7905908894128795
  0.6362778602981431  0.9156403629667391  0.0491788766898574
  0.5797926116295742  0.7931007823278662  0.2392658688743657
  0.6233524585636628  0.8133997025646803  0.5313012860519276
  0.6848323991529514  0.8947004424951267  0.7647420013262274
  0.0428493155745157  0.0160603382414140  0.1439421772541523
  0.9690468786366627  0.9834386539101152  0.3486211881488539
  0.0627291155134308  0.0191687207381354  0.6277159980476086
  0.9147827456921883  0.9462335523788111  0.8599762578269968
  0.4242145000433355  0.9388824277521863  0.1270520695434750
  0.5571890495505591  0.9796189326537511  0.3932595287084271
  0.4800627515491493  0.9960461346265590  0.6023696221365146
  0.5157722843737323  0.0687496489353909  0.8883121311917795
  0.1893849048692145  0.2502293524403313  0.1369621848065601
  0.3431151935578666  0.3197927745443520  0.3571434599110939
  0.2112908461522514  0.2311397125718268  0.6277525800495798
  0.2823410186239024  0.2575127650045100  0.8527776407387103
  0.9693614487543830  0.4085641793179868  0.1203265085906639
  0.0136752413700174  0.5177325256657891  0.4019939147955594
  0.9749036618184564  0.4402764659699112  0.5968836813859250
  0.0618429203684089  0.5279498576364554  0.8709292608199497
  0.7354348252914518  0.2717523367895936  0.1453550040429416
  0.7618007553634518  0.1929517791510583  0.3579394385078181
  0.7168440429312674  0.3170706693558717  0.6325369832993879
  0.7919620324806086  0.1790009062336192  0.8425031078501015
  0.5619816453629215  0.5059787668772231  0.1423422104735629
  0.4326009899047663  0.5409342224366945  0.3685660558211141
  0.5500484728817417  0.5176834952762226  0.6429410788674333
  0.4451539123643528  0.4787650190583778  0.8531481829476650
  0.2103534681554184  0.8145614567472017  0.1123563100237916
  0.2231452021149459  0.6940661925146167  0.3951876549794938
  0.2242747484934123  0.8233611253824177  0.6151255380297670
  0.2334897179010134  0.7128551292613449  0.9076209486243090
  0.7248898922218245  0.6966298437347408  0.1091238904577495
  0.7500493617936270  0.7849309840416094  0.3727876896095456
  0.7474258814875224  0.6941296634822998  0.6464597912088131
  0.7106653087278806  0.7756381757001352  0.9131793837585305
  0.9863984450126785  0.2033257530232353  0.0903596647110571
  0.9423238011936074  0.2889870986567012  0.3918442526504903
  0.0039726159240228  0.2198584818306008  0.6524839639630577
  0.0732300667113522  0.3165401554568610  0.8554445993968506
  0.5235077839836227  0.2902779900475881  0.1504948424706588
  0.4952627805580238  0.1770881777396243  0.3580527686630231
  0.5147651771567816  0.2181461750339279  0.5792829910092010
  0.4871091386328742  0.2784869868545751  0.8478024537232183
  0.1724841706352742  0.4785454113730261  0.1169896690281401
  0.2433860494473677  0.5236354164468426  0.3115393467610198
  0.3337194667870962  0.5253158976076624  0.6433228936053439
  0.2567180641743305  0.5148093325555119  0.9113371512874195
  0.0042010169231138  0.7517668222367128  0.1520003918969205
  0.0177535017193860  0.7152551006689787  0.3667766185098003
  0.0222108145412408  0.7451894450458372  0.6044910487683673
  0.0074077679611350  0.7420575898497742  0.8326574017713233
  0.7677625468313782  0.4687142936088891  0.0968173289650135
  0.7918687195679209  0.5669344537101566  0.3958495061771532
  0.7818995089903097  0.5023528082400884  0.6954030126491099
  0.6907531520900256  0.5339852640623785  0.8931619122573323
  0.5247025953371692  0.7552883209277489  0.0923229361159669
  0.5609985434470877  0.7077001235062107  0.3886197555836514
  0.5459670870134681  0.7211383502892521  0.6559350574198634
  0.4354790323457671  0.7050660636341277  0.8722491744559239
  0.2446319593897354  0.0433523271497909  0.1617100279411257
  0.1792958246469568  0.9415222732459354  0.3787372583754612
  0.2653529500909672  0.0356464772813577  0.5818967052660395
  0.2115058805868107  0.0622097611196135  0.8708751575730019
  0.7216791879683351  0.0617287044505941  0.1259406155041641
  0.7622755694595735  0.9881115545037101  0.3387051369647615
  0.6916463369312926  0.9841481020477996  0.6290057676638565
  0.7141888521208267  0.9758534931016399  0.8935871749930386
 
  0.00000000E+00  0.00000000E+00  0.00000000E+00
  0.00000000E+00  0.00000000E+00  0.00000000E+00
  0.00000000E+00  0.00000000E+00  0.00000000E+00
  0.00000000E+00  0.00000000E+00  0.00000000E+00
  0.00000000E+00  0.00000000E+00  0.00000000E+00
  0.00000000E+00  0.00000000E+00  0.00000000E+00
  0.00000000E+00  0.00000000E+00  0.00000000E+00
  0.00000000E+00  0.00000000E+00  0.00000000E+00
  0.00000000E+00  0.00000000E+00  0.00000000E+00
  0.00000000E+00  0.00000000E+00  0.00000000E+00
  0.00000000E+00  0.00000000E+00  0.00000000E+00
  0.00000000E+00  0.00000000E+00  0.00000000E+00
  0.00000000E+00  0.00000000E+00  0.00000000E+00
  0.00000000E+00  0.00000000E+00  0.00000000E+00
  0.00000000E+00  0.00000000E+00  0.00000000E+00
  0.00000000E+00  0.00000000E+00  0.00000000E+00
  0.00000000E+00  0.00000000E+00  0.00000000E+00
  0.00000000E+00  0.00000000E+00  0.00000000E+00
  0.00000000E+00  0.00000000E+00  0.00000000E+00
  0.00000000E+00  0.00000000E+00  0.00000000E+00
  0.00000000E+00  0.00000000E+00  0.00000000E+00
  0.00000000E+00  0.00000000E+00  0.00000000E+00
  0.00000000E+00  0.00000000E+00  0.00000000E+00
  0.00000000E+00  0.00000000E+00  0.00000000E+00
  0.00000000E+00  0.00000000E+00  0.00000000E+00
  0.00000000E+00  0.00000000E+00  0.00000000E+00
  0.00000000E+00  0.00000000E+00  0.00000000E+00
  0.00000000E+00  0.00000000E+00  0.00000000E+00
  0.00000000E+00  0.00000000E+00  0.00000000E+00
  0.00000000E+00  0.00000000E+00  0.00000000E+00
  0.00000000E+00  0.00000000E+00  0.00000000E+00
  0.00000000E+00  0.00000000E+00  0.00000000E+00
  0.00000000E+00  0.00000000E+00  0.00000000E+00
  0.00000000E+00  0.00000000E+00  0.00000000E+00
  0.00000000E+00  0.00000000E+00  0.00000000E+00
  0.00000000E+00  0.00000000E+00  0.00000000E+00
  0.00000000E+00  0.00000000E+00  0.00000000E+00
  0.00000000E+00  0.00000000E+00  0.00000000E+00
  0.00000000E+00  0.00000000E+00  0.00000000E+00
  0.00000000E+00  0.00000000E+00  0.00000000E+00
  0.00000000E+00  0.00000000E+00  0.00000000E+00
  0.00000000E+00  0.00000000E+00  0.00000000E+00
  0.00000000E+00  0.00000000E+00  0.00000000E+00
  0.00000000E+00  0.00000000E+00  0.00000000E+00
  0.00000000E+00  0.00000000E+00  0.00000000E+00
  0.00000000E+00  0.00000000E+00  0.00000000E+00
  0.00000000E+00  0.00000000E+00  0.00000000E+00
  0.00000000E+00  0.00000000E+00  0.00000000E+00
  0.00000000E+00  0.00000000E+00  0.00000000E+00
  0.00000000E+00  0.00000000E+00  0.00000000E+00
  0.00000000E+00  0.00000000E+00  0.00000000E+00
  0.00000000E+00  0.00000000E+00  0.00000000E+00
  0.00000000E+00  0.00000000E+00  0.00000000E+00
  0.00000000E+00  0.00000000E+00  0.00000000E+00
  0.00000000E+00  0.00000000E+00  0.00000000E+00
  0.00000000E+00  0.00000000E+00  0.00000000E+00
  0.00000000E+00  0.00000000E+00  0.00000000E+00
  0.00000000E+00  0.00000000E+00  0.00000000E+00
  0.00000000E+00  0.00000000E+00  0.00000000E+00
  0.00000000E+00  0.00000000E+00  0.00000000E+00
  0.00000000E+00  0.00000000E+00  0.00000000E+00
  0.00000000E+00  0.00000000E+00  0.00000000E+00
  0.00000000E+00  0.00000000E+00  0.00000000E+00
  0.00000000E+00  0.00000000E+00  0.00000000E+00
  0.00000000E+00  0.00000000E+00  0.00000000E+00
  0.00000000E+00  0.00000000E+00  0.00000000E+00
  0.00000000E+00  0.00000000E+00  0.00000000E+00
  0.00000000E+00  0.00000000E+00  0.00000000E+00
  0.00000000E+00  0.00000000E+00  0.00000000E+00
  0.00000000E+00  0.00000000E+00  0.00000000E+00
  0.00000000E+00  0.00000000E+00  0.00000000E+00
  0.00000000E+00  0.00000000E+00  0.00000000E+00
  0.00000000E+00  0.00000000E+00  0.00000000E+00
  0.00000000E+00  0.00000000E+00  0.00000000E+00
  0.00000000E+00  0.00000000E+00  0.00000000E+00
  0.00000000E+00  0.00000000E+00  0.00000000E+00
  0.00000000E+00  0.00000000E+00  0.00000000E+00
  0.00000000E+00  0.00000000E+00  0.00000000E+00
  0.00000000E+00  0.00000000E+00  0.00000000E+00
  0.00000000E+00  0.00000000E+00  0.00000000E+00
  0.00000000E+00  0.00000000E+00  0.00000000E+00
  0.00000000E+00  0.00000000E+00  0.00000000E+00
  0.00000000E+00  0.00000000E+00  0.00000000E+00
  0.00000000E+00  0.00000000E+00  0.00000000E+00
  0.00000000E+00  0.00000000E+00  0.00000000E+00
  0.00000000E+00  0.00000000E+00  0.00000000E+00
  0.00000000E+00  0.00000000E+00  0.00000000E+00
  0.00000000E+00  0.00000000E+00  0.00000000E+00
  0.00000000E+00  0.00000000E+00  0.00000000E+00
  0.00000000E+00  0.00000000E+00  0.00000000E+00
  0.00000000E+00  0.00000000E+00  0.00000000E+00
  0.00000000E+00  0.00000000E+00  0.00000000E+00
  0.00000000E+00  0.00000000E+00  0.00000000E+00
  0.00000000E+00  0.00000000E+00  0.00000000E+00
  0.00000000E+00  0.00000000E+00  0.00000000E+00
  0.00000000E+00  0.00000000E+00  0.00000000E+00
  0.00000000E+00  0.00000000E+00  0.00000000E+00
  0.00000000E+00  0.00000000E+00  0.00000000E+00
  0.00000000E+00  0.00000000E+00  0.00000000E+00
  0.00000000E+00  0.00000000E+00  0.00000000E+00
  0.00000000E+00  0.00000000E+00  0.00000000E+00
  0.00000000E+00  0.00000000E+00  0.00000000E+00
  0.00000000E+00  0.00000000E+00  0.00000000E+00
  0.00000000E+00  0.00000000E+00  0.00000000E+00
  0.00000000E+00  0.00000000E+00  0.00000000E+00
  0.00000000E+00  0.00000000E+00  0.00000000E+00
  0.00000000E+00  0.00000000E+00  0.00000000E+00
  0.00000000E+00  0.00000000E+00  0.00000000E+00
  0.00000000E+00  0.00000000E+00  0.00000000E+00
  0.00000000E+00  0.00000000E+00  0.00000000E+00
  0.00000000E+00  0.00000000E+00  0.00000000E+00
  0.00000000E+00  0.00000000E+00  0.00000000E+00
  0.00000000E+00  0.00000000E+00  0.00000000E+00
  0.00000000E+00  0.00000000E+00  0.00000000E+00
  0.00000000E+00  0.00000000E+00  0.00000000E+00
  0.00000000E+00  0.00000000E+00  0.00000000E+00
  0.00000000E+00  0.00000000E+00  0.00000000E+00
  0.00000000E+00  0.00000000E+00  0.00000000E+00
  0.00000000E+00  0.00000000E+00  0.00000000E+00
  0.00000000E+00  0.00000000E+00  0.00000000E+00
  0.00000000E+00  0.00000000E+00  0.00000000E+00
  0.00000000E+00  0.00000000E+00  0.00000000E+00
  0.00000000E+00  0.00000000E+00  0.00000000E+00
  0.00000000E+00  0.00000000E+00  0.00000000E+00
  0.00000000E+00  0.00000000E+00  0.00000000E+00
  0.00000000E+00  0.00000000E+00  0.00000000E+00
  0.00000000E+00  0.00000000E+00  0.00000000E+00
  0.00000000E+00  0.00000000E+00  0.00000000E+00
  0.00000000E+00  0.00000000E+00  0.00000000E+00
  0.00000000E+00  0.00000000E+00  0.00000000E+00
  0.00000000E+00  0.00000000E+00  0.00000000E+00
  0.00000000E+00  0.00000000E+00  0.00000000E+00
  0.00000000E+00  0.00000000E+00  0.00000000E+00
  0.00000000E+00  0.00000000E+00  0.00000000E+00
  0.00000000E+00  0.00000000E+00  0.00000000E+00
  0.00000000E+00  0.00000000E+00  0.00000000E+00
  0.00000000E+00  0.00000000E+00  0.00000000E+00
  0.00000000E+00  0.00000000E+00  0.00000000E+00
  0.00000000E+00  0.00000000E+00  0.00000000E+00
  0.00000000E+00  0.00000000E+00  0.00000000E+00
  0.00000000E+00  0.00000000E+00  0.00000000E+00
  0.00000000E+00  0.00000000E+00  0.00000000E+00
  0.00000000E+00  0.00000000E+00  0.00000000E+00
  0.00000000E+00  0.00000000E+00  0.00000000E+00
  0.00000000E+00  0.00000000E+00  0.00000000E+00
  0.00000000E+00  0.00000000E+00  0.00000000E+00
  0.00000000E+00  0.00000000E+00  0.00000000E+00
  0.00000000E+00  0.00000000E+00  0.00000000E+00
  0.00000000E+00  0.00000000E+00  0.00000000E+00
  0.00000000E+00  0.00000000E+00  0.00000000E+00
  0.00000000E+00  0.00000000E+00  0.00000000E+00
  0.00000000E+00  0.00000000E+00  0.00000000E+00
  0.00000000E+00  0.00000000E+00  0.00000000E+00
  0.00000000E+00  0.00000000E+00  0.00000000E+00
  0.00000000E+00  0.00000000E+00  0.00000000E+00
  0.00000000E+00  0.00000000E+00  0.00000000E+00
  0.00000000E+00  0.00000000E+00  0.00000000E+00
  0.00000000E+00  0.00000000E+00  0.00000000E+00
  0.00000000E+00  0.00000000E+00  0.00000000E+00
  0.00000000E+00  0.00000000E+00  0.00000000E+00
