I Pb Rb                                 
   1.00000000000000     
    12.7409219999999994  -12.7409219999999994    0.0000000000000000
    12.7409219999999994   12.7409219999999994    0.0000000000000000
     0.0000000000000000    0.0000000000000000   25.4818430000000014
   I    Pb   Rb
    96    32    32
Direct
  0.0986424496465548  0.1530929364534794  0.9775631187101701
  0.0845582986648920  0.1688103531049002  0.2663166722716167
  0.1432324596255526  0.1049884726907522  0.4681677335528310
  0.1064264405159415  0.1483374393129246  0.7673970685034455
  0.6033437486405262  0.1481041213340314  0.9782530140055135
  0.6031383332401895  0.1477817456297406  0.2725432067412818
  0.6546394074758622  0.0882317952537335  0.4799958714262738
  0.6127614070793436  0.1429651677765500  0.7793058204430336
  0.4089582928395570  0.3399627098708728  0.0122284922978726
  0.3943670787902568  0.3573246236498316  0.2366530084513560
  0.3568188397912999  0.3905041647224813  0.5319394194927631
  0.4179873437646748  0.3359665170464585  0.7330197721597661
  0.1032598732883274  0.6487745262135225  0.9880041219947017
  0.1008861851098317  0.6500849760009251  0.2700100389313931
  0.1510361007724352  0.5912789344300451  0.4802918743445030
  0.1108875822066678  0.6468345820938437  0.7780848238961745
  0.9027212261993159  0.3478268309572518  0.0187091641076238
  0.8853298500836431  0.3648907764184838  0.2160623354451629
  0.8391141956300029  0.4027520223493219  0.5199513800462646
  0.9083438192434676  0.3516420231674747  0.7276240328709662
  0.6010000449945245  0.6496480862903939  0.9848923891105028
  0.5884702927260784  0.6633570309077327  0.2620664149556888
  0.6408854214583326  0.6054434790348322  0.4693617265154160
  0.6019603107484224  0.6500955968166636  0.7704237579808474
  0.4037929656108947  0.8482603519890498  0.0213155773200899
  0.3865118386846150  0.8653868711453855  0.2143242208502275
  0.3397917798777759  0.9040281588706010  0.5184400726134776
  0.4061037957391264  0.8515021545042220  0.7248800878950841
  0.9098028340433473  0.8431518107292386  0.0115873577214066
  0.8995987144308604  0.8558558851572698  0.2359385143385981
  0.8562410027590069  0.8910243455861393  0.5314303319306249
  0.9145811611125698  0.8360298122211776  0.7327838670606386
  0.8463962551864117  0.0937146903662367  0.0167475037011881
  0.8445297461686208  0.1059367382207800  0.2308331082132911
  0.9030767566967987  0.1482269777568842  0.5208347527720337
  0.8645288957891363  0.1019202982688664  0.7188923596262563
  0.3436272837492332  0.0950579377880826  0.9839509213145476
  0.3511831986808299  0.1151831966446058  0.2825650860651402
  0.3998059259935893  0.1522176563994406  0.4763768391591319
  0.3518448488789570  0.0964806602191637  0.7682811814033267
  0.1439076779586883  0.3944809362289073  0.0319426993117365
  0.1429238260466523  0.4090155408685922  0.2302178625229375
  0.0962616701120101  0.3480020262425069  0.5252875425931964
  0.1592510763759830  0.4047538397170713  0.7260980888269932
  0.8500603415042464  0.6016204271396370  0.9771543347666445
  0.8497262487092780  0.6128452160740701  0.2847962332815681
  0.8973523641563863  0.6507868541922992  0.4797813893212816
  0.8543368933853254  0.6006046677382981  0.7738334258143760
  0.6552655465738125  0.4001296377059271  0.9786931543503805
  0.6364023929951351  0.3970361665867463  0.2832742604251947
  0.5982215321380541  0.3449507809625735  0.4768338602340170
  0.6608685456255965  0.3982873923791180  0.7690245104173443
  0.3585608200006716  0.6030947915788500  0.0299490998755824
  0.3467836658403374  0.6093138079231561  0.2274588577865830
  0.4002675089747483  0.6468180231230681  0.5241031156820105
  0.3578706924899214  0.5942426257585997  0.7259458994100655
  0.1563383334017113  0.9011557101398985  0.9811963692412721
  0.1471015498229164  0.9077357971680129  0.2742759770741101
  0.0979312137314344  0.8442176368207817  0.4761522837701742
  0.1605586176219174  0.8988108765494026  0.7690456652114788
  0.6526480705398049  0.9056141666646101  0.0196242964174887
  0.6461741776200213  0.9082797979075222  0.2323364749746968
  0.5941613265616912  0.8463291092049028  0.5227903143981920
  0.6541753612260168  0.8980893639940373  0.7219753859661537
  0.0424960189075444  0.0151110621411887  0.1239740478785714
  0.9514782290343010  0.9970409206449329  0.3749457751062505
  0.0529298288270737  0.9948735982770212  0.6228487510975079
  0.9650595708025786  0.9872040257141864  0.8725613604905079
  0.4944478470452293  0.0497740159968170  0.1253444134743308
  0.4915053210472751  0.9501058356230462  0.3746524487930427
  0.5053535573175606  0.0471254091007892  0.6234973289216005
  0.5201638323990149  0.9606294453208339  0.8747394772885406
  0.2447539602431841  0.2040221974047722  0.1263292197281566
  0.2467728082110276  0.3047859717616743  0.3763361030186428
  0.2477009882884370  0.1967954459185882  0.6230035839612263
  0.2656756772909273  0.2837137048915001  0.8730929418171713
  0.9871593800433409  0.5431819208952977  0.1265475960314848
  0.9918632306052938  0.4508944277238959  0.3767939089765220
  0.0009679053195562  0.5465589851081717  0.6260466186398006
  0.0368937241475045  0.4586686678363704  0.8760699990216394
  0.7068664131840574  0.2586282775577735  0.1231679913636213
  0.7985227156619922  0.2556229060652980  0.3741609403942611
  0.7036604991169132  0.2410378257157731  0.6238670885809739
  0.7959158947707442  0.2253555569245787  0.8734809109078331
  0.5494886873179475  0.4947699170234918  0.1254269661009005
  0.4479349138713958  0.5042841005339624  0.3754848248545274
  0.5550580006307475  0.4997437909616040  0.6230812264626525
  0.4680132022581614  0.4901822386572057  0.8731569669863359
  0.2033943023905812  0.7628231586130477  0.1252871899071092
  0.2966768536580793  0.7537220533314845  0.3755084937461813
  0.2050582028403342  0.7447712882546681  0.6258985733322345
  0.2966156938187055  0.7249373871446597  0.8756623181609533
  0.7612001475729169  0.7003842906384506  0.1274833129029087
  0.7453090773824770  0.8007794086216471  0.3772872766830172
  0.7460393720084509  0.6981628412440239  0.6266646750200404
  0.7545141580518636  0.7879451123377826  0.8768561730783960
  0.9988115474256949  0.9989307402575920  0.0018330413175611
  0.0004434920640807  0.0044508265204783  0.2514194479364540
  0.0032505306702569  0.0019885526386659  0.4991672116860413
  0.9988550486281507  0.9901365772085396  0.7476433968751897
  0.5043880349523381  0.9970914593923157  0.9992641763346981
  0.4984008743226620  0.0004510525351857  0.2496620610875658
  0.5055210641134066  0.9965888838553777  0.4984040970088056
  0.5107396741927361  0.9937625186241712  0.7459593718876977
  0.2529475181116626  0.2441455821774860  0.0028590025970315
  0.2436570224864920  0.2487157445712995  0.2555067169386118
  0.2545850926172996  0.2500835093076507  0.5005478019828964
  0.2597103656578685  0.2432124378769916  0.7484915395971248
  0.0093206200113008  0.4944586887746178  0.9965265799331813
  0.9942647782261025  0.5013876160910760  0.2496638332765975
  0.0044745892383578  0.4955040234143817  0.4988636244378462
  0.0104576572089233  0.4958029393039725  0.7460991940165681
  0.7524751590283968  0.2499294058140179  0.9974714180826892
  0.7517570358009664  0.2550569331861580  0.2512671624744621
  0.7481776856692224  0.2538569495837216  0.5006429571194082
  0.7504320176545125  0.2425173027673038  0.7509631693689850
  0.4992498834227836  0.4951190736903142  0.0046154861632194
  0.4999790211895132  0.5004473412952005  0.2542246616151542
  0.5019021364143826  0.5028544740030068  0.5007012223457685
  0.5024822596666961  0.4909722397496983  0.7469859397494312
  0.2527936366114698  0.7503997662313053  0.9964129386841967
  0.2490038843729895  0.7594333721389751  0.2488419822365157
  0.2496230543953770  0.7552543797842006  0.4989721416233042
  0.2497000163862392  0.7472288059193870  0.7500929735348194
  0.7540165339652608  0.7466646916693029  0.0018638565369845
  0.7453683696988818  0.7459055820213165  0.2500981570768698
  0.7533838934720186  0.7524930056866629  0.4989227156309295
  0.7555688085330101  0.7450271259791399  0.7479337635383634
  0.0319982972049529  0.2475446109956964  0.1256612925547587
  0.0115614735151562  0.2399613665074186  0.4004530173074256
  0.0221169696222208  0.2156977309004426  0.6365153120143361
  0.9983893358667211  0.2566702510020921  0.8689228310392337
  0.4992307214982177  0.2601981112768302  0.1312346409518636
  0.4738900720792812  0.2720168694118069  0.3610058766550203
  0.4917944508478059  0.2585233638997803  0.5991804602170931
  0.4870587120189639  0.2717336718341349  0.8746362126555287
  0.2048432017509147  0.5466402592757716  0.1255669344153520
  0.2351815759512542  0.5189666895150997  0.3478540242663744
  0.2324585730349791  0.5258765824233864  0.6106952591595352
  0.2486947024776058  0.5082362588584309  0.8459176794259118
  0.9908603013133596  0.7500275148725510  0.1282951326989350
  0.9687378358028107  0.7699581099886030  0.3628599218178248
  0.9930606667621209  0.7610599192826384  0.5999211874900586
  0.9703016147322568  0.7577224984842965  0.8754912985164932
  0.7730749710739991  0.4798940918252047  0.1018780217008299
  0.7700625077902766  0.4774932604138299  0.3886241292882804
  0.7722040447741043  0.4868168011590740  0.6518925669312955
  0.7090250649417009  0.5407301678512256  0.8753799575005813
  0.4839029106578360  0.7098528676176339  0.1287235218898091
  0.5111670076216732  0.7369571477329571  0.3972252712734853
  0.5260990913811626  0.7219341120411494  0.6372428869106137
  0.5013566994387278  0.7565531661977831  0.8795553452854248
  0.2640490979365682  0.9800322323526026  0.1069443839361299
  0.2735860010779828  0.9797772858157572  0.3860968415763881
  0.2677543896067749  0.9839943204390612  0.6496418436311592
  0.2121340295703298  0.0390022496453017  0.8749460468529332
  0.7101368435081585  0.0417669519817357  0.1260122912417163
  0.7388625494461415  0.0144808890816215  0.3491285429234314
  0.7311056121957208  0.0238133506887055  0.6122615601649438
  0.7316308948761865  0.0146702565114130  0.8940934203716773
 
  0.00000000E+00  0.00000000E+00  0.00000000E+00
  0.00000000E+00  0.00000000E+00  0.00000000E+00
  0.00000000E+00  0.00000000E+00  0.00000000E+00
  0.00000000E+00  0.00000000E+00  0.00000000E+00
  0.00000000E+00  0.00000000E+00  0.00000000E+00
  0.00000000E+00  0.00000000E+00  0.00000000E+00
  0.00000000E+00  0.00000000E+00  0.00000000E+00
  0.00000000E+00  0.00000000E+00  0.00000000E+00
  0.00000000E+00  0.00000000E+00  0.00000000E+00
  0.00000000E+00  0.00000000E+00  0.00000000E+00
  0.00000000E+00  0.00000000E+00  0.00000000E+00
  0.00000000E+00  0.00000000E+00  0.00000000E+00
  0.00000000E+00  0.00000000E+00  0.00000000E+00
  0.00000000E+00  0.00000000E+00  0.00000000E+00
  0.00000000E+00  0.00000000E+00  0.00000000E+00
  0.00000000E+00  0.00000000E+00  0.00000000E+00
  0.00000000E+00  0.00000000E+00  0.00000000E+00
  0.00000000E+00  0.00000000E+00  0.00000000E+00
  0.00000000E+00  0.00000000E+00  0.00000000E+00
  0.00000000E+00  0.00000000E+00  0.00000000E+00
  0.00000000E+00  0.00000000E+00  0.00000000E+00
  0.00000000E+00  0.00000000E+00  0.00000000E+00
  0.00000000E+00  0.00000000E+00  0.00000000E+00
  0.00000000E+00  0.00000000E+00  0.00000000E+00
  0.00000000E+00  0.00000000E+00  0.00000000E+00
  0.00000000E+00  0.00000000E+00  0.00000000E+00
  0.00000000E+00  0.00000000E+00  0.00000000E+00
  0.00000000E+00  0.00000000E+00  0.00000000E+00
  0.00000000E+00  0.00000000E+00  0.00000000E+00
  0.00000000E+00  0.00000000E+00  0.00000000E+00
  0.00000000E+00  0.00000000E+00  0.00000000E+00
  0.00000000E+00  0.00000000E+00  0.00000000E+00
  0.00000000E+00  0.00000000E+00  0.00000000E+00
  0.00000000E+00  0.00000000E+00  0.00000000E+00
  0.00000000E+00  0.00000000E+00  0.00000000E+00
  0.00000000E+00  0.00000000E+00  0.00000000E+00
  0.00000000E+00  0.00000000E+00  0.00000000E+00
  0.00000000E+00  0.00000000E+00  0.00000000E+00
  0.00000000E+00  0.00000000E+00  0.00000000E+00
  0.00000000E+00  0.00000000E+00  0.00000000E+00
  0.00000000E+00  0.00000000E+00  0.00000000E+00
  0.00000000E+00  0.00000000E+00  0.00000000E+00
  0.00000000E+00  0.00000000E+00  0.00000000E+00
  0.00000000E+00  0.00000000E+00  0.00000000E+00
  0.00000000E+00  0.00000000E+00  0.00000000E+00
  0.00000000E+00  0.00000000E+00  0.00000000E+00
  0.00000000E+00  0.00000000E+00  0.00000000E+00
  0.00000000E+00  0.00000000E+00  0.00000000E+00
  0.00000000E+00  0.00000000E+00  0.00000000E+00
  0.00000000E+00  0.00000000E+00  0.00000000E+00
  0.00000000E+00  0.00000000E+00  0.00000000E+00
  0.00000000E+00  0.00000000E+00  0.00000000E+00
  0.00000000E+00  0.00000000E+00  0.00000000E+00
  0.00000000E+00  0.00000000E+00  0.00000000E+00
  0.00000000E+00  0.00000000E+00  0.00000000E+00
  0.00000000E+00  0.00000000E+00  0.00000000E+00
  0.00000000E+00  0.00000000E+00  0.00000000E+00
  0.00000000E+00  0.00000000E+00  0.00000000E+00
  0.00000000E+00  0.00000000E+00  0.00000000E+00
  0.00000000E+00  0.00000000E+00  0.00000000E+00
  0.00000000E+00  0.00000000E+00  0.00000000E+00
  0.00000000E+00  0.00000000E+00  0.00000000E+00
  0.00000000E+00  0.00000000E+00  0.00000000E+00
  0.00000000E+00  0.00000000E+00  0.00000000E+00
  0.00000000E+00  0.00000000E+00  0.00000000E+00
  0.00000000E+00  0.00000000E+00  0.00000000E+00
  0.00000000E+00  0.00000000E+00  0.00000000E+00
  0.00000000E+00  0.00000000E+00  0.00000000E+00
  0.00000000E+00  0.00000000E+00  0.00000000E+00
  0.00000000E+00  0.00000000E+00  0.00000000E+00
  0.00000000E+00  0.00000000E+00  0.00000000E+00
  0.00000000E+00  0.00000000E+00  0.00000000E+00
  0.00000000E+00  0.00000000E+00  0.00000000E+00
  0.00000000E+00  0.00000000E+00  0.00000000E+00
  0.00000000E+00  0.00000000E+00  0.00000000E+00
  0.00000000E+00  0.00000000E+00  0.00000000E+00
  0.00000000E+00  0.00000000E+00  0.00000000E+00
  0.00000000E+00  0.00000000E+00  0.00000000E+00
  0.00000000E+00  0.00000000E+00  0.00000000E+00
  0.00000000E+00  0.00000000E+00  0.00000000E+00
  0.00000000E+00  0.00000000E+00  0.00000000E+00
  0.00000000E+00  0.00000000E+00  0.00000000E+00
  0.00000000E+00  0.00000000E+00  0.00000000E+00
  0.00000000E+00  0.00000000E+00  0.00000000E+00
  0.00000000E+00  0.00000000E+00  0.00000000E+00
  0.00000000E+00  0.00000000E+00  0.00000000E+00
  0.00000000E+00  0.00000000E+00  0.00000000E+00
  0.00000000E+00  0.00000000E+00  0.00000000E+00
  0.00000000E+00  0.00000000E+00  0.00000000E+00
  0.00000000E+00  0.00000000E+00  0.00000000E+00
  0.00000000E+00  0.00000000E+00  0.00000000E+00
  0.00000000E+00  0.00000000E+00  0.00000000E+00
  0.00000000E+00  0.00000000E+00  0.00000000E+00
  0.00000000E+00  0.00000000E+00  0.00000000E+00
  0.00000000E+00  0.00000000E+00  0.00000000E+00
  0.00000000E+00  0.00000000E+00  0.00000000E+00
  0.00000000E+00  0.00000000E+00  0.00000000E+00
  0.00000000E+00  0.00000000E+00  0.00000000E+00
  0.00000000E+00  0.00000000E+00  0.00000000E+00
  0.00000000E+00  0.00000000E+00  0.00000000E+00
  0.00000000E+00  0.00000000E+00  0.00000000E+00
  0.00000000E+00  0.00000000E+00  0.00000000E+00
  0.00000000E+00  0.00000000E+00  0.00000000E+00
  0.00000000E+00  0.00000000E+00  0.00000000E+00
  0.00000000E+00  0.00000000E+00  0.00000000E+00
  0.00000000E+00  0.00000000E+00  0.00000000E+00
  0.00000000E+00  0.00000000E+00  0.00000000E+00
  0.00000000E+00  0.00000000E+00  0.00000000E+00
  0.00000000E+00  0.00000000E+00  0.00000000E+00
  0.00000000E+00  0.00000000E+00  0.00000000E+00
  0.00000000E+00  0.00000000E+00  0.00000000E+00
  0.00000000E+00  0.00000000E+00  0.00000000E+00
  0.00000000E+00  0.00000000E+00  0.00000000E+00
  0.00000000E+00  0.00000000E+00  0.00000000E+00
  0.00000000E+00  0.00000000E+00  0.00000000E+00
  0.00000000E+00  0.00000000E+00  0.00000000E+00
  0.00000000E+00  0.00000000E+00  0.00000000E+00
  0.00000000E+00  0.00000000E+00  0.00000000E+00
  0.00000000E+00  0.00000000E+00  0.00000000E+00
  0.00000000E+00  0.00000000E+00  0.00000000E+00
  0.00000000E+00  0.00000000E+00  0.00000000E+00
  0.00000000E+00  0.00000000E+00  0.00000000E+00
  0.00000000E+00  0.00000000E+00  0.00000000E+00
  0.00000000E+00  0.00000000E+00  0.00000000E+00
  0.00000000E+00  0.00000000E+00  0.00000000E+00
  0.00000000E+00  0.00000000E+00  0.00000000E+00
  0.00000000E+00  0.00000000E+00  0.00000000E+00
  0.00000000E+00  0.00000000E+00  0.00000000E+00
  0.00000000E+00  0.00000000E+00  0.00000000E+00
  0.00000000E+00  0.00000000E+00  0.00000000E+00
  0.00000000E+00  0.00000000E+00  0.00000000E+00
  0.00000000E+00  0.00000000E+00  0.00000000E+00
  0.00000000E+00  0.00000000E+00  0.00000000E+00
  0.00000000E+00  0.00000000E+00  0.00000000E+00
  0.00000000E+00  0.00000000E+00  0.00000000E+00
  0.00000000E+00  0.00000000E+00  0.00000000E+00
  0.00000000E+00  0.00000000E+00  0.00000000E+00
  0.00000000E+00  0.00000000E+00  0.00000000E+00
  0.00000000E+00  0.00000000E+00  0.00000000E+00
  0.00000000E+00  0.00000000E+00  0.00000000E+00
  0.00000000E+00  0.00000000E+00  0.00000000E+00
  0.00000000E+00  0.00000000E+00  0.00000000E+00
  0.00000000E+00  0.00000000E+00  0.00000000E+00
  0.00000000E+00  0.00000000E+00  0.00000000E+00
  0.00000000E+00  0.00000000E+00  0.00000000E+00
  0.00000000E+00  0.00000000E+00  0.00000000E+00
  0.00000000E+00  0.00000000E+00  0.00000000E+00
  0.00000000E+00  0.00000000E+00  0.00000000E+00
  0.00000000E+00  0.00000000E+00  0.00000000E+00
  0.00000000E+00  0.00000000E+00  0.00000000E+00
  0.00000000E+00  0.00000000E+00  0.00000000E+00
  0.00000000E+00  0.00000000E+00  0.00000000E+00
  0.00000000E+00  0.00000000E+00  0.00000000E+00
  0.00000000E+00  0.00000000E+00  0.00000000E+00
  0.00000000E+00  0.00000000E+00  0.00000000E+00
  0.00000000E+00  0.00000000E+00  0.00000000E+00
  0.00000000E+00  0.00000000E+00  0.00000000E+00
  0.00000000E+00  0.00000000E+00  0.00000000E+00
  0.00000000E+00  0.00000000E+00  0.00000000E+00
  0.00000000E+00  0.00000000E+00  0.00000000E+00
