Mg Rb Cl                                
   1.00000000000000     
    10.1196730000000006  -10.1196730000000006    0.0000000000000000
    10.1196730000000006   10.1196730000000006    0.0000000000000000
     0.0000000000000000    0.0000000000000000   20.2393460000000012
   Cl   Mg   Rb
    96    32    32
Direct
  0.1251770106941264  0.1238852938573133  0.0002608540799008
  0.1250359657479566  0.1240384442538898  0.2496616993815284
  0.1276583878613037  0.1217686167106004  0.4997557551025426
  0.1249251162738933  0.1245509259975385  0.7499134224668769
  0.6252542218140108  0.1239191478615155  0.9996411195669916
  0.6250828532256411  0.1235169532172379  0.2502428222097346
  0.6275896445827279  0.1212999811316731  0.4995243903122355
  0.6249303978098842  0.1243926919535711  0.7501643792364497
  0.3759520462226725  0.3733057740076331 -0.0004615769210421
  0.3756585502689949  0.3733551410054001  0.2498527763987328
  0.3731223241996255  0.3759108720038560  0.4999438009855638
  0.3765117510936168  0.3725468285082280  0.7503804560416965
  0.1251157462938770  0.6239934644568359  0.9995805465756487
  0.1246454339678807  0.6242145125036413  0.2499212174687750
  0.1271692643107856  0.6217447750565930  0.5001427056743279
  0.1246923200924101  0.6245056008522657  0.7499255937929064
  0.8761908814054323  0.3727375627673259  0.0002162351111670
  0.8756968170297230  0.3731980898982231  0.2497734622583577
  0.8731934033079691  0.3759444714089764  0.4999405566615411
  0.8764329878433852  0.3728970129530807  0.7495942600813763
  0.6249898305763236  0.6241425175350791 -0.0000748891343341
  0.6248611764981006  0.6237040840948772  0.2500103829684843
  0.6273345878440226  0.6214524286586426  0.5000565454815282
  0.6247283861821041  0.6245504614010008  0.7497173958256259
  0.3762615824461331  0.8731795552340345  0.0001672658567012
  0.3756049773160703  0.8731208329419986  0.2496556550172853
  0.3732678216044090  0.8757885812521633  0.5000085838457072
  0.3770212641217114  0.8723999796665940  0.7499127146081007
  0.8766588961902552  0.8723664593052650 -0.0001490206946208
  0.8757046832661717  0.8732299334522613  0.2500373270237307
  0.8733795366793911  0.8759614711579583  0.4998254478966490
  0.8769424238661543  0.8728800560368742  0.7496629504502673
  0.8750832949474320  0.1229286477454435  0.0009814863776253
  0.8749747042352425  0.1231872982756522  0.2487974190845014
  0.8775840492250699  0.1258454228372046  0.5006506791076076
  0.8749680697685343  0.1232029116907800  0.7491373012275184
  0.3752967906140038  0.1233485840494120  0.0006010175508409
  0.3749882400056647  0.1232835225437605  0.2492598092421549
  0.3774625059740467  0.1258180979956320  0.5004822615717089
  0.3747937853368312  0.1227494380612969  0.7494023008168065
  0.1257214452381548  0.3739905324825303  0.9993173212237212
  0.1255577294295350  0.3742126337427476  0.2502336970097034
  0.1230361674521459  0.3714692394450331  0.4994563264376015
  0.1263289326412786  0.3745954091174725  0.7505049253243721
  0.8746653690167935  0.6225710014993695  0.0001815933298003
  0.8746325392221105  0.6231354164775840  0.2498056220940576
  0.8770364922898238  0.6256687369528592  0.5003608662108012
  0.8748842159174293  0.6231613234344290  0.7494398027499174
  0.6258990982011671  0.3739840953363321  0.9990956635724936
  0.6253361168859022  0.3736114446104533  0.2508647615731108
  0.6229842906698724  0.3713159713969680  0.4991432711834529
  0.6262707968861003  0.3744498025873774  0.7506511195308748
  0.3751407629419607  0.6234024207624302  0.0006611663680259
  0.3746490318360881  0.6231293672539632  0.2489355211358580
  0.3772110023646248  0.6256661080648556  0.5009309748143209
  0.3746190416586888  0.6226822872031409  0.7491184682710319
  0.1263297262552041  0.8741290882232210  0.9987982261435554
  0.1254990301283869  0.8739289552308463  0.2510669516145553
  0.1232211625522227  0.8717384882993070  0.4990220836084235
  0.1268597930571047  0.8750168368112234  0.7505740742119625
  0.6262900603726992  0.8742084647447862 -0.0004831789117837
  0.6252812528108640  0.8734789079090232  0.2502773646543738
  0.6231588572622935  0.8714481544938057  0.4995030776941221
  0.6267386638078650  0.8748905952016784  0.7503502324306393
  0.0014908637550172  0.9970686418709868  0.1249153242038833
  0.9995325088290865  0.9998384877520609  0.3748588401505893
  0.0014621648862643 -0.0017231248812998  0.6248176631291710
 -0.0002456207028359  0.9994966586594057  0.8749563981885923
  0.5013642440247852 -0.0017978977681031  0.1249333695605639
  0.4992299476950042 -0.0014093556250857  0.3748607105330186
  0.5013024160387326  0.9981962843595045  0.6248306810014558
  0.4999863887658141  0.9990138301706655  0.8749311678067159
  0.2500492255670103  0.2494893944503958  0.1247767535692110
  0.2506542856862767  0.2485185500744534  0.3747900169997025
  0.2500130031391410  0.2493681265166644  0.6249626497615115
  0.2508103826783049  0.2478167916739962  0.8749572376174612
  0.0008229885294198  0.4985678606800363  0.1248690913874469
 -0.0001346679513362  0.4991798887668868  0.3750045981876209
  0.0010610543456077  0.4981843578059932  0.6248501320387109
 -0.0001277888296896  0.4990049223923885  0.8748041534572094
  0.7493435697188229  0.2493237567424939  0.1249715908143649
  0.7512433076396760  0.2479760267894113  0.3748767998945559
  0.7495953009265863  0.2491831342616737  0.6248625477435290
  0.7516685002715340  0.2482691001502962  0.8748768218445753
  0.5011644564308415  0.4974525091356486  0.1248351272536876
  0.4993630109859050  0.4994676968812447  0.3749084694246972
  0.5010843081420717  0.4974319901083592  0.6249815210568695
  0.5001201628000040  0.4996029382647270  0.8748753422958471
  0.2493101388694275  0.7494716912754731  0.1248733737665876
  0.2509489975633932  0.7477211014671907  0.3750091961095078
  0.2497480261147440  0.7496447451318817  0.6248771063651745
  0.2514381758864204  0.7482044101823623  0.8748644619794717
  0.7500393725037050  0.7488148511066403  0.1249556557604155
  0.7502963261896245  0.7485469148824606  0.3750140038270132
  0.7500827891632710  0.7495272268981003  0.6249049254461201
  0.7508851972144913  0.7484427754383323  0.8748600902015730
  0.0007304646142999  0.9985212055054079 -0.0000492545122230
  0.0003640778615758 -0.0012420043486925  0.2498936815910464
  0.0004764887133822 -0.0009774743494812  0.4998838435107693
  0.0006810211369376 -0.0010107340223536  0.7499021407801650
  0.5006407356688742 -0.0014108697825773 -0.0000570337535250
  0.5002740579815368  0.9983850567103062  0.2498290411327821
  0.5003130139398628 -0.0012461075551469  0.4998510827711910
  0.5006452502148353 -0.0012102535210023  0.7499498361719814
  0.2505500985730225  0.2486092415880991 -0.0001524774524624
  0.2504368084119554  0.2487435296829702  0.2497736118769011
  0.2503882797204411  0.2489204538997444  0.4998507696188456
  0.2506181554133030  0.2487844338248980  0.7499180512534428
  0.0005288244021740  0.4986264550506588  0.9997602790163547
  0.0001260971303761  0.4987349569820127  0.2499087891179096
  0.0002342984891799  0.4988510392027229  0.4999284932968047
  0.0004752756249461  0.4988082852744795  0.7498142583578744
  0.7505463832804106  0.2485465256847522  0.9999974661551904
  0.7501766715566757  0.2484924876895845  0.2499590943208602
  0.7503529580699438  0.2486946086181884  0.4998525723289093
  0.7505913712693161  0.2488243276136456  0.7498603827010438
  0.5004861688008875  0.4987316666543816 -0.0001655851688907
  0.5002418026669373  0.4986393409125858  0.2498577890643563
  0.5002343658382350  0.4987718585639368  0.4998954876772296
  0.5005083563613562  0.4987935019807110  0.7498037953973417
  0.2505758378540226  0.7486865557392283 -0.0000954663956532
  0.2501522007639324  0.7486047877191003  0.2498956986519155
  0.2502790539631316  0.7487911026430599  0.4999088522425292
  0.2506160558373952  0.7487946149483623  0.7498615432060562
  0.7506464112633022  0.7485280228540963 -0.0000842923655064
  0.7502185003617073  0.7485995443675263  0.2499953731223505
  0.7502832088216033  0.7488860787606166  0.4999150342950062
  0.7507341673319007  0.7489119130115257  0.7499086345968219
  0.0005068542887822  0.2487344887524728  0.1248350675754969
  0.0003220997820841  0.2485072673373405  0.3748001444068412
  0.0005699993503081  0.2487891831496559  0.6248989875074400
  0.0007124924488328  0.2485660228048387  0.8749414054706688
  0.5004782137795613  0.2483459679276234  0.1248428850341079
  0.5002341842719129  0.2484422903678527  0.3747993320046781
  0.5007437856355862  0.2484979163333478  0.6249478389959598
  0.5009448944495483  0.2486179877028830  0.8748478834181511
  0.2502846075149970  0.4985227618352027  0.1247653297933323
  0.2500230526028858  0.4986869640148036  0.3749457864756103
  0.2502546475232977  0.4985151422190859  0.6250056162455959
  0.2507401893933816  0.4986575648142139  0.8749188837553393
  0.0002770539018372  0.7482680057662505  0.1248775176469931
  0.0000930597194947  0.7485754950524731  0.3748939673713408
  0.0006330168342477  0.7489660620225050  0.6247735650535341
  0.0009854560631914  0.7486602807758332  0.8746950256419148
  0.7504767125012828  0.4984038559062829  0.1250122202872247
  0.7501474358743446  0.4984307725377334  0.3750265457935256
  0.7503585433372967  0.4986952790906813  0.6249016680188633
  0.7505374559963774  0.4986885757714506  0.8749710576484285
  0.5005756749382064  0.7483525663310735  0.1249057716770626
  0.5000999510205293  0.7482567486740257  0.3748496847530193
  0.5004786144485809  0.7486454815768451  0.6248470892860948
  0.5008938406107358  0.7485009766001166  0.8749040633644968
  0.2505438666260481 -0.0016136344274718  0.1248686795148901
  0.2502762676025228  0.9987650719813690  0.3748647967389883
  0.2506067077894991 -0.0012792294561184  0.6248979282018198
  0.2511115568140837  0.9987059932536725  0.8752081095412896
  0.7506515772124541  0.9982720748684288  0.1247469754584318
  0.7500751996960289  0.9982918064754619  0.3748317580516600
  0.7506304300732587 -0.0013480850779480  0.6248095111380483
  0.7509247494423147  0.9985971818766466  0.8748955472606730
 
  0.00000000E+00  0.00000000E+00  0.00000000E+00
  0.00000000E+00  0.00000000E+00  0.00000000E+00
  0.00000000E+00  0.00000000E+00  0.00000000E+00
  0.00000000E+00  0.00000000E+00  0.00000000E+00
  0.00000000E+00  0.00000000E+00  0.00000000E+00
  0.00000000E+00  0.00000000E+00  0.00000000E+00
  0.00000000E+00  0.00000000E+00  0.00000000E+00
  0.00000000E+00  0.00000000E+00  0.00000000E+00
  0.00000000E+00  0.00000000E+00  0.00000000E+00
  0.00000000E+00  0.00000000E+00  0.00000000E+00
  0.00000000E+00  0.00000000E+00  0.00000000E+00
  0.00000000E+00  0.00000000E+00  0.00000000E+00
  0.00000000E+00  0.00000000E+00  0.00000000E+00
  0.00000000E+00  0.00000000E+00  0.00000000E+00
  0.00000000E+00  0.00000000E+00  0.00000000E+00
  0.00000000E+00  0.00000000E+00  0.00000000E+00
  0.00000000E+00  0.00000000E+00  0.00000000E+00
  0.00000000E+00  0.00000000E+00  0.00000000E+00
  0.00000000E+00  0.00000000E+00  0.00000000E+00
  0.00000000E+00  0.00000000E+00  0.00000000E+00
  0.00000000E+00  0.00000000E+00  0.00000000E+00
  0.00000000E+00  0.00000000E+00  0.00000000E+00
  0.00000000E+00  0.00000000E+00  0.00000000E+00
  0.00000000E+00  0.00000000E+00  0.00000000E+00
  0.00000000E+00  0.00000000E+00  0.00000000E+00
  0.00000000E+00  0.00000000E+00  0.00000000E+00
  0.00000000E+00  0.00000000E+00  0.00000000E+00
  0.00000000E+00  0.00000000E+00  0.00000000E+00
  0.00000000E+00  0.00000000E+00  0.00000000E+00
  0.00000000E+00  0.00000000E+00  0.00000000E+00
  0.00000000E+00  0.00000000E+00  0.00000000E+00
  0.00000000E+00  0.00000000E+00  0.00000000E+00
  0.00000000E+00  0.00000000E+00  0.00000000E+00
  0.00000000E+00  0.00000000E+00  0.00000000E+00
  0.00000000E+00  0.00000000E+00  0.00000000E+00
  0.00000000E+00  0.00000000E+00  0.00000000E+00
  0.00000000E+00  0.00000000E+00  0.00000000E+00
  0.00000000E+00  0.00000000E+00  0.00000000E+00
  0.00000000E+00  0.00000000E+00  0.00000000E+00
  0.00000000E+00  0.00000000E+00  0.00000000E+00
  0.00000000E+00  0.00000000E+00  0.00000000E+00
  0.00000000E+00  0.00000000E+00  0.00000000E+00
  0.00000000E+00  0.00000000E+00  0.00000000E+00
  0.00000000E+00  0.00000000E+00  0.00000000E+00
  0.00000000E+00  0.00000000E+00  0.00000000E+00
  0.00000000E+00  0.00000000E+00  0.00000000E+00
  0.00000000E+00  0.00000000E+00  0.00000000E+00
  0.00000000E+00  0.00000000E+00  0.00000000E+00
  0.00000000E+00  0.00000000E+00  0.00000000E+00
  0.00000000E+00  0.00000000E+00  0.00000000E+00
  0.00000000E+00  0.00000000E+00  0.00000000E+00
  0.00000000E+00  0.00000000E+00  0.00000000E+00
  0.00000000E+00  0.00000000E+00  0.00000000E+00
  0.00000000E+00  0.00000000E+00  0.00000000E+00
  0.00000000E+00  0.00000000E+00  0.00000000E+00
  0.00000000E+00  0.00000000E+00  0.00000000E+00
  0.00000000E+00  0.00000000E+00  0.00000000E+00
  0.00000000E+00  0.00000000E+00  0.00000000E+00
  0.00000000E+00  0.00000000E+00  0.00000000E+00
  0.00000000E+00  0.00000000E+00  0.00000000E+00
  0.00000000E+00  0.00000000E+00  0.00000000E+00
  0.00000000E+00  0.00000000E+00  0.00000000E+00
  0.00000000E+00  0.00000000E+00  0.00000000E+00
  0.00000000E+00  0.00000000E+00  0.00000000E+00
  0.00000000E+00  0.00000000E+00  0.00000000E+00
  0.00000000E+00  0.00000000E+00  0.00000000E+00
  0.00000000E+00  0.00000000E+00  0.00000000E+00
  0.00000000E+00  0.00000000E+00  0.00000000E+00
  0.00000000E+00  0.00000000E+00  0.00000000E+00
  0.00000000E+00  0.00000000E+00  0.00000000E+00
  0.00000000E+00  0.00000000E+00  0.00000000E+00
  0.00000000E+00  0.00000000E+00  0.00000000E+00
  0.00000000E+00  0.00000000E+00  0.00000000E+00
  0.00000000E+00  0.00000000E+00  0.00000000E+00
  0.00000000E+00  0.00000000E+00  0.00000000E+00
  0.00000000E+00  0.00000000E+00  0.00000000E+00
  0.00000000E+00  0.00000000E+00  0.00000000E+00
  0.00000000E+00  0.00000000E+00  0.00000000E+00
  0.00000000E+00  0.00000000E+00  0.00000000E+00
  0.00000000E+00  0.00000000E+00  0.00000000E+00
  0.00000000E+00  0.00000000E+00  0.00000000E+00
  0.00000000E+00  0.00000000E+00  0.00000000E+00
  0.00000000E+00  0.00000000E+00  0.00000000E+00
  0.00000000E+00  0.00000000E+00  0.00000000E+00
  0.00000000E+00  0.00000000E+00  0.00000000E+00
  0.00000000E+00  0.00000000E+00  0.00000000E+00
  0.00000000E+00  0.00000000E+00  0.00000000E+00
  0.00000000E+00  0.00000000E+00  0.00000000E+00
  0.00000000E+00  0.00000000E+00  0.00000000E+00
  0.00000000E+00  0.00000000E+00  0.00000000E+00
  0.00000000E+00  0.00000000E+00  0.00000000E+00
  0.00000000E+00  0.00000000E+00  0.00000000E+00
  0.00000000E+00  0.00000000E+00  0.00000000E+00
  0.00000000E+00  0.00000000E+00  0.00000000E+00
  0.00000000E+00  0.00000000E+00  0.00000000E+00
  0.00000000E+00  0.00000000E+00  0.00000000E+00
  0.00000000E+00  0.00000000E+00  0.00000000E+00
  0.00000000E+00  0.00000000E+00  0.00000000E+00
  0.00000000E+00  0.00000000E+00  0.00000000E+00
  0.00000000E+00  0.00000000E+00  0.00000000E+00
  0.00000000E+00  0.00000000E+00  0.00000000E+00
  0.00000000E+00  0.00000000E+00  0.00000000E+00
  0.00000000E+00  0.00000000E+00  0.00000000E+00
  0.00000000E+00  0.00000000E+00  0.00000000E+00
  0.00000000E+00  0.00000000E+00  0.00000000E+00
  0.00000000E+00  0.00000000E+00  0.00000000E+00
  0.00000000E+00  0.00000000E+00  0.00000000E+00
  0.00000000E+00  0.00000000E+00  0.00000000E+00
  0.00000000E+00  0.00000000E+00  0.00000000E+00
  0.00000000E+00  0.00000000E+00  0.00000000E+00
  0.00000000E+00  0.00000000E+00  0.00000000E+00
  0.00000000E+00  0.00000000E+00  0.00000000E+00
  0.00000000E+00  0.00000000E+00  0.00000000E+00
  0.00000000E+00  0.00000000E+00  0.00000000E+00
  0.00000000E+00  0.00000000E+00  0.00000000E+00
  0.00000000E+00  0.00000000E+00  0.00000000E+00
  0.00000000E+00  0.00000000E+00  0.00000000E+00
  0.00000000E+00  0.00000000E+00  0.00000000E+00
  0.00000000E+00  0.00000000E+00  0.00000000E+00
  0.00000000E+00  0.00000000E+00  0.00000000E+00
  0.00000000E+00  0.00000000E+00  0.00000000E+00
  0.00000000E+00  0.00000000E+00  0.00000000E+00
  0.00000000E+00  0.00000000E+00  0.00000000E+00
  0.00000000E+00  0.00000000E+00  0.00000000E+00
  0.00000000E+00  0.00000000E+00  0.00000000E+00
  0.00000000E+00  0.00000000E+00  0.00000000E+00
  0.00000000E+00  0.00000000E+00  0.00000000E+00
  0.00000000E+00  0.00000000E+00  0.00000000E+00
  0.00000000E+00  0.00000000E+00  0.00000000E+00
  0.00000000E+00  0.00000000E+00  0.00000000E+00
  0.00000000E+00  0.00000000E+00  0.00000000E+00
  0.00000000E+00  0.00000000E+00  0.00000000E+00
  0.00000000E+00  0.00000000E+00  0.00000000E+00
  0.00000000E+00  0.00000000E+00  0.00000000E+00
  0.00000000E+00  0.00000000E+00  0.00000000E+00
  0.00000000E+00  0.00000000E+00  0.00000000E+00
  0.00000000E+00  0.00000000E+00  0.00000000E+00
  0.00000000E+00  0.00000000E+00  0.00000000E+00
  0.00000000E+00  0.00000000E+00  0.00000000E+00
  0.00000000E+00  0.00000000E+00  0.00000000E+00
  0.00000000E+00  0.00000000E+00  0.00000000E+00
  0.00000000E+00  0.00000000E+00  0.00000000E+00
  0.00000000E+00  0.00000000E+00  0.00000000E+00
  0.00000000E+00  0.00000000E+00  0.00000000E+00
  0.00000000E+00  0.00000000E+00  0.00000000E+00
  0.00000000E+00  0.00000000E+00  0.00000000E+00
  0.00000000E+00  0.00000000E+00  0.00000000E+00
  0.00000000E+00  0.00000000E+00  0.00000000E+00
  0.00000000E+00  0.00000000E+00  0.00000000E+00
  0.00000000E+00  0.00000000E+00  0.00000000E+00
  0.00000000E+00  0.00000000E+00  0.00000000E+00
  0.00000000E+00  0.00000000E+00  0.00000000E+00
  0.00000000E+00  0.00000000E+00  0.00000000E+00
  0.00000000E+00  0.00000000E+00  0.00000000E+00
  0.00000000E+00  0.00000000E+00  0.00000000E+00
  0.00000000E+00  0.00000000E+00  0.00000000E+00
  0.00000000E+00  0.00000000E+00  0.00000000E+00
  0.00000000E+00  0.00000000E+00  0.00000000E+00
  0.00000000E+00  0.00000000E+00  0.00000000E+00
  0.00000000E+00  0.00000000E+00  0.00000000E+00
