Cs Cl Cd                                
   1.00000000000000     
    10.6665690000000009  -10.6665690000000009    0.0000000000000000
    10.6665690000000009   10.6665690000000009    0.0000000000000000
     0.0000000000000000    0.0000000000000000   21.3331370000000007
   Cd   Cl   Cs
    32    96    32
Direct
 -0.0001039928991958  0.2497447416895056  0.1242715664905392
 -0.0000311997167902  0.2497140159707322  0.3742678666961503
 -0.0000908862384031  0.2497112457755435  0.6242743295638459
 -0.0000967829349006  0.2496819046167714  0.8742832848021690
  0.4999320832176259  0.2496920904770951  0.1242831301586583
  0.4999501408776620  0.2497187092073296  0.3742713798355667
  0.4999125740509143  0.2497118088716835  0.6242903446432669
  0.4999058869441615  0.2496879640841092  0.8742614642589958
  0.2499130928038977  0.4996371072677006  0.1257136452606346
  0.2499229769247813  0.4996780902900386  0.3757165066299865
  0.2499302615491577  0.4997185723584383  0.6257134747792289
  0.2498865094568201  0.4997089405726272  0.8757357567661235
 -0.0000740053679551  0.7496644580646424  0.1242831092699670
 -0.0001010568018142  0.7497366749586130  0.3742735765073488
 -0.0000472350046237  0.7497226264896923  0.6242934629590535
 -0.0000885568593223  0.7496994034641817  0.8742637555443432
  0.7498860210546858  0.4997055576859624  0.1242548516426086
  0.7499313930245850  0.4997069457579896  0.3742678653800975
  0.7499150259126968  0.4997244245756558  0.6242482188714041
  0.7499214371917310  0.4997228625521857  0.8742555573636067
  0.4999196655538129  0.7496876411144355  0.1242669206848306
  0.4999014767665704  0.7497128661138108  0.3742581797270008
  0.4999031847177425  0.7497164819876729  0.6242616043495848
  0.4999319354796390  0.7497213086414373  0.8742468072262444
  0.2499025578531194  0.9997037083416400  0.1242452905105651
  0.2498953685065499 -0.0002820818623408  0.3742415640002060
  0.2499318843265643  0.9997033632875932  0.6242407796993372
  0.2499051059668822 -0.0002759820715636  0.8742595940128538
  0.7499126907744800 -0.0003228050902260  0.1242572875932090
  0.7499589518965236 -0.0002957109505270  0.3742495697219236
  0.7499185862673567 -0.0002738211562260  0.6242579728463081
  0.7498794769455942 -0.0002820848735252  0.8742540730367911
  0.9994808581715912  0.2501028772321408  0.9996025094702986
  0.9998143680074492  0.2483083864439017  0.2494692875472790
 -0.0002179614330467  0.2498143579948074  0.4996453435893375
 -0.0002679535879126  0.2485148867918182  0.7495287449994632
  0.5009797806499756  0.2490486156852101 -0.0003983991340463
  0.4987070401718536  0.2492605711079174  0.2495731109071848
  0.5009182304168676  0.2490430075241717  0.4996027845690199
  0.4987071077545222  0.2492603267300028  0.7495853908503981
  0.2486319714532917  0.4995526041776947  0.0004642425359471
  0.2506886851186895  0.4987289383638234  0.2504187442928427
  0.2488710570121758  0.4993601639589536  0.5004180817262751
  0.2508600900796578  0.4989841589463064  0.7504057489237903
  0.0008919227598293  0.7489634138902729 -0.0003854903327900
  0.9986329109398722  0.7493197756920169  0.2495947093821319
  0.0008864504825447  0.7490041146436048  0.4995958325964270
  0.9988188695577326  0.7492723874912048  0.7495628654635264
  0.7495601061025066  0.4983941410776338 -0.0005624626309862
  0.7498094916597017  0.5001709281171127  0.2496267139811366
  0.7497627806610475  0.4983585368040301  0.4994403448189592
  0.7499397635299705  0.5000850838363589  0.7495752315875124
  0.4998997631051607  0.7497647999591900 -0.0003588848167292
  0.4998627307824456  0.7484648364217938  0.2495707701519992
  0.4995381691157076  0.7501792855044239  0.4996186472013381
  0.4995443509541957  0.7485707088885238  0.7495235513437466
  0.2497151347053307  0.9982286135376061 -0.0005583410048585
  0.2495560472424311  0.0003557399079559  0.2495829040308351
  0.2495772544952174  0.9984749210961508  0.4994430984355893
  0.2499743743474974  0.9998679315008973  0.7496216229531302
  0.7487196980547640 -0.0007059047707300 -0.0004504806787232
  0.7508078506182927 -0.0010839487246762  0.2495466057609375
  0.7489514011757963 -0.0006614114243927  0.4995705151120028
  0.7507509182467437 -0.0010118827133234  0.7495275949267038
  0.1239771863200377  0.1234302569257470  0.1240588839576373
  0.1247931449399852  0.1245685960514967  0.3751262990034504
  0.1246576852808636  0.1242147960365660  0.6245392613264810
  0.1248220338578966  0.1245783840050125  0.8750987797404753
  0.6241247745572247  0.1236995082957792  0.1254707652984768
  0.6247870893227963  0.1243630256211604  0.3742608065122645
  0.6245148343007989  0.1241737934945324  0.6254206419055814
  0.6247286323046856  0.1242946501670427  0.8742271453287250
  0.3754414689400073  0.3750848267972458  0.1244828556606715
  0.3747164266083173  0.3742877620423373  0.3757622760492879
  0.3750174750314538  0.3746165470057556  0.6246586218911694
  0.3746457096683208  0.3742974310103769  0.8757617710092377
  0.1240631485076136  0.6235296806328441  0.1259284315474699
  0.1248604611005523  0.6243994573563886  0.3745283282425083
  0.1246289204168506  0.6242321891051937  0.6256736651454813
  0.1248764320468443  0.6244363440524878  0.8745039115154967
  0.8752383926956394  0.3750943241684014  0.1251556173392945
  0.8747568544710413  0.3742174635485905  0.3743423178204983
  0.8749316470345547  0.3745978876088646  0.6250398337837738
  0.8746866188300118  0.3742921394611241  0.8743753240515777
  0.6242879551289144  0.6236936072613706  0.1244995745131189
  0.6247711633782440  0.6244980281639342  0.3753022042747849
  0.6245636072035454  0.6241722243352026  0.6244042642948990
  0.6248432064322514  0.6245322597810329  0.8750624276608181
  0.3752647073569681  0.8750530464325271  0.1252602693633697
  0.3747246348514325  0.8743649509199208  0.3744120657186637
  0.3748501135392058  0.8746906590163359  0.6250885320770944
  0.3748139540399690  0.8742879185469079  0.8746538597106288
  0.8754601900539424  0.8750628282270320  0.1242173240606567
  0.8747486868073607  0.8743516704209937  0.3753898750860825
  0.8748591702471128  0.8743992019926929  0.6243007738414709
  0.8747272567336933  0.8744064279023641  0.8753377311877881
  0.8742192188943427  0.1250830632135212  0.1243441350756744
  0.8749601255255431  0.1244305521767449  0.3751125372239125
  0.8746974724927413  0.1246174431419713  0.6245271231994624
  0.8749231658465672  0.1244637425307170  0.8751102079651701
  0.3741908433891412  0.1251244459858278  0.1242659179956835
  0.3749701150728495  0.1244610386319468  0.3751871859077654
  0.3746022042846893  0.1246833463337328  0.6244041578937721
  0.3749493977920230  0.1244315723952846  0.8752728019742553
  0.1255699750704803  0.3735286789515893  0.1254103346214783
  0.1248663029555601  0.3744850197115502  0.3748291318118213
  0.1251095393285241  0.3742844826739342  0.6254655253337418
  0.1247716470143354  0.3746108967069159  0.8748500894349002
  0.8743026164877301  0.6250324636354022  0.1242991597667281
  0.8750433779089583  0.6243520436003723  0.3752052943945364
  0.8746888405028149  0.6245808239861892  0.6243446460754073
  0.8749953886132021  0.6244409766214435  0.8752343883821744
  0.6255518758657126  0.3737655121173568  0.1253714360518705
  0.6249560953168450  0.3743127580888125  0.3743722917492511
  0.6251217985259331  0.3743028296215111  0.6253023445343593
  0.6248427670237646  0.3744094503166145  0.8742883602355767
  0.3744549732589972  0.6250019945424032  0.1249674456668425
  0.3749574068502901  0.6243625547434449  0.3754095535562765
  0.3747535630606515  0.6246458986389021  0.6248223347958390
  0.3750429375767140  0.6242727157122622  0.8756077255237076
  0.1256275085810642  0.8735502431970821  0.1253077545672578
  0.1249143166116541  0.8743557614399493  0.3743293117049622
  0.1250146591228805  0.8744150884432325  0.6251801438795056
  0.1247992471616830  0.8744844527312494  0.8743963003800422
  0.6254821061588784  0.8737828159518072  0.1253999367146893
  0.6248368442369019  0.8745787320700529  0.3746800634283897
  0.6250486462522423  0.8743086242530527  0.6252485787200905
  0.6248616136596146  0.8744125040778346  0.8744888606959756
  0.9997779334729612 -0.0005907906907070  0.9996260817344845
 -0.0001859785930254 -0.0005903523348444  0.2496273114008060
 -0.0002009409480152 -0.0006010434726936  0.4996474789695936
 -0.0001856171555750 -0.0005700300385556  0.7496477975487487
  0.4997806941177322  0.9993944443477427  0.9998259319830819
  0.4997918170601384 -0.0005330184179959  0.2498205654489071
  0.4998026197527107  0.9994986859940427  0.4997584109437754
  0.4997889202070467  0.9994553640968294  0.7497904526654272
  0.2497340518457909  0.2494208401843013  0.9999315233689684
  0.2497730524972611  0.2494165876422355  0.2498749826921384
  0.2497683833240711  0.2494147993318119  0.4999541058697213
  0.2498409505794418  0.2494122430972450  0.7499830494596743
  0.9996904265248132  0.4994300893700995 -0.0000397336026426
 -0.0002129263495969  0.4993661902973093  0.2499496313661034
 -0.0002312527762016  0.4994457902251253  0.4999231476284639
 -0.0001657454861243  0.4994080496090869  0.7499573603728165
  0.7497663422018561  0.2493831869256671  0.9996801694000693
  0.7498324081970232  0.2494072407652780  0.2497358366470085
  0.7498671812488907  0.2494479862665979  0.4997292710080263
  0.7497969941435979  0.2494722096404064  0.7497393868689738
  0.4997917008251360  0.4994385338893444  0.0000050102466923
  0.4997971166760359  0.4993794666058429  0.2500423009366550
  0.4997553385723565  0.4994310647132476  0.4999885279391109
  0.4998617933768114  0.4994150801420305  0.7499499090803904
  0.2498788522834606  0.7493292899881910  0.0000266103410369
  0.2497763567457474  0.7494103151759502  0.2500159471371946
  0.2498074156459515  0.7494267654650560  0.4999673924153482
  0.2498481735055081  0.7493876673530003  0.7500194422091427
  0.7498037206016026  0.7494544746453978  0.9997798184066948
  0.7498064850921011  0.7494485678773189  0.2497956889945834
  0.7498020379943868  0.7494550464739546  0.4997863909408533
  0.7498016877722007  0.7494768482966576  0.7497839520059316
 
  0.00000000E+00  0.00000000E+00  0.00000000E+00
  0.00000000E+00  0.00000000E+00  0.00000000E+00
  0.00000000E+00  0.00000000E+00  0.00000000E+00
  0.00000000E+00  0.00000000E+00  0.00000000E+00
  0.00000000E+00  0.00000000E+00  0.00000000E+00
  0.00000000E+00  0.00000000E+00  0.00000000E+00
  0.00000000E+00  0.00000000E+00  0.00000000E+00
  0.00000000E+00  0.00000000E+00  0.00000000E+00
  0.00000000E+00  0.00000000E+00  0.00000000E+00
  0.00000000E+00  0.00000000E+00  0.00000000E+00
  0.00000000E+00  0.00000000E+00  0.00000000E+00
  0.00000000E+00  0.00000000E+00  0.00000000E+00
  0.00000000E+00  0.00000000E+00  0.00000000E+00
  0.00000000E+00  0.00000000E+00  0.00000000E+00
  0.00000000E+00  0.00000000E+00  0.00000000E+00
  0.00000000E+00  0.00000000E+00  0.00000000E+00
  0.00000000E+00  0.00000000E+00  0.00000000E+00
  0.00000000E+00  0.00000000E+00  0.00000000E+00
  0.00000000E+00  0.00000000E+00  0.00000000E+00
  0.00000000E+00  0.00000000E+00  0.00000000E+00
  0.00000000E+00  0.00000000E+00  0.00000000E+00
  0.00000000E+00  0.00000000E+00  0.00000000E+00
  0.00000000E+00  0.00000000E+00  0.00000000E+00
  0.00000000E+00  0.00000000E+00  0.00000000E+00
  0.00000000E+00  0.00000000E+00  0.00000000E+00
  0.00000000E+00  0.00000000E+00  0.00000000E+00
  0.00000000E+00  0.00000000E+00  0.00000000E+00
  0.00000000E+00  0.00000000E+00  0.00000000E+00
  0.00000000E+00  0.00000000E+00  0.00000000E+00
  0.00000000E+00  0.00000000E+00  0.00000000E+00
  0.00000000E+00  0.00000000E+00  0.00000000E+00
  0.00000000E+00  0.00000000E+00  0.00000000E+00
  0.00000000E+00  0.00000000E+00  0.00000000E+00
  0.00000000E+00  0.00000000E+00  0.00000000E+00
  0.00000000E+00  0.00000000E+00  0.00000000E+00
  0.00000000E+00  0.00000000E+00  0.00000000E+00
  0.00000000E+00  0.00000000E+00  0.00000000E+00
  0.00000000E+00  0.00000000E+00  0.00000000E+00
  0.00000000E+00  0.00000000E+00  0.00000000E+00
  0.00000000E+00  0.00000000E+00  0.00000000E+00
  0.00000000E+00  0.00000000E+00  0.00000000E+00
  0.00000000E+00  0.00000000E+00  0.00000000E+00
  0.00000000E+00  0.00000000E+00  0.00000000E+00
  0.00000000E+00  0.00000000E+00  0.00000000E+00
  0.00000000E+00  0.00000000E+00  0.00000000E+00
  0.00000000E+00  0.00000000E+00  0.00000000E+00
  0.00000000E+00  0.00000000E+00  0.00000000E+00
  0.00000000E+00  0.00000000E+00  0.00000000E+00
  0.00000000E+00  0.00000000E+00  0.00000000E+00
  0.00000000E+00  0.00000000E+00  0.00000000E+00
  0.00000000E+00  0.00000000E+00  0.00000000E+00
  0.00000000E+00  0.00000000E+00  0.00000000E+00
  0.00000000E+00  0.00000000E+00  0.00000000E+00
  0.00000000E+00  0.00000000E+00  0.00000000E+00
  0.00000000E+00  0.00000000E+00  0.00000000E+00
  0.00000000E+00  0.00000000E+00  0.00000000E+00
  0.00000000E+00  0.00000000E+00  0.00000000E+00
  0.00000000E+00  0.00000000E+00  0.00000000E+00
  0.00000000E+00  0.00000000E+00  0.00000000E+00
  0.00000000E+00  0.00000000E+00  0.00000000E+00
  0.00000000E+00  0.00000000E+00  0.00000000E+00
  0.00000000E+00  0.00000000E+00  0.00000000E+00
  0.00000000E+00  0.00000000E+00  0.00000000E+00
  0.00000000E+00  0.00000000E+00  0.00000000E+00
  0.00000000E+00  0.00000000E+00  0.00000000E+00
  0.00000000E+00  0.00000000E+00  0.00000000E+00
  0.00000000E+00  0.00000000E+00  0.00000000E+00
  0.00000000E+00  0.00000000E+00  0.00000000E+00
  0.00000000E+00  0.00000000E+00  0.00000000E+00
  0.00000000E+00  0.00000000E+00  0.00000000E+00
  0.00000000E+00  0.00000000E+00  0.00000000E+00
  0.00000000E+00  0.00000000E+00  0.00000000E+00
  0.00000000E+00  0.00000000E+00  0.00000000E+00
  0.00000000E+00  0.00000000E+00  0.00000000E+00
  0.00000000E+00  0.00000000E+00  0.00000000E+00
  0.00000000E+00  0.00000000E+00  0.00000000E+00
  0.00000000E+00  0.00000000E+00  0.00000000E+00
  0.00000000E+00  0.00000000E+00  0.00000000E+00
  0.00000000E+00  0.00000000E+00  0.00000000E+00
  0.00000000E+00  0.00000000E+00  0.00000000E+00
  0.00000000E+00  0.00000000E+00  0.00000000E+00
  0.00000000E+00  0.00000000E+00  0.00000000E+00
  0.00000000E+00  0.00000000E+00  0.00000000E+00
  0.00000000E+00  0.00000000E+00  0.00000000E+00
  0.00000000E+00  0.00000000E+00  0.00000000E+00
  0.00000000E+00  0.00000000E+00  0.00000000E+00
  0.00000000E+00  0.00000000E+00  0.00000000E+00
  0.00000000E+00  0.00000000E+00  0.00000000E+00
  0.00000000E+00  0.00000000E+00  0.00000000E+00
  0.00000000E+00  0.00000000E+00  0.00000000E+00
  0.00000000E+00  0.00000000E+00  0.00000000E+00
  0.00000000E+00  0.00000000E+00  0.00000000E+00
  0.00000000E+00  0.00000000E+00  0.00000000E+00
  0.00000000E+00  0.00000000E+00  0.00000000E+00
  0.00000000E+00  0.00000000E+00  0.00000000E+00
  0.00000000E+00  0.00000000E+00  0.00000000E+00
  0.00000000E+00  0.00000000E+00  0.00000000E+00
  0.00000000E+00  0.00000000E+00  0.00000000E+00
  0.00000000E+00  0.00000000E+00  0.00000000E+00
  0.00000000E+00  0.00000000E+00  0.00000000E+00
  0.00000000E+00  0.00000000E+00  0.00000000E+00
  0.00000000E+00  0.00000000E+00  0.00000000E+00
  0.00000000E+00  0.00000000E+00  0.00000000E+00
  0.00000000E+00  0.00000000E+00  0.00000000E+00
  0.00000000E+00  0.00000000E+00  0.00000000E+00
  0.00000000E+00  0.00000000E+00  0.00000000E+00
  0.00000000E+00  0.00000000E+00  0.00000000E+00
  0.00000000E+00  0.00000000E+00  0.00000000E+00
  0.00000000E+00  0.00000000E+00  0.00000000E+00
  0.00000000E+00  0.00000000E+00  0.00000000E+00
  0.00000000E+00  0.00000000E+00  0.00000000E+00
  0.00000000E+00  0.00000000E+00  0.00000000E+00
  0.00000000E+00  0.00000000E+00  0.00000000E+00
  0.00000000E+00  0.00000000E+00  0.00000000E+00
  0.00000000E+00  0.00000000E+00  0.00000000E+00
  0.00000000E+00  0.00000000E+00  0.00000000E+00
  0.00000000E+00  0.00000000E+00  0.00000000E+00
  0.00000000E+00  0.00000000E+00  0.00000000E+00
  0.00000000E+00  0.00000000E+00  0.00000000E+00
  0.00000000E+00  0.00000000E+00  0.00000000E+00
  0.00000000E+00  0.00000000E+00  0.00000000E+00
  0.00000000E+00  0.00000000E+00  0.00000000E+00
  0.00000000E+00  0.00000000E+00  0.00000000E+00
  0.00000000E+00  0.00000000E+00  0.00000000E+00
  0.00000000E+00  0.00000000E+00  0.00000000E+00
  0.00000000E+00  0.00000000E+00  0.00000000E+00
  0.00000000E+00  0.00000000E+00  0.00000000E+00
  0.00000000E+00  0.00000000E+00  0.00000000E+00
  0.00000000E+00  0.00000000E+00  0.00000000E+00
  0.00000000E+00  0.00000000E+00  0.00000000E+00
  0.00000000E+00  0.00000000E+00  0.00000000E+00
  0.00000000E+00  0.00000000E+00  0.00000000E+00
  0.00000000E+00  0.00000000E+00  0.00000000E+00
  0.00000000E+00  0.00000000E+00  0.00000000E+00
  0.00000000E+00  0.00000000E+00  0.00000000E+00
  0.00000000E+00  0.00000000E+00  0.00000000E+00
  0.00000000E+00  0.00000000E+00  0.00000000E+00
  0.00000000E+00  0.00000000E+00  0.00000000E+00
  0.00000000E+00  0.00000000E+00  0.00000000E+00
  0.00000000E+00  0.00000000E+00  0.00000000E+00
  0.00000000E+00  0.00000000E+00  0.00000000E+00
  0.00000000E+00  0.00000000E+00  0.00000000E+00
  0.00000000E+00  0.00000000E+00  0.00000000E+00
  0.00000000E+00  0.00000000E+00  0.00000000E+00
  0.00000000E+00  0.00000000E+00  0.00000000E+00
  0.00000000E+00  0.00000000E+00  0.00000000E+00
  0.00000000E+00  0.00000000E+00  0.00000000E+00
  0.00000000E+00  0.00000000E+00  0.00000000E+00
  0.00000000E+00  0.00000000E+00  0.00000000E+00
  0.00000000E+00  0.00000000E+00  0.00000000E+00
  0.00000000E+00  0.00000000E+00  0.00000000E+00
  0.00000000E+00  0.00000000E+00  0.00000000E+00
  0.00000000E+00  0.00000000E+00  0.00000000E+00
  0.00000000E+00  0.00000000E+00  0.00000000E+00
  0.00000000E+00  0.00000000E+00  0.00000000E+00
  0.00000000E+00  0.00000000E+00  0.00000000E+00
  0.00000000E+00  0.00000000E+00  0.00000000E+00
  0.00000000E+00  0.00000000E+00  0.00000000E+00
  0.00000000E+00  0.00000000E+00  0.00000000E+00
  0.00000000E+00  0.00000000E+00  0.00000000E+00
