Tl Ge Cl                                
   1.00000000000000     
    10.5051349999999992  -10.5051349999999992    0.0000000000000000
    10.5051349999999992   10.5051349999999992    0.0000000000000000
     0.0000000000000000    0.0000000000000000   21.0102690000000010
   Cl   Ge   Tl
    96    32    32
Direct
  0.1592165012875887  0.1186003370185436  0.9638548357510841
  0.0956824702140892  0.1436107113497919  0.2791671522666828
  0.1426371923484918  0.0896287959680267  0.4720467355457922
  0.1120132743193347  0.1739282584296858  0.7711968045450693
  0.6515181659448355  0.1049616108464308  0.0313133842499222
  0.5917353987623675  0.1345913923712124  0.2250128336417483
  0.6356455997342960  0.0879378318736860  0.5296784278399085
  0.5870694592598368  0.1344457210805725  0.7293577072951576
  0.3639796721538309  0.4158907768178089  0.0210533136097980
  0.3958474654469220  0.3432452542855878  0.2207704871472896
  0.3451512800592501  0.3838925806536821  0.5268428527474618
  0.4148185414629370  0.3654466123846346  0.7166820628812586
  0.1559630530483009  0.6044082589496940  0.0322285051783418
  0.0852591932278771  0.6393104565198771  0.2275084802266496
  0.1367565747721260  0.5870533488521890  0.5308563637099750
  0.0813038687042683  0.6391499569454743  0.7296133829169568
  0.8579683486522731  0.4012213440963413 -0.0254094069426408
  0.8867626646401239  0.3379563292985443  0.2852925334596436
  0.8397712102976795  0.3825717189321983  0.4788217414678907
  0.8839206667412250  0.3370771037432350  0.7835588776165121
  0.6620669946587862  0.6176141819102802 -0.0334317162754969
  0.5935300276525109  0.6402785788096815  0.2801454894315162
  0.6453091542727823  0.5917375270551309  0.4738986591733628
  0.6150842217090019  0.6642580220839051  0.7699785337853268
  0.3545764274343151  0.9022870046275108  0.9720602150705336
  0.3813012255619551  0.8387930311293068  0.2817833114656080
  0.3401938616721439  0.8846375929539507  0.4761021278641214
  0.3794458041821829  0.8366364956900731  0.7805131250268144
  0.8640924051192768  0.9113697466722227  0.0252210292517693
  0.8933078755179944  0.8420295308560883  0.2238696961109542
  0.8446312166861407  0.8888840695953165  0.5285018402108712
  0.9145690842386740  0.8721273435783773  0.7198212350058159
  0.9035915627235709  0.1346198269455644  0.9771224808524792
  0.8367399158002088  0.1065719957461554  0.2753889918351587
  0.9083001214840456  0.1341752999357294  0.4730071691885364
  0.8381037847194699  0.1038309214650024  0.7737932341250984
  0.3909297887535917  0.1621030952247578 -0.0239792297107570
  0.3686514465816859  0.0948553518468900  0.2723017504776867
  0.4119602229855869  0.1376429632454566  0.4792399004265084
  0.3633139888057429  0.0924734859352162  0.7753477284289502
  0.0836213533669628  0.3599675037951926  0.0215062302871342
  0.1627333502324675  0.3913968955866799  0.2202062507013220
  0.1093384012132195  0.3350501796460404  0.5232122621854951
  0.1612656191208159  0.3935529140296364  0.7172283219688453
  0.8922271161983265  0.6660134026523542  0.9754311873173253
  0.8659363278141068  0.5912240490724601  0.2793352960493123
  0.9128895488769546  0.6383534643765109  0.4816563843706121
  0.8615837812310817  0.5893409105185318  0.7807366657317860
  0.6080866353470241  0.3414076891260243  0.0330577075635498
  0.6433102612616205  0.4179821645583236  0.2285784002621183
  0.6146517650504304  0.3459124248106076  0.5299580040910101
  0.6462410595144134  0.4133194242976748  0.7283796924647822
  0.4051803816673508  0.6372845204404137 -0.0311007597246193
  0.3311565319469397  0.6061611386097969  0.2778520165268558
  0.4099645049903001  0.6374919949395227  0.4661234054050972
  0.3331328175878720  0.6033677837070044  0.7728748569729972
  0.1120245297460992  0.8383091898954489  0.0288830724123294
  0.1451376872001846  0.9196942583212290  0.2280377855460106
  0.1161941938095723  0.8415455814346536  0.5266544821545227
  0.1470262528298225  0.9154363404888869  0.7262340874324644
  0.5791141407559375  0.8537555225931741  0.0216295643106370
  0.6598940031064614  0.8836337131680725  0.2214390772487873
  0.6083612120891913  0.8360693129415392  0.5226784029456677
  0.6595640342308573  0.8854962575130427  0.7217686201423977
  0.0044559352927502  0.0610709381756999  0.1349545210773490
 -0.0052236896555604 -0.0480664523906135  0.3823494653403806
  0.0031045851352368  0.0561178910262935  0.6328971780813344
 -0.0076736670177075  0.9550889080287914  0.8856026863550686
  0.4391409210533692 -0.0060861078233274  0.1149465193139072
  0.5504572464826752  0.0047153914643965  0.3624218176156768
  0.4526517696859909 -0.0041249828428390  0.6133488591595853
  0.5444206020240054  0.0011867975826694  0.8651280760917657
  0.2482385863638690  0.2036237529512821  0.1087898920108268
  0.2647056925066518  0.3011486887013267  0.3595928890999496
  0.2558761365549274  0.2007714526302058  0.6146208818730792
  0.2598347482741036  0.3113510394933917  0.8613139143494244
  0.9410301015119470  0.4976763093063121  0.1160266318889574
  0.0530143362398612  0.5035857012036719  0.3644506775038154
 -0.0489718535251766  0.4977727393387775  0.6150619890717883
  0.0461594581881953  0.5006862672692193  0.8659953660170334
  0.7984191411341443  0.2487877505013126  0.1424913423748599
  0.6949921642314129  0.2415863480530640  0.3905538319996574
  0.7934233102870634  0.2451323145689980  0.6422672680872400
  0.6923799110080979  0.2390726435837691  0.8941351852676872
  0.5078943732345519  0.5602491143784097  0.1106260111444907
  0.5050054873470762  0.4507589054881181  0.3623060670801953
  0.5096218114433513  0.5589840629555518  0.6094169123745983
  0.5058505281456295  0.4531780515695787  0.8604178020672503
  0.2984878121024193  0.7535634380861247  0.1179485238722744
  0.1922330041710556  0.7544959782676930  0.3676071047148453
  0.2996072614324129  0.7538995501620924  0.6148055946960120
  0.1943073820945073  0.7488616487299465  0.8671266487119469
  0.7468077425068954  0.7009305901038633  0.1340270611594771
  0.7502398607500399  0.7992838357566652  0.3872739745016681
  0.7533709949026998  0.7019044132506217  0.6358851158933231
  0.7488104833268381  0.8060389202502041  0.8832893009519716
 -0.0056389419772495  0.0008561906285259 -0.0040078247717088
  0.0112885865608517  0.0122717450254515  0.2462318094545631
  0.0057307514605525  0.0034451412190368  0.4912849693925208
  0.0095218678659164  0.0024989564284141  0.7415890006185577
  0.4863008501628652  0.9875878109742477  0.0036788330832281
  0.5017269541292563  0.0039731416561407  0.2520021455805316
  0.5004846594600084  0.0027777506700220  0.5026669733740101
  0.4972789768831729  0.0026612632015943  0.7543402555082656
  0.2527585548732397  0.2443716954112528 -0.0040376108632069
  0.2577913778231588  0.2637544379104855  0.2466951070626358
  0.2494405574099886  0.2531768446194517  0.5064222244214831
  0.2470003194380957  0.2631562299945004  0.7508527623901481
 -0.0125453367114375  0.4910038721952378  0.0044897186130766
  0.0010091839316415  0.5051361403302910  0.2548403493488796
  0.0007389918963378  0.5036354190488338  0.5048712615469934
 -0.0027850454814376  0.5038860757164485  0.7556380709691272
  0.7327973418485422  0.2432189994058145  0.0067747245169752
  0.7577798139858077  0.2462871234397360  0.2550876430755648
  0.7425327145241510  0.2538793186427734  0.5007090437560349
  0.7564679094058608  0.2426051451143280  0.7547354744608419
  0.4948888974941183  0.5093006506238443  0.0000762130235423
  0.5091675390369629  0.5051046885846787  0.2534491895955021
  0.5068401639564660  0.5130954329363338  0.4971666657547586
  0.5071323809141618  0.4930295156561626  0.7480263842508648
  0.2419716767053728  0.7415760523785937  0.0099052977645438
  0.2486884585347444  0.7452191344023086  0.2595909896767417
  0.2505784579443424  0.7527220209290336  0.5039719241231486
  0.2484416305581436  0.7419527215594532  0.7580118947664822
  0.7535505815171093  0.7494151168575522 -0.0082968726902025
  0.7570148711932215  0.7548266822750351  0.2425952294938564
  0.7502562839290473  0.7602907850436129  0.5010831213952328
  0.7481084431193830  0.7520414652590609  0.7465364304227458
  0.0108492490603313  0.2738665457927399  0.1508480784056383
  0.0236598826229555  0.2690606420579504  0.3913439008966353
  0.0078690439595463  0.2712843186135407  0.6505782078320085
  0.0193918180110560  0.2689133789379606  0.8915515071812110
  0.4742278652702804  0.2167357691783498  0.1119616307518777
  0.4850428924050889  0.2345098751453292  0.3535466774245878
  0.4813768247733345  0.2231142357309142  0.6112657991574725
  0.4840566645932809  0.2389766147536636  0.8505733747010230
  0.2854095026547835  0.5244024062147400  0.1392959113139067
  0.2604986814037580  0.5077321299504558  0.4012449825850903
  0.2842432221352997  0.5212728775933515  0.6345085022164575
  0.2536240292910015  0.5172927856554465  0.8988154636385237
  0.9749622316269656  0.7220275995585439  0.1113397255910088
 -0.0202401522857995  0.7391472687822792  0.3554483147855693
  0.9783558183098147  0.7298198807686197  0.6119680434080202
 -0.0204742136294298  0.7461968559489802  0.8490880820780105
  0.7267683517077372  0.4932330475284353  0.1009873610854404
  0.7317611706910534  0.4722922578570616  0.3625505603450891
  0.7357171169854899  0.4931254871431812  0.6030417611913281
  0.7305791118948147  0.4714956106040257  0.8639025474921245
  0.5082033717911674  0.7686588926058819  0.1496496073708362
  0.5247505854164414  0.7765079438325552  0.3863100566736743
  0.5101497770381849  0.7676771865794515  0.6479241391911577
  0.5230204188379813  0.7722833739432742  0.8855497605029107
  0.2254991151431509 -0.0088338381453636  0.0975966941075456
  0.2355031532890712  0.9770432414968806  0.3593841734105919
  0.2389959889564957  0.9861144992405156  0.5989519544152160
  0.2317386650220581  0.9747730707079401  0.8596970638635701
  0.7787771411121324  0.0234472026729937  0.1403574545920861
  0.7602149176915873  0.0143451681715201  0.4011146942960340
  0.7759645446108242  0.0195989816986736  0.6387588578321119
  0.7562083191584408  0.0197451191738668  0.8999709415342777
 
  0.00000000E+00  0.00000000E+00  0.00000000E+00
  0.00000000E+00  0.00000000E+00  0.00000000E+00
  0.00000000E+00  0.00000000E+00  0.00000000E+00
  0.00000000E+00  0.00000000E+00  0.00000000E+00
  0.00000000E+00  0.00000000E+00  0.00000000E+00
  0.00000000E+00  0.00000000E+00  0.00000000E+00
  0.00000000E+00  0.00000000E+00  0.00000000E+00
  0.00000000E+00  0.00000000E+00  0.00000000E+00
  0.00000000E+00  0.00000000E+00  0.00000000E+00
  0.00000000E+00  0.00000000E+00  0.00000000E+00
  0.00000000E+00  0.00000000E+00  0.00000000E+00
  0.00000000E+00  0.00000000E+00  0.00000000E+00
  0.00000000E+00  0.00000000E+00  0.00000000E+00
  0.00000000E+00  0.00000000E+00  0.00000000E+00
  0.00000000E+00  0.00000000E+00  0.00000000E+00
  0.00000000E+00  0.00000000E+00  0.00000000E+00
  0.00000000E+00  0.00000000E+00  0.00000000E+00
  0.00000000E+00  0.00000000E+00  0.00000000E+00
  0.00000000E+00  0.00000000E+00  0.00000000E+00
  0.00000000E+00  0.00000000E+00  0.00000000E+00
  0.00000000E+00  0.00000000E+00  0.00000000E+00
  0.00000000E+00  0.00000000E+00  0.00000000E+00
  0.00000000E+00  0.00000000E+00  0.00000000E+00
  0.00000000E+00  0.00000000E+00  0.00000000E+00
  0.00000000E+00  0.00000000E+00  0.00000000E+00
  0.00000000E+00  0.00000000E+00  0.00000000E+00
  0.00000000E+00  0.00000000E+00  0.00000000E+00
  0.00000000E+00  0.00000000E+00  0.00000000E+00
  0.00000000E+00  0.00000000E+00  0.00000000E+00
  0.00000000E+00  0.00000000E+00  0.00000000E+00
  0.00000000E+00  0.00000000E+00  0.00000000E+00
  0.00000000E+00  0.00000000E+00  0.00000000E+00
  0.00000000E+00  0.00000000E+00  0.00000000E+00
  0.00000000E+00  0.00000000E+00  0.00000000E+00
  0.00000000E+00  0.00000000E+00  0.00000000E+00
  0.00000000E+00  0.00000000E+00  0.00000000E+00
  0.00000000E+00  0.00000000E+00  0.00000000E+00
  0.00000000E+00  0.00000000E+00  0.00000000E+00
  0.00000000E+00  0.00000000E+00  0.00000000E+00
  0.00000000E+00  0.00000000E+00  0.00000000E+00
  0.00000000E+00  0.00000000E+00  0.00000000E+00
  0.00000000E+00  0.00000000E+00  0.00000000E+00
  0.00000000E+00  0.00000000E+00  0.00000000E+00
  0.00000000E+00  0.00000000E+00  0.00000000E+00
  0.00000000E+00  0.00000000E+00  0.00000000E+00
  0.00000000E+00  0.00000000E+00  0.00000000E+00
  0.00000000E+00  0.00000000E+00  0.00000000E+00
  0.00000000E+00  0.00000000E+00  0.00000000E+00
  0.00000000E+00  0.00000000E+00  0.00000000E+00
  0.00000000E+00  0.00000000E+00  0.00000000E+00
  0.00000000E+00  0.00000000E+00  0.00000000E+00
  0.00000000E+00  0.00000000E+00  0.00000000E+00
  0.00000000E+00  0.00000000E+00  0.00000000E+00
  0.00000000E+00  0.00000000E+00  0.00000000E+00
  0.00000000E+00  0.00000000E+00  0.00000000E+00
  0.00000000E+00  0.00000000E+00  0.00000000E+00
  0.00000000E+00  0.00000000E+00  0.00000000E+00
  0.00000000E+00  0.00000000E+00  0.00000000E+00
  0.00000000E+00  0.00000000E+00  0.00000000E+00
  0.00000000E+00  0.00000000E+00  0.00000000E+00
  0.00000000E+00  0.00000000E+00  0.00000000E+00
  0.00000000E+00  0.00000000E+00  0.00000000E+00
  0.00000000E+00  0.00000000E+00  0.00000000E+00
  0.00000000E+00  0.00000000E+00  0.00000000E+00
  0.00000000E+00  0.00000000E+00  0.00000000E+00
  0.00000000E+00  0.00000000E+00  0.00000000E+00
  0.00000000E+00  0.00000000E+00  0.00000000E+00
  0.00000000E+00  0.00000000E+00  0.00000000E+00
  0.00000000E+00  0.00000000E+00  0.00000000E+00
  0.00000000E+00  0.00000000E+00  0.00000000E+00
  0.00000000E+00  0.00000000E+00  0.00000000E+00
  0.00000000E+00  0.00000000E+00  0.00000000E+00
  0.00000000E+00  0.00000000E+00  0.00000000E+00
  0.00000000E+00  0.00000000E+00  0.00000000E+00
  0.00000000E+00  0.00000000E+00  0.00000000E+00
  0.00000000E+00  0.00000000E+00  0.00000000E+00
  0.00000000E+00  0.00000000E+00  0.00000000E+00
  0.00000000E+00  0.00000000E+00  0.00000000E+00
  0.00000000E+00  0.00000000E+00  0.00000000E+00
  0.00000000E+00  0.00000000E+00  0.00000000E+00
  0.00000000E+00  0.00000000E+00  0.00000000E+00
  0.00000000E+00  0.00000000E+00  0.00000000E+00
  0.00000000E+00  0.00000000E+00  0.00000000E+00
  0.00000000E+00  0.00000000E+00  0.00000000E+00
  0.00000000E+00  0.00000000E+00  0.00000000E+00
  0.00000000E+00  0.00000000E+00  0.00000000E+00
  0.00000000E+00  0.00000000E+00  0.00000000E+00
  0.00000000E+00  0.00000000E+00  0.00000000E+00
  0.00000000E+00  0.00000000E+00  0.00000000E+00
  0.00000000E+00  0.00000000E+00  0.00000000E+00
  0.00000000E+00  0.00000000E+00  0.00000000E+00
  0.00000000E+00  0.00000000E+00  0.00000000E+00
  0.00000000E+00  0.00000000E+00  0.00000000E+00
  0.00000000E+00  0.00000000E+00  0.00000000E+00
  0.00000000E+00  0.00000000E+00  0.00000000E+00
  0.00000000E+00  0.00000000E+00  0.00000000E+00
  0.00000000E+00  0.00000000E+00  0.00000000E+00
  0.00000000E+00  0.00000000E+00  0.00000000E+00
  0.00000000E+00  0.00000000E+00  0.00000000E+00
  0.00000000E+00  0.00000000E+00  0.00000000E+00
  0.00000000E+00  0.00000000E+00  0.00000000E+00
  0.00000000E+00  0.00000000E+00  0.00000000E+00
  0.00000000E+00  0.00000000E+00  0.00000000E+00
  0.00000000E+00  0.00000000E+00  0.00000000E+00
  0.00000000E+00  0.00000000E+00  0.00000000E+00
  0.00000000E+00  0.00000000E+00  0.00000000E+00
  0.00000000E+00  0.00000000E+00  0.00000000E+00
  0.00000000E+00  0.00000000E+00  0.00000000E+00
  0.00000000E+00  0.00000000E+00  0.00000000E+00
  0.00000000E+00  0.00000000E+00  0.00000000E+00
  0.00000000E+00  0.00000000E+00  0.00000000E+00
  0.00000000E+00  0.00000000E+00  0.00000000E+00
  0.00000000E+00  0.00000000E+00  0.00000000E+00
  0.00000000E+00  0.00000000E+00  0.00000000E+00
  0.00000000E+00  0.00000000E+00  0.00000000E+00
  0.00000000E+00  0.00000000E+00  0.00000000E+00
  0.00000000E+00  0.00000000E+00  0.00000000E+00
  0.00000000E+00  0.00000000E+00  0.00000000E+00
  0.00000000E+00  0.00000000E+00  0.00000000E+00
  0.00000000E+00  0.00000000E+00  0.00000000E+00
  0.00000000E+00  0.00000000E+00  0.00000000E+00
  0.00000000E+00  0.00000000E+00  0.00000000E+00
  0.00000000E+00  0.00000000E+00  0.00000000E+00
  0.00000000E+00  0.00000000E+00  0.00000000E+00
  0.00000000E+00  0.00000000E+00  0.00000000E+00
  0.00000000E+00  0.00000000E+00  0.00000000E+00
  0.00000000E+00  0.00000000E+00  0.00000000E+00
  0.00000000E+00  0.00000000E+00  0.00000000E+00
  0.00000000E+00  0.00000000E+00  0.00000000E+00
  0.00000000E+00  0.00000000E+00  0.00000000E+00
  0.00000000E+00  0.00000000E+00  0.00000000E+00
  0.00000000E+00  0.00000000E+00  0.00000000E+00
  0.00000000E+00  0.00000000E+00  0.00000000E+00
  0.00000000E+00  0.00000000E+00  0.00000000E+00
  0.00000000E+00  0.00000000E+00  0.00000000E+00
  0.00000000E+00  0.00000000E+00  0.00000000E+00
  0.00000000E+00  0.00000000E+00  0.00000000E+00
  0.00000000E+00  0.00000000E+00  0.00000000E+00
  0.00000000E+00  0.00000000E+00  0.00000000E+00
  0.00000000E+00  0.00000000E+00  0.00000000E+00
  0.00000000E+00  0.00000000E+00  0.00000000E+00
  0.00000000E+00  0.00000000E+00  0.00000000E+00
  0.00000000E+00  0.00000000E+00  0.00000000E+00
  0.00000000E+00  0.00000000E+00  0.00000000E+00
  0.00000000E+00  0.00000000E+00  0.00000000E+00
  0.00000000E+00  0.00000000E+00  0.00000000E+00
  0.00000000E+00  0.00000000E+00  0.00000000E+00
  0.00000000E+00  0.00000000E+00  0.00000000E+00
  0.00000000E+00  0.00000000E+00  0.00000000E+00
  0.00000000E+00  0.00000000E+00  0.00000000E+00
  0.00000000E+00  0.00000000E+00  0.00000000E+00
  0.00000000E+00  0.00000000E+00  0.00000000E+00
  0.00000000E+00  0.00000000E+00  0.00000000E+00
  0.00000000E+00  0.00000000E+00  0.00000000E+00
  0.00000000E+00  0.00000000E+00  0.00000000E+00
  0.00000000E+00  0.00000000E+00  0.00000000E+00
  0.00000000E+00  0.00000000E+00  0.00000000E+00
  0.00000000E+00  0.00000000E+00  0.00000000E+00
  0.00000000E+00  0.00000000E+00  0.00000000E+00
  0.00000000E+00  0.00000000E+00  0.00000000E+00
