I Sn In                                 
   1.00000000000000     
    12.3844329999999996  -12.3844329999999996    0.0000000000000000
    12.3844329999999996   12.3844329999999996    0.0000000000000000
     0.0000000000000000    0.0000000000000000   24.7688670000000002
   I    In   Sn
    96    32    32
Direct
  0.9947229121869599  0.2899353074894029  0.0062455422403568
  0.0136875733804614  0.2205978512279745  0.2566325441949850
  0.0368443635695344  0.3161518266141992  0.5004687526424865
  0.0398667037637408  0.2456730350507731  0.7516922624344602
  0.4624770718268005  0.2952280114222348  0.0047351952231579
  0.5135220792929518  0.1909919527098488  0.2533272112269543
  0.5191058154591507  0.3091335376738799  0.4999171922619933
  0.5225110708924111  0.2138509540441437  0.7506070232836912
  0.2514044046050269  0.4523053677800884  0.9947771607595578
  0.2337053874880157  0.5379264530866039  0.2482277512962733
  0.2884546933016231  0.4408032816752881  0.4961319170492106
  0.2094748577899967  0.5383704378389618  0.7431116478155785
  0.9777518499930330  0.7701020704714044  0.0071706094392136
  0.0277897149563913  0.7006829890360756  0.2565630274715516
  0.0060207599792953  0.8097487353971795  0.5009397946565484
  0.0346942632852217  0.7499221115880911  0.7549169902245869
  0.7737165746231593  0.4660292579763003  0.9982475967972511
  0.7280099391733115  0.5388893173379014  0.2498274558155110
  0.7523688806129127  0.4827521835151052  0.5005966402675039
  0.7102885442395866  0.5466985704038950  0.7506503742113712
  0.4507104891638303  0.7429067240119455  0.9942577801332216
  0.5401878042251943  0.7389612959654840  0.2443476523317981
  0.4930506742212536  0.8195210406922400  0.4990751294792357
  0.5499191912050965  0.7616861627935710  0.7484977472384967
  0.2726289494495814  0.9708593988479026  0.0062010826737653
  0.2138832047041025  0.0497991175033301  0.2543372836977784
  0.2705266834254305  0.9889114491846041  0.5044179785164928
  0.1996464777063841  0.0277682846235210  0.7560999042840345
  0.7806902430519820  0.9670920022131837  0.0016604302513570
  0.7434599999458689  0.0524439185244902  0.2517814726393058
  0.7843218485368901  0.9547043888830886  0.4985635491753191
  0.7035363930396440  0.0194334299261717  0.7524421142070764
  0.1085045031124942  0.1066568537364398  0.0952632231599738
  0.1033034914829491  0.1076001661887361  0.4128475907208787
  0.1140440686702730  0.1142139383088481  0.6044878426201032
  0.1539331190581352  0.1600356654520929  0.9019198110261109
  0.6436687344355940  0.1520257731651701  0.0931009211799481
  0.6008747843364411  0.1086279372452513  0.4157608090725304
  0.6176440217874665  0.0994762131124190  0.5934981274767405
  0.6583203916541074  0.1555587228986979  0.8948411151315652
  0.3780189259344683  0.3737096355040167  0.1760450316331741
  0.4218028248671059  0.4254309681563965  0.3511843543981937
  0.4223950052657913  0.4155268710675360  0.6488405396324315
  0.3252005123581216  0.3276209892691107  0.8257057119914990
  0.1482577201025534  0.6354452132631746  0.0942732909144818
  0.1154831465269690  0.6277237644018685  0.4000461717920897
  0.1163159734264772  0.6055015891228518  0.5819531250778662
  0.1666344783417459  0.6530441524623732  0.8951143793151278
  0.8626846313987110  0.3591521459217977  0.1670673635204392
  0.9160095750881523  0.4166661548623837  0.3635746730647177
  0.9060435420855519  0.4121441348545272  0.6326302480077207
  0.8506706075589662  0.3509404289787861  0.8313336041810803
  0.6567816653134902  0.6427173572124459  0.0922156178818858
  0.6119184603656361  0.6288893929039435  0.3953663062443749
  0.5969313962456592  0.6053926630520330  0.5990757462375980
  0.6507539182605441  0.6420069681195900  0.9059224223631651
  0.3630630901000714  0.8540595774796031  0.1636126420600855
  0.3876926693735401  0.9026429057001034  0.3439564255879093
  0.4234225515622413  0.9269539646373761  0.6461889915408113
  0.3688042271677002  0.8613378079668320  0.8548885501000724
  0.8774583071655476  0.8721282766921168  0.1530023045548500
  0.8885543191799872  0.9028904320262751  0.3433132307893267
  0.9347026073441250  0.9259899579049425  0.6424439108198393
  0.8614754323472060  0.8515343863052549  0.8474506323116004
  0.8768104697829920  0.1150945900126922  0.1171825880412480
  0.8657321377004735  0.1528244523609676  0.4099426539712462
  0.8637779803189070  0.1608704018430743  0.5893679904071898
  0.8988793412777283  0.1028745981572081  0.8452120119234648
  0.3306760992057539  0.1610603338930340  0.1194965378386941
  0.3587420713312650  0.1623552348596664  0.3913198990133989
  0.3555971810132741  0.1528686708453617  0.6143503542434862
  0.4063204024680577  0.0908206484220326  0.8747494569874416
  0.1261776078896562  0.3777611431177925  0.1313219363562458
  0.1777144547082361  0.3404093850858256  0.3458161721222013
  0.1618264188984997  0.3646061116749105  0.6402074638665698
  0.0816820682416521  0.4214058411110636  0.8749696769846561
  0.9068484712689630  0.5883263264360206  0.1089110186765074
  0.8549174506352366  0.6518490835846774  0.3991132556898376
  0.8583123126109531  0.6431506236769682  0.6082149420606032
  0.8963743255835004  0.6082773959992940  0.8652777032684302
  0.6093480412261162  0.3868749652143525  0.1319508376170784
  0.6837497604940356  0.3262195175479479  0.3496446382862454
  0.6709231830598388  0.3346121811968656  0.6375802062680974
  0.5945454617831990  0.4003739877054668  0.8784373769088822
  0.4157576473122109  0.5949058701339457  0.1224112577899280
  0.3536788947359581  0.6548327459418379  0.4079908439409227
  0.3685913175795510  0.6660155190766474  0.6492956069910624
  0.3976308614739070  0.6044301121415246  0.8424651275537054
  0.1182765026563497  0.8736885283382563  0.1276555474478156
  0.1470574946413515  0.8660997805555509  0.3747980317199213
  0.1742260819016033  0.8372279035707019  0.6279144232785479
  0.0898114873950703  0.9129514134211070  0.8993167043001611
  0.5708775312040837  0.9226266776507096  0.1011939685256114
  0.6359492423407742  0.8793437843192788  0.3597712241936125
  0.6824645044526856  0.8386351854853582  0.6238298548337122
  0.6067866546477575  0.8959594318634970  0.8881802791403707
  0.9675716700425466  0.9629697076056295  0.0495570496166706
  0.9307291569935607  0.0211653720130760  0.2357990652151508
  0.9591137632991497  0.0328233068295825  0.5110414822546756
  0.0024714519456086  0.9532848534875057  0.7790682586342790
  0.4595477606562277  0.9392825232320704  0.9715429536203485
  0.5111758905566672  0.9290124157359526  0.2437072903496374
  0.4638933999661741  0.0197545400948121  0.5267265580874532
  0.5103378840299647  0.9626241648218554  0.7808035648642265
  0.1890125326566395  0.2487241448203429  0.0227973955594469
  0.3124074089365440  0.2195204413302443  0.2603945052255907
  0.2256384498787538  0.1889140521727860  0.5044368235615155
  0.2324620380799176  0.2183811794610549  0.7232109230903151
  0.0627672285593285  0.4782222109773717  0.0192882594842449
  0.0463134250919114  0.4127793665330336  0.2579886430858765
  0.9453235863971163  0.5186060847915716  0.5204835642646298
  0.0373873074660630  0.4384148261734215  0.7397724260553457
  0.6518969951265966  0.3017392822838688  0.9917913063026145
  0.7015427629625943  0.2417218176751144  0.2143480478490421
  0.6997783950239314  0.2273404254004376  0.5071827854993464
  0.7174715465281899  0.2114776181057589  0.7724902216931249
  0.5369187565575172  0.5670834273021557  0.0048872151245633
  0.5100377195535335  0.5007004462488714  0.2199794011187569
  0.4663817660412699  0.4999761797024723  0.4728473414062410
  0.5028911652728825  0.5678590259357842  0.7204536774695260
  0.1724849129256831  0.7912647425856628  0.0063296411917556
  0.2183398394537514  0.7183505963513671  0.3032889161523730
  0.1896610416205735  0.7526176580714031  0.4927032861058658
  0.2641340359729957  0.7132208116568866  0.7783244021856534
  0.8023181460701972  0.6564349802974976 -0.0016577821549309
  0.7228497199859628  0.7243377015178165  0.3051466698052120
  0.7246143684734371  0.6834628426189953  0.5079553763036317
  0.8364099100469263  0.7054719804811650  0.7562038372893730
  0.9883787649398905  0.2498292940884942  0.1283344334510185
  0.0052504264341382  0.2455890567030088  0.3829295699922456
  0.0002024909533025  0.2624859706558567  0.6123287203333480
  0.9845409327128912  0.2532673375263451  0.8673864415212658
  0.4820665687033346  0.2542025686999497  0.1221896284361834
  0.5147499496165308  0.2443032714117072  0.3740954293925577
  0.5088401797304702  0.2737298987029538  0.6249645587047739
  0.4683033235914715  0.2522437606252750  0.8628752352084005
  0.2582341402976849  0.5065782446720541  0.1295568507691339
  0.2643253436757452  0.4854278655344134  0.3773343284420929
  0.2506260320972993  0.5118178861301409  0.6216759686068577
  0.2381875201939455  0.4938180235108354  0.8747033555842422
  0.9991254328969261  0.7420018682941272  0.1354572567397324
  0.9940058722489385  0.7527897684190253  0.3745040805863517
  0.0144183023440449  0.7756035969315341  0.6212063328565094
  0.0003766012784474  0.7504428138131988  0.8766900985373675
  0.7592723516232321  0.4978909650362716  0.1256936268123929
  0.7584586551703368  0.4807125669734849  0.3665860129101637
  0.7421473529400876  0.5028047802876644  0.6258729886242171
  0.7380798862546999  0.4949275506356985  0.8695966213488650
  0.4960921199478577  0.7611802667466039  0.1244570085899770
  0.4910334492626258  0.7606155877651731  0.3853518975187996
  0.5081221894348271  0.7724385963153603  0.6260325596648600
  0.4978471972720866  0.7434033078795804  0.8708506877874892
  0.2442698115711326  0.0051888941699871  0.1262752267755784
  0.2513179208621966  0.0073809505331963  0.3691360797908477
  0.2538295289970294  0.0043227141669631  0.6261291367310825
  0.2349201950458415  0.0149990294282501  0.8777603064199996
  0.7287973769491024  0.0042158382006322  0.1133622555406138
  0.7543803798839483  0.0068721192244029  0.3736512615541279
  0.7542132826766488  0.9919078782361821  0.6164186414504286
  0.7469728033687952  0.0093300836405461  0.8732861744117558
 
  0.00000000E+00  0.00000000E+00  0.00000000E+00
  0.00000000E+00  0.00000000E+00  0.00000000E+00
  0.00000000E+00  0.00000000E+00  0.00000000E+00
  0.00000000E+00  0.00000000E+00  0.00000000E+00
  0.00000000E+00  0.00000000E+00  0.00000000E+00
  0.00000000E+00  0.00000000E+00  0.00000000E+00
  0.00000000E+00  0.00000000E+00  0.00000000E+00
  0.00000000E+00  0.00000000E+00  0.00000000E+00
  0.00000000E+00  0.00000000E+00  0.00000000E+00
  0.00000000E+00  0.00000000E+00  0.00000000E+00
  0.00000000E+00  0.00000000E+00  0.00000000E+00
  0.00000000E+00  0.00000000E+00  0.00000000E+00
  0.00000000E+00  0.00000000E+00  0.00000000E+00
  0.00000000E+00  0.00000000E+00  0.00000000E+00
  0.00000000E+00  0.00000000E+00  0.00000000E+00
  0.00000000E+00  0.00000000E+00  0.00000000E+00
  0.00000000E+00  0.00000000E+00  0.00000000E+00
  0.00000000E+00  0.00000000E+00  0.00000000E+00
  0.00000000E+00  0.00000000E+00  0.00000000E+00
  0.00000000E+00  0.00000000E+00  0.00000000E+00
  0.00000000E+00  0.00000000E+00  0.00000000E+00
  0.00000000E+00  0.00000000E+00  0.00000000E+00
  0.00000000E+00  0.00000000E+00  0.00000000E+00
  0.00000000E+00  0.00000000E+00  0.00000000E+00
  0.00000000E+00  0.00000000E+00  0.00000000E+00
  0.00000000E+00  0.00000000E+00  0.00000000E+00
  0.00000000E+00  0.00000000E+00  0.00000000E+00
  0.00000000E+00  0.00000000E+00  0.00000000E+00
  0.00000000E+00  0.00000000E+00  0.00000000E+00
  0.00000000E+00  0.00000000E+00  0.00000000E+00
  0.00000000E+00  0.00000000E+00  0.00000000E+00
  0.00000000E+00  0.00000000E+00  0.00000000E+00
  0.00000000E+00  0.00000000E+00  0.00000000E+00
  0.00000000E+00  0.00000000E+00  0.00000000E+00
  0.00000000E+00  0.00000000E+00  0.00000000E+00
  0.00000000E+00  0.00000000E+00  0.00000000E+00
  0.00000000E+00  0.00000000E+00  0.00000000E+00
  0.00000000E+00  0.00000000E+00  0.00000000E+00
  0.00000000E+00  0.00000000E+00  0.00000000E+00
  0.00000000E+00  0.00000000E+00  0.00000000E+00
  0.00000000E+00  0.00000000E+00  0.00000000E+00
  0.00000000E+00  0.00000000E+00  0.00000000E+00
  0.00000000E+00  0.00000000E+00  0.00000000E+00
  0.00000000E+00  0.00000000E+00  0.00000000E+00
  0.00000000E+00  0.00000000E+00  0.00000000E+00
  0.00000000E+00  0.00000000E+00  0.00000000E+00
  0.00000000E+00  0.00000000E+00  0.00000000E+00
  0.00000000E+00  0.00000000E+00  0.00000000E+00
  0.00000000E+00  0.00000000E+00  0.00000000E+00
  0.00000000E+00  0.00000000E+00  0.00000000E+00
  0.00000000E+00  0.00000000E+00  0.00000000E+00
  0.00000000E+00  0.00000000E+00  0.00000000E+00
  0.00000000E+00  0.00000000E+00  0.00000000E+00
  0.00000000E+00  0.00000000E+00  0.00000000E+00
  0.00000000E+00  0.00000000E+00  0.00000000E+00
  0.00000000E+00  0.00000000E+00  0.00000000E+00
  0.00000000E+00  0.00000000E+00  0.00000000E+00
  0.00000000E+00  0.00000000E+00  0.00000000E+00
  0.00000000E+00  0.00000000E+00  0.00000000E+00
  0.00000000E+00  0.00000000E+00  0.00000000E+00
  0.00000000E+00  0.00000000E+00  0.00000000E+00
  0.00000000E+00  0.00000000E+00  0.00000000E+00
  0.00000000E+00  0.00000000E+00  0.00000000E+00
  0.00000000E+00  0.00000000E+00  0.00000000E+00
  0.00000000E+00  0.00000000E+00  0.00000000E+00
  0.00000000E+00  0.00000000E+00  0.00000000E+00
  0.00000000E+00  0.00000000E+00  0.00000000E+00
  0.00000000E+00  0.00000000E+00  0.00000000E+00
  0.00000000E+00  0.00000000E+00  0.00000000E+00
  0.00000000E+00  0.00000000E+00  0.00000000E+00
  0.00000000E+00  0.00000000E+00  0.00000000E+00
  0.00000000E+00  0.00000000E+00  0.00000000E+00
  0.00000000E+00  0.00000000E+00  0.00000000E+00
  0.00000000E+00  0.00000000E+00  0.00000000E+00
  0.00000000E+00  0.00000000E+00  0.00000000E+00
  0.00000000E+00  0.00000000E+00  0.00000000E+00
  0.00000000E+00  0.00000000E+00  0.00000000E+00
  0.00000000E+00  0.00000000E+00  0.00000000E+00
  0.00000000E+00  0.00000000E+00  0.00000000E+00
  0.00000000E+00  0.00000000E+00  0.00000000E+00
  0.00000000E+00  0.00000000E+00  0.00000000E+00
  0.00000000E+00  0.00000000E+00  0.00000000E+00
  0.00000000E+00  0.00000000E+00  0.00000000E+00
  0.00000000E+00  0.00000000E+00  0.00000000E+00
  0.00000000E+00  0.00000000E+00  0.00000000E+00
  0.00000000E+00  0.00000000E+00  0.00000000E+00
  0.00000000E+00  0.00000000E+00  0.00000000E+00
  0.00000000E+00  0.00000000E+00  0.00000000E+00
  0.00000000E+00  0.00000000E+00  0.00000000E+00
  0.00000000E+00  0.00000000E+00  0.00000000E+00
  0.00000000E+00  0.00000000E+00  0.00000000E+00
  0.00000000E+00  0.00000000E+00  0.00000000E+00
  0.00000000E+00  0.00000000E+00  0.00000000E+00
  0.00000000E+00  0.00000000E+00  0.00000000E+00
  0.00000000E+00  0.00000000E+00  0.00000000E+00
  0.00000000E+00  0.00000000E+00  0.00000000E+00
  0.00000000E+00  0.00000000E+00  0.00000000E+00
  0.00000000E+00  0.00000000E+00  0.00000000E+00
  0.00000000E+00  0.00000000E+00  0.00000000E+00
  0.00000000E+00  0.00000000E+00  0.00000000E+00
  0.00000000E+00  0.00000000E+00  0.00000000E+00
  0.00000000E+00  0.00000000E+00  0.00000000E+00
  0.00000000E+00  0.00000000E+00  0.00000000E+00
  0.00000000E+00  0.00000000E+00  0.00000000E+00
  0.00000000E+00  0.00000000E+00  0.00000000E+00
  0.00000000E+00  0.00000000E+00  0.00000000E+00
  0.00000000E+00  0.00000000E+00  0.00000000E+00
  0.00000000E+00  0.00000000E+00  0.00000000E+00
  0.00000000E+00  0.00000000E+00  0.00000000E+00
  0.00000000E+00  0.00000000E+00  0.00000000E+00
  0.00000000E+00  0.00000000E+00  0.00000000E+00
  0.00000000E+00  0.00000000E+00  0.00000000E+00
  0.00000000E+00  0.00000000E+00  0.00000000E+00
  0.00000000E+00  0.00000000E+00  0.00000000E+00
  0.00000000E+00  0.00000000E+00  0.00000000E+00
  0.00000000E+00  0.00000000E+00  0.00000000E+00
  0.00000000E+00  0.00000000E+00  0.00000000E+00
  0.00000000E+00  0.00000000E+00  0.00000000E+00
  0.00000000E+00  0.00000000E+00  0.00000000E+00
  0.00000000E+00  0.00000000E+00  0.00000000E+00
  0.00000000E+00  0.00000000E+00  0.00000000E+00
  0.00000000E+00  0.00000000E+00  0.00000000E+00
  0.00000000E+00  0.00000000E+00  0.00000000E+00
  0.00000000E+00  0.00000000E+00  0.00000000E+00
  0.00000000E+00  0.00000000E+00  0.00000000E+00
  0.00000000E+00  0.00000000E+00  0.00000000E+00
  0.00000000E+00  0.00000000E+00  0.00000000E+00
  0.00000000E+00  0.00000000E+00  0.00000000E+00
  0.00000000E+00  0.00000000E+00  0.00000000E+00
  0.00000000E+00  0.00000000E+00  0.00000000E+00
  0.00000000E+00  0.00000000E+00  0.00000000E+00
  0.00000000E+00  0.00000000E+00  0.00000000E+00
  0.00000000E+00  0.00000000E+00  0.00000000E+00
  0.00000000E+00  0.00000000E+00  0.00000000E+00
  0.00000000E+00  0.00000000E+00  0.00000000E+00
  0.00000000E+00  0.00000000E+00  0.00000000E+00
  0.00000000E+00  0.00000000E+00  0.00000000E+00
  0.00000000E+00  0.00000000E+00  0.00000000E+00
  0.00000000E+00  0.00000000E+00  0.00000000E+00
  0.00000000E+00  0.00000000E+00  0.00000000E+00
  0.00000000E+00  0.00000000E+00  0.00000000E+00
  0.00000000E+00  0.00000000E+00  0.00000000E+00
  0.00000000E+00  0.00000000E+00  0.00000000E+00
  0.00000000E+00  0.00000000E+00  0.00000000E+00
  0.00000000E+00  0.00000000E+00  0.00000000E+00
  0.00000000E+00  0.00000000E+00  0.00000000E+00
  0.00000000E+00  0.00000000E+00  0.00000000E+00
  0.00000000E+00  0.00000000E+00  0.00000000E+00
  0.00000000E+00  0.00000000E+00  0.00000000E+00
  0.00000000E+00  0.00000000E+00  0.00000000E+00
  0.00000000E+00  0.00000000E+00  0.00000000E+00
  0.00000000E+00  0.00000000E+00  0.00000000E+00
  0.00000000E+00  0.00000000E+00  0.00000000E+00
  0.00000000E+00  0.00000000E+00  0.00000000E+00
  0.00000000E+00  0.00000000E+00  0.00000000E+00
  0.00000000E+00  0.00000000E+00  0.00000000E+00
  0.00000000E+00  0.00000000E+00  0.00000000E+00
  0.00000000E+00  0.00000000E+00  0.00000000E+00
  0.00000000E+00  0.00000000E+00  0.00000000E+00
  0.00000000E+00  0.00000000E+00  0.00000000E+00
