F Rb Cd                                 
   1.00000000000000     
     9.0046940000000006   -9.0046940000000006    0.0000000000000000
     9.0046940000000006    9.0046940000000006    0.0000000000000000
     0.0000000000000000    0.0000000000000000   18.0093870000000003
   Cd   F    Rb
    32    96    32
Direct
 -0.0006044984236703  0.2503728528718925  0.1247220839458127
 -0.0003944841955409  0.2499764874883024  0.3744585575280273
 -0.0000334791773971  0.2497018858125079  0.6246506340597697
 -0.0002495224391831  0.2501205268727505  0.8744200031190067
  0.4993471440201890  0.2502807902242013  0.1247884603784619
  0.4994565458082423  0.2501279442784866  0.3745954707681756
  0.4998616835415632  0.2498496785830863  0.6247309544676192
  0.4996995780661169  0.2501699617172218  0.8745108479071383
  0.2492543447405565  0.5004511593546539  0.1246785406172383
  0.2496119276543272  0.4999777580698964  0.3744133584516277
  0.2499310729691331  0.4997091971061451  0.6245758730111721
  0.2495617568460561  0.5002681421199756  0.8745368566671039
 -0.0006535181729993  0.7504646669254299  0.1247207340699715
 -0.0003833479292243  0.7498194222316457  0.3745499341594972
 -0.0000454162185093  0.7496925237087818  0.6247643794342523
 -0.0004965094685679  0.7502203815174299  0.8746087584054730
  0.7493701526829194  0.5003600551934702  0.1248321470024329
  0.7495573346879324  0.4999349062754616  0.3745354174576520
  0.7498685169579365  0.4996833657223269  0.6247911849750942
  0.7495955467064729  0.5000966207151889  0.8746677224791559
  0.4994332231336767  0.7505288167683900  0.1247173934849305
  0.4996539195187267  0.7499231683360247  0.3745099065621011
  0.4998825896463897  0.7496711486267953  0.6246289406985216
  0.4997105866100712  0.7501419135649806  0.8744149840666008
  0.2492866084685768  0.0002552688222158  0.1247861195226904
  0.2494201686131225 -0.0000290500700652  0.3746226858481823
  0.2499004943044983 -0.0001816903954523  0.6247644931767526
  0.2497222597565223  0.0001254312805138  0.8745300231804809
  0.7494959644961496  0.0003417829770146  0.1247033056221804
  0.7495090269462384  0.0000278246069507  0.3745765321356420
  0.7497938687984526 -0.0001938911047942  0.6246322869194431
  0.7497215733730676  0.0001348350567201  0.8743974689000094
  0.0068589308665582  0.2305754038443837 -0.0004336509485340
  0.9929303136265442  0.2707529411290058  0.2496275390320133
  0.0066603483493719  0.2291425685392453  0.4994965476276247
  0.9929470084087190  0.2699325773352273  0.7495953784162108
  0.4792876762412851  0.2580424888079492 -0.0003489277740489
  0.5201688936562454  0.2419597817743523  0.2496978604452275
  0.4789973283472850  0.2580506113766473  0.4996857954222527
  0.5204966506392911  0.2420299241919248  0.7496253514707301
  0.2702412367525462  0.4926724026892308 -0.0003942965620045
  0.2283227672487039  0.5077364878933459  0.2495884808287803
  0.2713523478394136  0.4922443667289966  0.4994382337065182
  0.2291534055677831  0.5076545580975095  0.7495505556806872
  0.9786991319608044  0.7583930439087141 -0.0003605932526916
  0.0204058922962325  0.7423390136743221  0.2496558479385076
 -0.0206336348981896  0.7576811989023519  0.4997047488771097
  0.0201935523900673  0.7416878060406824  0.7496945321074500
  0.7423331465981269  0.5197682775212100 -0.0002559170047720
  0.7568443591378206  0.4799321246674271  0.2496718909171524
  0.7426666924218674  0.5197598838317952  0.4996529026742690
  0.7571102425870283  0.4802864503955102  0.7497568262970127
  0.5065267455438748  0.7304653755490107 -0.0004210670290124
  0.4930534923574110  0.7707946115560848  0.2496305265705735
  0.5068454787148843  0.7290155500454448  0.4995270177500207
  0.4928422492277618  0.7700069348598654  0.7495118751882069
  0.2425344835453682  0.0198857433904886 -0.0003610502845674
  0.2565607884445159 -0.0200715046012577  0.2497031859520925
  0.2422900398375169  0.0199284785570800  0.4997404855451986
  0.2573343292868152 -0.0198361266937985  0.7496767180749652
  0.7702831396459275  0.9922039826545043  0.9995394917149750
  0.7283399849800861  0.0074687981884264  0.2496627977811026
  0.7708998313195703 -0.0074637542363258  0.4996181777415454
  0.7292146978910229  0.0079641729182789  0.7494931218362884
  0.1139945509643404  0.1149195416827759  0.1379135279231546
  0.1350069352361618  0.1354089759314014  0.3610707093321384
  0.1145729256177250  0.1144290875665067  0.6382287021641782
  0.1354466507110587  0.1357485626535353  0.8616113776023796
  0.6144650665786828  0.1152488364199666  0.1107069339072379
  0.6347915639708913  0.1353437304188707  0.3886046537374204
  0.6147488365502024  0.1147819276081532  0.6107646255227012
  0.6352012018817450  0.1355983884049915  0.8883304699635362
  0.3844652437045051  0.3854571469754194  0.1384098357820118
  0.3641207735741103  0.3645820573732347  0.3602567987704382
  0.3852336709986764  0.3852122180285006  0.6390462297325050
  0.3642245846478692  0.3647060001751745  0.8610479564923115
  0.1142315634568302  0.6152677979657217  0.1105484942550767
  0.1350642073675916  0.6353073595104586  0.3886468962807153
  0.1150060648365920  0.6146468390706585  0.6107446201090712
  0.1349292273899236  0.6355709466259105  0.8884564395846712
  0.8846774738081250  0.3855008684824469  0.1114597085523079
  0.8641295220582402  0.3644302262727580  0.3877926371358486
  0.8851971375217288  0.3849113173659699  0.6116720297654045
  0.8640468601729754  0.3645002377347085  0.8873760416725808
  0.6141866307169921  0.6151774627836508  0.1378180988039949
  0.6352704900225790  0.6356032981759063  0.3610174535026267
  0.6146046992528887  0.6144664509071965  0.6382374357894539
  0.6353518232448205  0.6357856030485165  0.8616629161957021
  0.3847070563753031  0.8856263225411348  0.1116283832779465
  0.3642973745079705  0.8646690521176535  0.3879238342592082
  0.3852415343341309  0.8850984187560199  0.6114017117830512
  0.3641641549644527  0.8645763954949145  0.8874246321379338
  0.8846134598060541  0.8855785807718161  0.1388587378108263
  0.8642494541329363  0.8645464729901110  0.3607925517870568
  0.8851830504385144  0.8850612039484514  0.6385209830682583
  0.8642211006697323  0.8646664240993059  0.8604110490458576
  0.8632910158133226  0.1364756205719672  0.1294506700165473
  0.8842509974820691  0.1152293418937352  0.3662718954715458
  0.8637106650234957  0.1359959161523429  0.6295270941116287
  0.8849625698105945  0.1149009499355957  0.8671773866743439
  0.3646614665675533  0.1349388964476112  0.1323109008472864
  0.3858548327610534  0.1137145199838900  0.3701671996459079
  0.3651674215244660  0.1345709094599425  0.6321337067514208
  0.3862989114926292  0.1136231519151870  0.8699750255329768
  0.1356128118795890  0.3641258366825204  0.1195255035021157
  0.1148915867112826  0.3847391898251846  0.3826362919622314
  0.1361708194349321  0.3634836279525185  0.6192793180819490
  0.1145534190544159  0.3852936889573284  0.8817711966710586
  0.8648466415566998  0.6350039285939251  0.1325294904145086
  0.8860424361522227  0.6135005643026261  0.3699488102059982
  0.8652444116351816  0.6343191599718567  0.6320746197783061
  0.8861179075648629  0.6136177529335629  0.8701561731785182
  0.6339008421531711  0.3657566687633105  0.1176068519169136
  0.6131729632531554  0.3864254905341478  0.3795822209337421
  0.6347041742733543  0.3650071063622436  0.6171778472625112
  0.6131056021807355  0.3866203858132023  0.8796517903736610
  0.3633835153824155  0.6364627685853849  0.1295402221288185
  0.3842806819053938  0.6153701685410338  0.3663190530579806
  0.3636478983657916  0.6360260241973370  0.6295562587293837
  0.3845725513627002  0.6152245833088555  0.8670195599207988
  0.1342701252408067  0.8653895879067143  0.1172139236112904
  0.1132418433243532  0.8861727271597295  0.3797589072455195
  0.1347657047187618  0.8648831224456028  0.6175347868749077
  0.1132599053665831  0.8865504954515071  0.8794821054092361
  0.6357196813943413  0.8642390019007179  0.1194059410268134
  0.6148295664589588  0.8848399421282289  0.3826334434612078
  0.6362275573698295  0.8634496527423144  0.6194003499944607
  0.6146653811557379  0.8852662410464992  0.8817778532963093
  0.0017504664032652 -0.0016069996586023  0.0027083198768887
  0.0025755225373301 -0.0028205568057797  0.2530812851267213
  0.0020066364743297 -0.0025356219512081  0.5030718197397731
  0.0023425108257818 -0.0025676624449775  0.7528679909701712
  0.4971988989969441  0.0025661994326402  0.9964528723623490
  0.4969810798943992  0.0024494347048467  0.2465583996855341
  0.4968482750943065  0.0028479567628326  0.4964793697252978
  0.4977008138055516  0.0020659895634641  0.7466893468233434
  0.2475693317900755  0.2522805452590391 -0.0036802157897041
  0.2464565281651033  0.2529010036401391  0.2461276257784328
  0.2474190251611251  0.2520927842377302  0.4960411993312252
  0.2472672208043910  0.2525395457116070  0.7462715504267403
 -0.0029726812074482  0.5023548192213345 -0.0035276603364653
 -0.0028707413045255  0.5024543395701226  0.2463536689312798
 -0.0031848131081479  0.5026951303110976  0.4964896188036922
 -0.0024274009934790  0.5020047011773278  0.7467100869305425
  0.7517600765952959  0.2479769109294010  0.0030511525468226
  0.7517893878072294  0.2478725738849442  0.2529877621860054
  0.7526742055153486  0.2470764365673863  0.5030158635676885
  0.7521425671480305  0.2479745374361300  0.7527524864345247
  0.5016486595406499  0.4981302306982412  0.0029213827488484
  0.5023447257338517  0.4973788404252868  0.2528113565401790
  0.5022179590150825  0.4976602682803600  0.5030426031767997
  0.5022626477617016  0.4976178341611884  0.7529626138042824
  0.2522724748572419  0.7477616629644490  0.0029190815515503
  0.2519921728830495  0.7478532262136649  0.2530790576628621
  0.2525436200680284  0.7471692129683504  0.5030978930986675
  0.2519434134218274  0.7479715559580771  0.7528738536212066
  0.7472285926251799  0.7522445786259272 -0.0035979009690092
  0.7465956909169339  0.7531737738064502  0.2462338903752725
  0.7476053631384180  0.7521494326992043  0.4961668753576359
  0.7472803085942259  0.7521914824850788  0.7461404303102197
 
  0.00000000E+00  0.00000000E+00  0.00000000E+00
  0.00000000E+00  0.00000000E+00  0.00000000E+00
  0.00000000E+00  0.00000000E+00  0.00000000E+00
  0.00000000E+00  0.00000000E+00  0.00000000E+00
  0.00000000E+00  0.00000000E+00  0.00000000E+00
  0.00000000E+00  0.00000000E+00  0.00000000E+00
  0.00000000E+00  0.00000000E+00  0.00000000E+00
  0.00000000E+00  0.00000000E+00  0.00000000E+00
  0.00000000E+00  0.00000000E+00  0.00000000E+00
  0.00000000E+00  0.00000000E+00  0.00000000E+00
  0.00000000E+00  0.00000000E+00  0.00000000E+00
  0.00000000E+00  0.00000000E+00  0.00000000E+00
  0.00000000E+00  0.00000000E+00  0.00000000E+00
  0.00000000E+00  0.00000000E+00  0.00000000E+00
  0.00000000E+00  0.00000000E+00  0.00000000E+00
  0.00000000E+00  0.00000000E+00  0.00000000E+00
  0.00000000E+00  0.00000000E+00  0.00000000E+00
  0.00000000E+00  0.00000000E+00  0.00000000E+00
  0.00000000E+00  0.00000000E+00  0.00000000E+00
  0.00000000E+00  0.00000000E+00  0.00000000E+00
  0.00000000E+00  0.00000000E+00  0.00000000E+00
  0.00000000E+00  0.00000000E+00  0.00000000E+00
  0.00000000E+00  0.00000000E+00  0.00000000E+00
  0.00000000E+00  0.00000000E+00  0.00000000E+00
  0.00000000E+00  0.00000000E+00  0.00000000E+00
  0.00000000E+00  0.00000000E+00  0.00000000E+00
  0.00000000E+00  0.00000000E+00  0.00000000E+00
  0.00000000E+00  0.00000000E+00  0.00000000E+00
  0.00000000E+00  0.00000000E+00  0.00000000E+00
  0.00000000E+00  0.00000000E+00  0.00000000E+00
  0.00000000E+00  0.00000000E+00  0.00000000E+00
  0.00000000E+00  0.00000000E+00  0.00000000E+00
  0.00000000E+00  0.00000000E+00  0.00000000E+00
  0.00000000E+00  0.00000000E+00  0.00000000E+00
  0.00000000E+00  0.00000000E+00  0.00000000E+00
  0.00000000E+00  0.00000000E+00  0.00000000E+00
  0.00000000E+00  0.00000000E+00  0.00000000E+00
  0.00000000E+00  0.00000000E+00  0.00000000E+00
  0.00000000E+00  0.00000000E+00  0.00000000E+00
  0.00000000E+00  0.00000000E+00  0.00000000E+00
  0.00000000E+00  0.00000000E+00  0.00000000E+00
  0.00000000E+00  0.00000000E+00  0.00000000E+00
  0.00000000E+00  0.00000000E+00  0.00000000E+00
  0.00000000E+00  0.00000000E+00  0.00000000E+00
  0.00000000E+00  0.00000000E+00  0.00000000E+00
  0.00000000E+00  0.00000000E+00  0.00000000E+00
  0.00000000E+00  0.00000000E+00  0.00000000E+00
  0.00000000E+00  0.00000000E+00  0.00000000E+00
  0.00000000E+00  0.00000000E+00  0.00000000E+00
  0.00000000E+00  0.00000000E+00  0.00000000E+00
  0.00000000E+00  0.00000000E+00  0.00000000E+00
  0.00000000E+00  0.00000000E+00  0.00000000E+00
  0.00000000E+00  0.00000000E+00  0.00000000E+00
  0.00000000E+00  0.00000000E+00  0.00000000E+00
  0.00000000E+00  0.00000000E+00  0.00000000E+00
  0.00000000E+00  0.00000000E+00  0.00000000E+00
  0.00000000E+00  0.00000000E+00  0.00000000E+00
  0.00000000E+00  0.00000000E+00  0.00000000E+00
  0.00000000E+00  0.00000000E+00  0.00000000E+00
  0.00000000E+00  0.00000000E+00  0.00000000E+00
  0.00000000E+00  0.00000000E+00  0.00000000E+00
  0.00000000E+00  0.00000000E+00  0.00000000E+00
  0.00000000E+00  0.00000000E+00  0.00000000E+00
  0.00000000E+00  0.00000000E+00  0.00000000E+00
  0.00000000E+00  0.00000000E+00  0.00000000E+00
  0.00000000E+00  0.00000000E+00  0.00000000E+00
  0.00000000E+00  0.00000000E+00  0.00000000E+00
  0.00000000E+00  0.00000000E+00  0.00000000E+00
  0.00000000E+00  0.00000000E+00  0.00000000E+00
  0.00000000E+00  0.00000000E+00  0.00000000E+00
  0.00000000E+00  0.00000000E+00  0.00000000E+00
  0.00000000E+00  0.00000000E+00  0.00000000E+00
  0.00000000E+00  0.00000000E+00  0.00000000E+00
  0.00000000E+00  0.00000000E+00  0.00000000E+00
  0.00000000E+00  0.00000000E+00  0.00000000E+00
  0.00000000E+00  0.00000000E+00  0.00000000E+00
  0.00000000E+00  0.00000000E+00  0.00000000E+00
  0.00000000E+00  0.00000000E+00  0.00000000E+00
  0.00000000E+00  0.00000000E+00  0.00000000E+00
  0.00000000E+00  0.00000000E+00  0.00000000E+00
  0.00000000E+00  0.00000000E+00  0.00000000E+00
  0.00000000E+00  0.00000000E+00  0.00000000E+00
  0.00000000E+00  0.00000000E+00  0.00000000E+00
  0.00000000E+00  0.00000000E+00  0.00000000E+00
  0.00000000E+00  0.00000000E+00  0.00000000E+00
  0.00000000E+00  0.00000000E+00  0.00000000E+00
  0.00000000E+00  0.00000000E+00  0.00000000E+00
  0.00000000E+00  0.00000000E+00  0.00000000E+00
  0.00000000E+00  0.00000000E+00  0.00000000E+00
  0.00000000E+00  0.00000000E+00  0.00000000E+00
  0.00000000E+00  0.00000000E+00  0.00000000E+00
  0.00000000E+00  0.00000000E+00  0.00000000E+00
  0.00000000E+00  0.00000000E+00  0.00000000E+00
  0.00000000E+00  0.00000000E+00  0.00000000E+00
  0.00000000E+00  0.00000000E+00  0.00000000E+00
  0.00000000E+00  0.00000000E+00  0.00000000E+00
  0.00000000E+00  0.00000000E+00  0.00000000E+00
  0.00000000E+00  0.00000000E+00  0.00000000E+00
  0.00000000E+00  0.00000000E+00  0.00000000E+00
  0.00000000E+00  0.00000000E+00  0.00000000E+00
  0.00000000E+00  0.00000000E+00  0.00000000E+00
  0.00000000E+00  0.00000000E+00  0.00000000E+00
  0.00000000E+00  0.00000000E+00  0.00000000E+00
  0.00000000E+00  0.00000000E+00  0.00000000E+00
  0.00000000E+00  0.00000000E+00  0.00000000E+00
  0.00000000E+00  0.00000000E+00  0.00000000E+00
  0.00000000E+00  0.00000000E+00  0.00000000E+00
  0.00000000E+00  0.00000000E+00  0.00000000E+00
  0.00000000E+00  0.00000000E+00  0.00000000E+00
  0.00000000E+00  0.00000000E+00  0.00000000E+00
  0.00000000E+00  0.00000000E+00  0.00000000E+00
  0.00000000E+00  0.00000000E+00  0.00000000E+00
  0.00000000E+00  0.00000000E+00  0.00000000E+00
  0.00000000E+00  0.00000000E+00  0.00000000E+00
  0.00000000E+00  0.00000000E+00  0.00000000E+00
  0.00000000E+00  0.00000000E+00  0.00000000E+00
  0.00000000E+00  0.00000000E+00  0.00000000E+00
  0.00000000E+00  0.00000000E+00  0.00000000E+00
  0.00000000E+00  0.00000000E+00  0.00000000E+00
  0.00000000E+00  0.00000000E+00  0.00000000E+00
  0.00000000E+00  0.00000000E+00  0.00000000E+00
  0.00000000E+00  0.00000000E+00  0.00000000E+00
  0.00000000E+00  0.00000000E+00  0.00000000E+00
  0.00000000E+00  0.00000000E+00  0.00000000E+00
  0.00000000E+00  0.00000000E+00  0.00000000E+00
  0.00000000E+00  0.00000000E+00  0.00000000E+00
  0.00000000E+00  0.00000000E+00  0.00000000E+00
  0.00000000E+00  0.00000000E+00  0.00000000E+00
  0.00000000E+00  0.00000000E+00  0.00000000E+00
  0.00000000E+00  0.00000000E+00  0.00000000E+00
  0.00000000E+00  0.00000000E+00  0.00000000E+00
  0.00000000E+00  0.00000000E+00  0.00000000E+00
  0.00000000E+00  0.00000000E+00  0.00000000E+00
  0.00000000E+00  0.00000000E+00  0.00000000E+00
  0.00000000E+00  0.00000000E+00  0.00000000E+00
  0.00000000E+00  0.00000000E+00  0.00000000E+00
  0.00000000E+00  0.00000000E+00  0.00000000E+00
  0.00000000E+00  0.00000000E+00  0.00000000E+00
  0.00000000E+00  0.00000000E+00  0.00000000E+00
  0.00000000E+00  0.00000000E+00  0.00000000E+00
  0.00000000E+00  0.00000000E+00  0.00000000E+00
  0.00000000E+00  0.00000000E+00  0.00000000E+00
  0.00000000E+00  0.00000000E+00  0.00000000E+00
  0.00000000E+00  0.00000000E+00  0.00000000E+00
  0.00000000E+00  0.00000000E+00  0.00000000E+00
  0.00000000E+00  0.00000000E+00  0.00000000E+00
  0.00000000E+00  0.00000000E+00  0.00000000E+00
  0.00000000E+00  0.00000000E+00  0.00000000E+00
  0.00000000E+00  0.00000000E+00  0.00000000E+00
  0.00000000E+00  0.00000000E+00  0.00000000E+00
  0.00000000E+00  0.00000000E+00  0.00000000E+00
  0.00000000E+00  0.00000000E+00  0.00000000E+00
  0.00000000E+00  0.00000000E+00  0.00000000E+00
  0.00000000E+00  0.00000000E+00  0.00000000E+00
  0.00000000E+00  0.00000000E+00  0.00000000E+00
  0.00000000E+00  0.00000000E+00  0.00000000E+00
  0.00000000E+00  0.00000000E+00  0.00000000E+00
  0.00000000E+00  0.00000000E+00  0.00000000E+00
  0.00000000E+00  0.00000000E+00  0.00000000E+00
  0.00000000E+00  0.00000000E+00  0.00000000E+00
