Na Zn F                                 
   1.00000000000000     
     8.1057240000000004   -8.1057240000000004    0.0000000000000000
     8.1057240000000004    8.1057240000000004    0.0000000000000000
     0.0000000000000000    0.0000000000000000   16.2114490000000018
   F    Na   Zn
    96    32    32
Direct
  0.9736641323569534  0.2019656436545269  0.9974188005296415
  0.0230209568641096  0.2988722404910732  0.2463950109359631
  0.0186797114219056  0.2025074328802371  0.4978444554399364
  0.0095972255822219  0.2987785787181528  0.7485255678293270
  0.4735968748998474  0.2016224529828539  0.9973109854114989
  0.5231970179534563  0.2988379274346952  0.2462205257453335
  0.5184054574671013  0.2025247555380432  0.4978073940728290
  0.5095706612479197  0.2989145175293457  0.7484998228733908
  0.2234512678764264  0.5493553579297070  0.9974426035240940
  0.2730984842107090  0.4533128550527438  0.2463481736258386
  0.2684073224905447  0.5491024106702914  0.4978821011975734
  0.2593959946562754  0.4520094304093218  0.7485942608455810
  0.9735979800326857  0.7020353553149788  0.9973804190019564
  0.0230703195578856  0.7990409924819777  0.2463227682570121
  0.0185408246552543  0.7025216076181497  0.4978456782523211
  0.0096589497230539  0.7988340492268410  0.7485253325788291
  0.7235624544536895  0.5497157645148474  0.9973438569520719
  0.7730088097685093  0.4534052962691764  0.2463619123500567
  0.7686751786756185  0.5491944415123039  0.4978207404046806
  0.7594737479202868  0.4522560791919688  0.7485413962587359
  0.4735305230598358  0.7016578083528270  0.9974073367274346
  0.5231410060933842  0.7988336519218968  0.2462948761091287
  0.5185067527202554  0.7025082443793277  0.4978896632760793
  0.5096596089621688  0.7986215630074760  0.7485782344911578
  0.2235949644517600  0.0494404892120494  0.9973312506275315
  0.2731117785003871  0.9533184459522162  0.2463587661767783
  0.2686695587930018  0.0491037220268586  0.4978591148018935
  0.2596260432087807  0.9519086208585520  0.7484427227318287
  0.7236737194655406  0.0496901336892778  0.9973163749060062
  0.7729867062039384  0.9533213242960230  0.2463600044068067
  0.7683794876550478  0.0492811004104606  0.4978482030255595
  0.7597152567662119  0.9522491074879180  0.7485437021776196
  0.0875503332186390  0.0942891861133280  0.1441333264468035
  0.1218016311925967  0.1082776214038023  0.3434444611925389
  0.1585777398898691  0.1548478446661195  0.6429650266319616
  0.0985129933596571  0.1037725349295525  0.8449006879983845
  0.5874261206566410  0.0941725189799289  0.1441986882498122
  0.6217528318453436  0.1083392438111448  0.3434447194619715
  0.6584957064634719  0.1549584688004544  0.6429795341403227
  0.5985313334407016  0.1038690387490936  0.8447930376125550
  0.3856226241960437  0.3957817974240774  0.0932401523380156
  0.4173698094249342  0.4050397797251788  0.3919237932831963
  0.3609081897077043  0.3555686954839570  0.5943937964815924
  0.3991856901679450  0.4048797541319457  0.8947446834843645
  0.0872742227927949  0.5941935793068464  0.1441858241140354
  0.1217729934187470  0.6083980151664934  0.3434887727701381
  0.1584094237985095  0.6548293006078826  0.6430002719458333
  0.0982631102679807  0.6036911124584966  0.8449609658527893
  0.8855524906360843  0.3960510857436136  0.0932693996750783
  0.9174131804135506  0.4051380863615348  0.3918794629167376
  0.8608740634912806  0.3555968588025744  0.5943787350341960
  0.8991013955344731  0.4049866122985707  0.8946198517866325
  0.5873398093525505  0.5941338277657465  0.1442352068022336
  0.6218081232846036  0.6083653529571141  0.3434559046927112
  0.6584770250491928  0.6547482967180990  0.6429787164052619
  0.5982965356653565  0.6038074798278684  0.8450493097104930
  0.3857239020745342  0.8957623248558240  0.0932579121576276
  0.4174200235472584  0.9050187139065695  0.3919763081328648
  0.3610347128996742  0.8555143789946227  0.5943693326623839
  0.3994154606040549  0.9050302799693555  0.8946484772964445
  0.8856170521786808  0.8961046786282686  0.0933207950727830
  0.9173267336895631  0.9050579750625287  0.3919959198330685
  0.8609760064693621  0.8556385595058954  0.5943394557365990
  0.8993653636180090  0.9051850001053456  0.8947022255221472
  0.8375602181956278  0.1574691126151868  0.1443094968560399
  0.8717487683726538  0.1440391207111726  0.3434712002576915
  0.9086394493300330  0.0960345773182746  0.6429309334148355
  0.8484573528861045  0.1472613408235033  0.8449841745896615
  0.3375308679355027  0.1573575725968220  0.1441262933043558
  0.3716845140088120  0.1440616983383832  0.3434126081331076
  0.4086189426696791  0.0959892862486277  0.6429005037267473
  0.3485901395727119  0.1467636672319791  0.8447277918084436
  0.1355869523123870  0.3556868030040639  0.0934221262809378
  0.1673563413272793  0.3472193470020818  0.3920113129844787
  0.1108588897037143  0.3955105500971640  0.5943661492750288
  0.1494009787481035  0.3455781101374613  0.8947324255559991
  0.8373943929768835  0.6576104346642150  0.1441598290042778
  0.8717552156810949  0.6440502818774861  0.3434465066047133
  0.9084804783462059  0.5961184426853366  0.6429628909321310
  0.8483557796460995  0.6471969008438688  0.8449432886541755
  0.6356547952536243  0.3557272575658568  0.0931192445309458
  0.6673391653438133  0.3471324063623861  0.3919429713085648
  0.6109493119168820  0.3955035103760922  0.5942214954511097
  0.6492811642699341  0.3458976759056785  0.8946566489967215
  0.3373112773808418  0.6574271177393918  0.1441854049451758
  0.3716972848921715  0.6440467999848530  0.3434908174627616
  0.4083746576521010  0.5960085059217166  0.6430604339612066
  0.3483488876506006  0.6468820583027719  0.8449959918739758
  0.1356320799903855  0.8557122999628629  0.0932566452203829
  0.1673627196945658  0.8471672282774487  0.3920529001630006
  0.1110078223424027  0.8954277336987970  0.5943389417734801
  0.1495713713075473  0.8455493446045220  0.8946306274251281
  0.6356037510635988  0.8557677106963072  0.0931769399422398
  0.6672649450987687  0.8471975944955479  0.3920596555490727
  0.6110143425842844  0.8954741687986006  0.5944089426190351
  0.6493729698388413  0.8458419393562068  0.8947262819435182
  0.0167620720313528  0.9982301357282624  0.0106694979328689
  0.9855227797912273  0.0037969492762723  0.2602504028526790
  0.9740545630270400  0.0009763764329473  0.5142444465537820
  0.9643366234759138  0.9993444956974901  0.7644216588249810
  0.5166515588937507  0.9976319080557345  0.0100518210763307
  0.4855522716478335  0.0035906574792591  0.2601702853722195
  0.4741301592079984  0.0008061441831719  0.5142375496117674
  0.4645136426245139  0.9993500082731461  0.7644768345208989
  0.2667735269639349  0.2531043160640802  0.0106370540935039
  0.2352509635163071  0.2487925152273712  0.2607779104551508
  0.2240434651786394  0.2501131424416552  0.5141695780786442
  0.2143606628041975  0.2511435894331277  0.7647413590876544
  0.0166490134035233  0.4984616414242568  0.0108686759468556
  0.9856533490756227  0.5036564163648251  0.2605929976692967
  0.9740777366339157  0.5011204388105226  0.5142671769916105
  0.9642678075927466  0.4994034962616393  0.7644584451906583
  0.7666981785152127  0.2540206627382548  0.0097863534323190
  0.7356406191301217  0.2488986322098057  0.2606383239762190
  0.7232844014829801  0.2504772484470358  0.5143874315972027
  0.7143271379648604  0.2514751542949154  0.7647285567788441
  0.5166160240350089  0.4977172660754829  0.0102185128381242
  0.4857868951585513  0.5035370167817323  0.2602519873814340
  0.4736419283309817  0.5010320551962552  0.5143222717069147
  0.4643485867175174  0.4993594437119074  0.7645823647381893
  0.2664565482358475  0.7530502269364031  0.0104181998874055
  0.2354547558925181  0.7488934733695255  0.2606390921359133
  0.2239744839920535  0.7502173635214328  0.5142918986462429
  0.2143998128914632  0.7511950122280612  0.7646779809192994
  0.7665398712600970  0.7537773895428517  0.0099741210976233
  0.7354318604139843  0.7489720074401326  0.2606119779345969
  0.7239201423466320  0.7501483452942385  0.5142237667657035
  0.7142808720716783  0.7514734395687416  0.7645304318862123
  0.9938314020201429  0.2507070203977764  0.1249534791690476
  0.0096244393001936  0.2516331454247279  0.3740714295656153
  0.0002935968809529  0.2501308938014822  0.6246971720635695
  0.9933121831206685  0.2500511304476032  0.8754252551201703
  0.4940020922627194  0.2506292607938609  0.1248532456613004
  0.5096784973111292  0.2515900923747701  0.3739155364870062
  0.5001730839520148  0.2501267770749431  0.6247210028934734
  0.4931792338482335  0.2499111785055241  0.8753745644048246
  0.2438674113441815  0.5008322722069972  0.1249173295349183
  0.2597349104457082  0.5007083500458439  0.3739559538434055
  0.2501341550422921  0.5006921136148760  0.6247272922381401
  0.2430074354576711  0.5007291593990449  0.8754319718930457
  0.9938164722057679  0.7508022482990396  0.1249075408303652
  0.0096168407661731  0.7517259119603672  0.3740067670468225
  0.0002925846510319  0.7501536897145279  0.6246993104295863
  0.9932687137902856  0.7500804851001136  0.8753685197785511
  0.7438920168814481  0.5010397024209794  0.1249108731212295
  0.7596539071663755  0.5006648212839375  0.3740263032184585
  0.7503049804609432  0.5007020838183479  0.6246309163234675
  0.7432679422192344  0.5009929045265921  0.8754383345604718
  0.4939163051740445  0.7506218583861629  0.1249115644249297
  0.5096803596799435  0.7516228768562546  0.3739966191886301
  0.5002870170192467  0.7500408048158030  0.6247109661230664
  0.4931671349003469  0.7498583975318135  0.8754607540111232
  0.2440614683424838  0.0008494567786806  0.1248433979226169
  0.2597163090624756  0.0006570667485563  0.3739951448082880
  0.2502926334530351  0.0007146792906839  0.6246695020544183
  0.2432519057220686  0.0007271840737004  0.8753679173042497
  0.7438874051209057  0.0010449632298611  0.1248682154563323
  0.7596569413046984  0.0007324449138509  0.3740128032074895
  0.7502767707208883  0.0008175629501475  0.6245965227925739
  0.7433672980268701  0.0009844921799078  0.8754105430066634
 
  0.00000000E+00  0.00000000E+00  0.00000000E+00
  0.00000000E+00  0.00000000E+00  0.00000000E+00
  0.00000000E+00  0.00000000E+00  0.00000000E+00
  0.00000000E+00  0.00000000E+00  0.00000000E+00
  0.00000000E+00  0.00000000E+00  0.00000000E+00
  0.00000000E+00  0.00000000E+00  0.00000000E+00
  0.00000000E+00  0.00000000E+00  0.00000000E+00
  0.00000000E+00  0.00000000E+00  0.00000000E+00
  0.00000000E+00  0.00000000E+00  0.00000000E+00
  0.00000000E+00  0.00000000E+00  0.00000000E+00
  0.00000000E+00  0.00000000E+00  0.00000000E+00
  0.00000000E+00  0.00000000E+00  0.00000000E+00
  0.00000000E+00  0.00000000E+00  0.00000000E+00
  0.00000000E+00  0.00000000E+00  0.00000000E+00
  0.00000000E+00  0.00000000E+00  0.00000000E+00
  0.00000000E+00  0.00000000E+00  0.00000000E+00
  0.00000000E+00  0.00000000E+00  0.00000000E+00
  0.00000000E+00  0.00000000E+00  0.00000000E+00
  0.00000000E+00  0.00000000E+00  0.00000000E+00
  0.00000000E+00  0.00000000E+00  0.00000000E+00
  0.00000000E+00  0.00000000E+00  0.00000000E+00
  0.00000000E+00  0.00000000E+00  0.00000000E+00
  0.00000000E+00  0.00000000E+00  0.00000000E+00
  0.00000000E+00  0.00000000E+00  0.00000000E+00
  0.00000000E+00  0.00000000E+00  0.00000000E+00
  0.00000000E+00  0.00000000E+00  0.00000000E+00
  0.00000000E+00  0.00000000E+00  0.00000000E+00
  0.00000000E+00  0.00000000E+00  0.00000000E+00
  0.00000000E+00  0.00000000E+00  0.00000000E+00
  0.00000000E+00  0.00000000E+00  0.00000000E+00
  0.00000000E+00  0.00000000E+00  0.00000000E+00
  0.00000000E+00  0.00000000E+00  0.00000000E+00
  0.00000000E+00  0.00000000E+00  0.00000000E+00
  0.00000000E+00  0.00000000E+00  0.00000000E+00
  0.00000000E+00  0.00000000E+00  0.00000000E+00
  0.00000000E+00  0.00000000E+00  0.00000000E+00
  0.00000000E+00  0.00000000E+00  0.00000000E+00
  0.00000000E+00  0.00000000E+00  0.00000000E+00
  0.00000000E+00  0.00000000E+00  0.00000000E+00
  0.00000000E+00  0.00000000E+00  0.00000000E+00
  0.00000000E+00  0.00000000E+00  0.00000000E+00
  0.00000000E+00  0.00000000E+00  0.00000000E+00
  0.00000000E+00  0.00000000E+00  0.00000000E+00
  0.00000000E+00  0.00000000E+00  0.00000000E+00
  0.00000000E+00  0.00000000E+00  0.00000000E+00
  0.00000000E+00  0.00000000E+00  0.00000000E+00
  0.00000000E+00  0.00000000E+00  0.00000000E+00
  0.00000000E+00  0.00000000E+00  0.00000000E+00
  0.00000000E+00  0.00000000E+00  0.00000000E+00
  0.00000000E+00  0.00000000E+00  0.00000000E+00
  0.00000000E+00  0.00000000E+00  0.00000000E+00
  0.00000000E+00  0.00000000E+00  0.00000000E+00
  0.00000000E+00  0.00000000E+00  0.00000000E+00
  0.00000000E+00  0.00000000E+00  0.00000000E+00
  0.00000000E+00  0.00000000E+00  0.00000000E+00
  0.00000000E+00  0.00000000E+00  0.00000000E+00
  0.00000000E+00  0.00000000E+00  0.00000000E+00
  0.00000000E+00  0.00000000E+00  0.00000000E+00
  0.00000000E+00  0.00000000E+00  0.00000000E+00
  0.00000000E+00  0.00000000E+00  0.00000000E+00
  0.00000000E+00  0.00000000E+00  0.00000000E+00
  0.00000000E+00  0.00000000E+00  0.00000000E+00
  0.00000000E+00  0.00000000E+00  0.00000000E+00
  0.00000000E+00  0.00000000E+00  0.00000000E+00
  0.00000000E+00  0.00000000E+00  0.00000000E+00
  0.00000000E+00  0.00000000E+00  0.00000000E+00
  0.00000000E+00  0.00000000E+00  0.00000000E+00
  0.00000000E+00  0.00000000E+00  0.00000000E+00
  0.00000000E+00  0.00000000E+00  0.00000000E+00
  0.00000000E+00  0.00000000E+00  0.00000000E+00
  0.00000000E+00  0.00000000E+00  0.00000000E+00
  0.00000000E+00  0.00000000E+00  0.00000000E+00
  0.00000000E+00  0.00000000E+00  0.00000000E+00
  0.00000000E+00  0.00000000E+00  0.00000000E+00
  0.00000000E+00  0.00000000E+00  0.00000000E+00
  0.00000000E+00  0.00000000E+00  0.00000000E+00
  0.00000000E+00  0.00000000E+00  0.00000000E+00
  0.00000000E+00  0.00000000E+00  0.00000000E+00
  0.00000000E+00  0.00000000E+00  0.00000000E+00
  0.00000000E+00  0.00000000E+00  0.00000000E+00
  0.00000000E+00  0.00000000E+00  0.00000000E+00
  0.00000000E+00  0.00000000E+00  0.00000000E+00
  0.00000000E+00  0.00000000E+00  0.00000000E+00
  0.00000000E+00  0.00000000E+00  0.00000000E+00
  0.00000000E+00  0.00000000E+00  0.00000000E+00
  0.00000000E+00  0.00000000E+00  0.00000000E+00
  0.00000000E+00  0.00000000E+00  0.00000000E+00
  0.00000000E+00  0.00000000E+00  0.00000000E+00
  0.00000000E+00  0.00000000E+00  0.00000000E+00
  0.00000000E+00  0.00000000E+00  0.00000000E+00
  0.00000000E+00  0.00000000E+00  0.00000000E+00
  0.00000000E+00  0.00000000E+00  0.00000000E+00
  0.00000000E+00  0.00000000E+00  0.00000000E+00
  0.00000000E+00  0.00000000E+00  0.00000000E+00
  0.00000000E+00  0.00000000E+00  0.00000000E+00
  0.00000000E+00  0.00000000E+00  0.00000000E+00
  0.00000000E+00  0.00000000E+00  0.00000000E+00
  0.00000000E+00  0.00000000E+00  0.00000000E+00
  0.00000000E+00  0.00000000E+00  0.00000000E+00
  0.00000000E+00  0.00000000E+00  0.00000000E+00
  0.00000000E+00  0.00000000E+00  0.00000000E+00
  0.00000000E+00  0.00000000E+00  0.00000000E+00
  0.00000000E+00  0.00000000E+00  0.00000000E+00
  0.00000000E+00  0.00000000E+00  0.00000000E+00
  0.00000000E+00  0.00000000E+00  0.00000000E+00
  0.00000000E+00  0.00000000E+00  0.00000000E+00
  0.00000000E+00  0.00000000E+00  0.00000000E+00
  0.00000000E+00  0.00000000E+00  0.00000000E+00
  0.00000000E+00  0.00000000E+00  0.00000000E+00
  0.00000000E+00  0.00000000E+00  0.00000000E+00
  0.00000000E+00  0.00000000E+00  0.00000000E+00
  0.00000000E+00  0.00000000E+00  0.00000000E+00
  0.00000000E+00  0.00000000E+00  0.00000000E+00
  0.00000000E+00  0.00000000E+00  0.00000000E+00
  0.00000000E+00  0.00000000E+00  0.00000000E+00
  0.00000000E+00  0.00000000E+00  0.00000000E+00
  0.00000000E+00  0.00000000E+00  0.00000000E+00
  0.00000000E+00  0.00000000E+00  0.00000000E+00
  0.00000000E+00  0.00000000E+00  0.00000000E+00
  0.00000000E+00  0.00000000E+00  0.00000000E+00
  0.00000000E+00  0.00000000E+00  0.00000000E+00
  0.00000000E+00  0.00000000E+00  0.00000000E+00
  0.00000000E+00  0.00000000E+00  0.00000000E+00
  0.00000000E+00  0.00000000E+00  0.00000000E+00
  0.00000000E+00  0.00000000E+00  0.00000000E+00
  0.00000000E+00  0.00000000E+00  0.00000000E+00
  0.00000000E+00  0.00000000E+00  0.00000000E+00
  0.00000000E+00  0.00000000E+00  0.00000000E+00
  0.00000000E+00  0.00000000E+00  0.00000000E+00
  0.00000000E+00  0.00000000E+00  0.00000000E+00
  0.00000000E+00  0.00000000E+00  0.00000000E+00
  0.00000000E+00  0.00000000E+00  0.00000000E+00
  0.00000000E+00  0.00000000E+00  0.00000000E+00
  0.00000000E+00  0.00000000E+00  0.00000000E+00
  0.00000000E+00  0.00000000E+00  0.00000000E+00
  0.00000000E+00  0.00000000E+00  0.00000000E+00
  0.00000000E+00  0.00000000E+00  0.00000000E+00
  0.00000000E+00  0.00000000E+00  0.00000000E+00
  0.00000000E+00  0.00000000E+00  0.00000000E+00
  0.00000000E+00  0.00000000E+00  0.00000000E+00
  0.00000000E+00  0.00000000E+00  0.00000000E+00
  0.00000000E+00  0.00000000E+00  0.00000000E+00
  0.00000000E+00  0.00000000E+00  0.00000000E+00
  0.00000000E+00  0.00000000E+00  0.00000000E+00
  0.00000000E+00  0.00000000E+00  0.00000000E+00
  0.00000000E+00  0.00000000E+00  0.00000000E+00
  0.00000000E+00  0.00000000E+00  0.00000000E+00
  0.00000000E+00  0.00000000E+00  0.00000000E+00
  0.00000000E+00  0.00000000E+00  0.00000000E+00
  0.00000000E+00  0.00000000E+00  0.00000000E+00
  0.00000000E+00  0.00000000E+00  0.00000000E+00
  0.00000000E+00  0.00000000E+00  0.00000000E+00
  0.00000000E+00  0.00000000E+00  0.00000000E+00
  0.00000000E+00  0.00000000E+00  0.00000000E+00
  0.00000000E+00  0.00000000E+00  0.00000000E+00
  0.00000000E+00  0.00000000E+00  0.00000000E+00
  0.00000000E+00  0.00000000E+00  0.00000000E+00
  0.00000000E+00  0.00000000E+00  0.00000000E+00
  0.00000000E+00  0.00000000E+00  0.00000000E+00
  0.00000000E+00  0.00000000E+00  0.00000000E+00
