In Hg  I                                
   1.00000000000000     
    11.9668030000000005  -11.9668030000000005    0.0000000000000000
    11.9668030000000005   11.9668030000000005    0.0000000000000000
     0.0000000000000000    0.0000000000000000   23.9336069999999985
   In   Hg   I 
    32    32    96
Direct
  0.9966436344247049  0.0623647451959099  0.9373926837422065
  0.0231059419456538  0.0550822880630724  0.3010019973661047
  0.0238013233347163  0.9312765961364808  0.5275762827117717
  0.9150450245955367  0.0649693789546249  0.7126232583343337
  0.5403431600281874  0.0072019354999964  0.9738637586109841
  0.4597919083945803  0.9531174994756126  0.2747281017147455
  0.4582777596654973  0.9244833142618019  0.4830544005362329
  0.4795052457429976  0.0369559842486383  0.7507389522756838
  0.2178356160152258  0.2331185652146675  0.9153010397933339
  0.3613632041637638  0.1740524407715233  0.2359836737477123
  0.2822413791342155  0.3076003908791099  0.4467236983815999
  0.2266175956548964  0.3519047314458117  0.7908395956679402
  0.0229743097353382  0.4396787642350394  0.0254556827445750
  0.0836312863127073  0.4358175970060794  0.2341345539267595
  0.0690548197391126  0.5166172370780878  0.4735451827787298
  0.9546591824234412  0.5196405954154117  0.8210335222181968
  0.8164656753064391  0.2649990765326813  0.0300258283426227
  0.7668349114352593  0.2381008705411902  0.3026335130953545
  0.6934374568435867  0.2076177681594403  0.5245276817978225
  0.7133306932084333  0.2328587602170036  0.7693144737582189
  0.4414533323179269  0.4156592727690045  0.9962922859973300
  0.4803872652512220  0.4770616929893540  0.2536764980818811
  0.4702540196933499  0.5195702215214091  0.5332953974970529
  0.5662911264917970  0.4690744393679109  0.7647141340586595
  0.3513891030275401  0.8036315377839048  0.9818465657594688
  0.2915993015407121  0.7610099539271247  0.1731958295121800
  0.2374159938039689  0.6897712330787915  0.5536514572584336
  0.1712316309131600  0.7465086384748923  0.7538542723323373
  0.7437438418421292  0.7256080988617953  0.0251431800974859
  0.8123263058167853  0.6964033060994124  0.2544966014582528
  0.7799620824403359  0.6810408486985677  0.4846668965970924
  0.6728841594870768  0.7192719447043582  0.7315148180533670
  0.0758151903231022  0.2273808621504124  0.1236952726203609
  0.0161127670112011  0.2535046030136792  0.4077130679493721
  0.9677330809086072  0.3147519161161272  0.6376521410275376
  0.9576430193785748  0.2678503857314486  0.8465541054318299
  0.5551593440719038  0.2196782971578008  0.1279795651105526
  0.5415043037896373  0.2903589305211789  0.3914554538993658
  0.4518291234439786  0.1817256441467654  0.5923806867767664
  0.4461451644245361  0.2319968696343460  0.8731626624246521
  0.2837298622231200  0.5370820597246352  0.1056476111859723
  0.2797207528534025  0.5530371274546707  0.3973480586976999
  0.2352378080153540  0.4936935191090986  0.6544700744832512
  0.1823797288696778  0.6175619034231528  0.9020453821973575
  0.0522052155896064  0.7823347167820887  0.1141571070642226
  0.0356495956008417  0.7736209005199025  0.3101568334115501
  0.9865135794761422  0.7445764296534869  0.6332020853074947
  0.9803576204503046  0.7880496633515750  0.9228813856535211
  0.7895654112341632  0.4872018019571613  0.1316610409589421
  0.7696023773596377  0.4379408066478343  0.4223868430114782
  0.7620280788092425  0.4894911436952115  0.6209519420578338
  0.7161921510412760  0.4927418664070373  0.8996400902058840
  0.5243785247988716  0.7467465773646459  0.1440251858799511
  0.5223864514354887  0.7408160025981281  0.3569684629375763
  0.4651530045367868  0.7242436830273195  0.6342002854043661
  0.5325141059019328  0.8059435741232418  0.8654877417103424
  0.2126389301818603  0.0069406230791342  0.1524842058581027
  0.2572757057290597  0.0587204400915947  0.4017921727109378
  0.2251760659449812  0.0392650589938575  0.6191590429754322
  0.2215508605629165  0.0125589224190756  0.8484055270361412
  0.7468622995061963  0.0244479205316010  0.1840653502453886
  0.7663959101253421  0.9404140891160814  0.3978268954535917
  0.7255854418419813  0.9452408762279993  0.5985564632530934
  0.7860812229928984  0.9087020104126892  0.8890332387848896
  0.0626739548691299  0.2338927563448704  0.0049222122128303
  0.9831650128122590  0.2804206289687614  0.2960175371234594
  0.0944504854231712  0.3149732602409435  0.4990924461584133
  0.8817831420116896  0.3460692287568266  0.7541038677556325
  0.3945037507110019  0.2273438499576074  0.9874344718453710
  0.5776129657030574  0.1296916828230232  0.2257259995171361
  0.4996974396672566  0.3214146616967508  0.5060804903646047
  0.5115137849055132  0.2247396009766385  0.6993341296717507
  0.2436079864789167  0.4405565773393358  0.0160511239354680
  0.2811568426652797  0.5111412822907512  0.2191920198624262
  0.2743115009492113  0.4799548911206060  0.5167347420713699
  0.1626425833740174  0.5435881042867329  0.7879917487027813
  0.9412471170843101  0.8477221398760081  0.0322020116959979
  0.0099393947923788  0.6280718874417023  0.2700380074010942
  0.9803393178097246  0.7177207059388333  0.5193804532695667
  0.9752403797577067  0.7136936739082622  0.7453317623276454
  0.6308127359079674  0.5802522237106235  0.9749183004476589
  0.8150273739670008  0.4968408410192344  0.2454595328522440
  0.6702575148018290  0.5036223388793715  0.5064509838916852
  0.7491185249958959  0.5497918113619451  0.7888993822960091
  0.5510650205749513  0.8025305554028190  0.9845317954460744
  0.4485276268991074  0.6818637018373908  0.2441495442085875
  0.4354040355903408  0.7216731922807662  0.5173534155861486
  0.5306357364909107  0.8528610681517833  0.6886889731690925
  0.2210739061029878  0.0462384948440711  0.9587620369483468
  0.2561882328320728  0.9317564404256793  0.2534213265249736
  0.2359231873504668  0.9551524015980016  0.4872370919007546
  0.1747464598958326  0.9485975903860027  0.7517135107997157
  0.7394420990075643  0.9729603636198069  0.9892825404028714
  0.8217050491621285  0.0441351085487390  0.3087316727127483
  0.7942418528406098  0.0314891991100074  0.4965181290977634
  0.7114683276401559  0.0500802132178483  0.6871505234326616
  0.0531515610415417  0.0629327398791797  0.1463818254148018
  0.1938894463705194  0.1696460805646671  0.3322256919476674
  0.0747689219217082  0.0887862341432339  0.6105691586665708
  0.0747631890513964  0.1464548579371070  0.8230372122989509
  0.6320149703278535  0.1665364768904804  0.0343669885732549
  0.6369796055222311  0.1559813577789116  0.3921848157824651
  0.5567222788598966  0.0706766391582758  0.5491268422723686
  0.5744395385335995  0.1266254053522725  0.8605525987021022
  0.4394395232034689  0.3324310333324769  0.1446252951120294
  0.4059852284730901  0.3203708152116611  0.3247417419542690
  0.3579182973815637  0.4022908324646527  0.6842058840905839
  0.4031759492402669  0.3944354531707369  0.8576196226201038
  0.1189852487950044  0.6308990645330187  0.1105817572475616
  0.1784635575930058  0.6790130968176425  0.4114846675485699
  0.1014215217841254  0.5659237575020684  0.6193266490231423
  0.0331704624459596  0.6037329851891995  0.9446655261850844
  0.9447847344321206  0.3405193321611702  0.1394593228591184
  0.8334617721487888  0.2845319588424343  0.4361631086044677
  0.9113778041586935  0.4396987509713827  0.5677484193374903
  0.8606266158420729  0.4252754244901743  0.9435715820942732
  0.6574793042745137  0.6547012103660063  0.1448830066648422
  0.6565411948408243  0.6550779636852522  0.3572361808243439
  0.5702162218145908  0.5900256574207593  0.6506551265437766
  0.5239219471107542  0.6604473197562007  0.8134621797515915
  0.4408717953909890  0.8826301373157521  0.1238617560354601
  0.3826684825417166  0.8197186023124426  0.3711308228116834
  0.3644614259149104  0.9692573211188530  0.6386784814968719
  0.4021415779613334  0.9167573292771003  0.8647636076961245
  0.9683717293439559  0.8541273904609724  0.2025360664162356
  0.8549350867149516  0.8006436942925598  0.3793747657539630
  0.8938379709516472  0.9035188312918750  0.6372156668832323
  0.9290209773506815  0.9417322460061791  0.8347774714702655
  0.8236825045780218  0.1576570765033192  0.1574353857322072
  0.0067478590176186  0.0883835532049998  0.4334162533047273
  0.8748455552563060  0.1862190342696572  0.6056312949428712
  0.8386534724139466  0.1726329886352596  0.8941179244891589
  0.3356028205179366  0.0916543581221933  0.1056374843769216
  0.4224251517867128  0.0744248943330086  0.3795893417082515
  0.2934939638176762  0.2061167377309905  0.5729138771690853
  0.3268740156142055  0.1524627759702653  0.8004152615458588
  0.2002755544859667  0.2936589292780829  0.1830308876291012
  0.1780675698074987  0.4286302521055452  0.3558802156601838
  0.1207698843181461  0.3189358487405391  0.6759329848260782
  0.0697696984827644  0.3826582350638881  0.8825881138712840
  0.8808979683913858  0.5961433485915952  0.0730876094897561
  0.8842721833998497  0.5509267361361413  0.3979583951337650
  0.8020994167093493  0.6469399569221495  0.6312479784692109
  0.8313831521242057  0.7301981974008201  0.8897091514974502
  0.6825876070424254  0.3836425715303455  0.0862819181538988
  0.6447826522631250  0.4064766380617129  0.3372589319739599
  0.6732195069145895  0.3667547482625963  0.6615739941107408
  0.6413299710124319  0.3455685369513959  0.8670818768232912
  0.4026535364436382  0.6436340976152697  0.0679787710465368
  0.4418023090061167  0.5460886977014808  0.3873171648295720
  0.3224109319325813  0.6639673464737778  0.6823300305006158
  0.3393301136461051  0.6418301150568844  0.8993165020789819
  0.1929253010474314  0.8691831597329107  0.0749371698027905
  0.0860375051107322  0.8923162880725550  0.3743401381509372
  0.1428024855848823  0.8361461791192100  0.6225327939245254
  0.1370861915940244  0.8119183580674018  0.8957194629238684
  0.6963375623628738  0.8756702748621145  0.1813161308181471
  0.6032318666420853  0.9130744578278518  0.3762590332346189
  0.6548484341697015  0.8248634229087453  0.5415877079068925
  0.6549309809305303  0.9044027558990403  0.8145027875847030
 
  0.00000000E+00  0.00000000E+00  0.00000000E+00
  0.00000000E+00  0.00000000E+00  0.00000000E+00
  0.00000000E+00  0.00000000E+00  0.00000000E+00
  0.00000000E+00  0.00000000E+00  0.00000000E+00
  0.00000000E+00  0.00000000E+00  0.00000000E+00
  0.00000000E+00  0.00000000E+00  0.00000000E+00
  0.00000000E+00  0.00000000E+00  0.00000000E+00
  0.00000000E+00  0.00000000E+00  0.00000000E+00
  0.00000000E+00  0.00000000E+00  0.00000000E+00
  0.00000000E+00  0.00000000E+00  0.00000000E+00
  0.00000000E+00  0.00000000E+00  0.00000000E+00
  0.00000000E+00  0.00000000E+00  0.00000000E+00
  0.00000000E+00  0.00000000E+00  0.00000000E+00
  0.00000000E+00  0.00000000E+00  0.00000000E+00
  0.00000000E+00  0.00000000E+00  0.00000000E+00
  0.00000000E+00  0.00000000E+00  0.00000000E+00
  0.00000000E+00  0.00000000E+00  0.00000000E+00
  0.00000000E+00  0.00000000E+00  0.00000000E+00
  0.00000000E+00  0.00000000E+00  0.00000000E+00
  0.00000000E+00  0.00000000E+00  0.00000000E+00
  0.00000000E+00  0.00000000E+00  0.00000000E+00
  0.00000000E+00  0.00000000E+00  0.00000000E+00
  0.00000000E+00  0.00000000E+00  0.00000000E+00
  0.00000000E+00  0.00000000E+00  0.00000000E+00
  0.00000000E+00  0.00000000E+00  0.00000000E+00
  0.00000000E+00  0.00000000E+00  0.00000000E+00
  0.00000000E+00  0.00000000E+00  0.00000000E+00
  0.00000000E+00  0.00000000E+00  0.00000000E+00
  0.00000000E+00  0.00000000E+00  0.00000000E+00
  0.00000000E+00  0.00000000E+00  0.00000000E+00
  0.00000000E+00  0.00000000E+00  0.00000000E+00
  0.00000000E+00  0.00000000E+00  0.00000000E+00
  0.00000000E+00  0.00000000E+00  0.00000000E+00
  0.00000000E+00  0.00000000E+00  0.00000000E+00
  0.00000000E+00  0.00000000E+00  0.00000000E+00
  0.00000000E+00  0.00000000E+00  0.00000000E+00
  0.00000000E+00  0.00000000E+00  0.00000000E+00
  0.00000000E+00  0.00000000E+00  0.00000000E+00
  0.00000000E+00  0.00000000E+00  0.00000000E+00
  0.00000000E+00  0.00000000E+00  0.00000000E+00
  0.00000000E+00  0.00000000E+00  0.00000000E+00
  0.00000000E+00  0.00000000E+00  0.00000000E+00
  0.00000000E+00  0.00000000E+00  0.00000000E+00
  0.00000000E+00  0.00000000E+00  0.00000000E+00
  0.00000000E+00  0.00000000E+00  0.00000000E+00
  0.00000000E+00  0.00000000E+00  0.00000000E+00
  0.00000000E+00  0.00000000E+00  0.00000000E+00
  0.00000000E+00  0.00000000E+00  0.00000000E+00
  0.00000000E+00  0.00000000E+00  0.00000000E+00
  0.00000000E+00  0.00000000E+00  0.00000000E+00
  0.00000000E+00  0.00000000E+00  0.00000000E+00
  0.00000000E+00  0.00000000E+00  0.00000000E+00
  0.00000000E+00  0.00000000E+00  0.00000000E+00
  0.00000000E+00  0.00000000E+00  0.00000000E+00
  0.00000000E+00  0.00000000E+00  0.00000000E+00
  0.00000000E+00  0.00000000E+00  0.00000000E+00
  0.00000000E+00  0.00000000E+00  0.00000000E+00
  0.00000000E+00  0.00000000E+00  0.00000000E+00
  0.00000000E+00  0.00000000E+00  0.00000000E+00
  0.00000000E+00  0.00000000E+00  0.00000000E+00
  0.00000000E+00  0.00000000E+00  0.00000000E+00
  0.00000000E+00  0.00000000E+00  0.00000000E+00
  0.00000000E+00  0.00000000E+00  0.00000000E+00
  0.00000000E+00  0.00000000E+00  0.00000000E+00
  0.00000000E+00  0.00000000E+00  0.00000000E+00
  0.00000000E+00  0.00000000E+00  0.00000000E+00
  0.00000000E+00  0.00000000E+00  0.00000000E+00
  0.00000000E+00  0.00000000E+00  0.00000000E+00
  0.00000000E+00  0.00000000E+00  0.00000000E+00
  0.00000000E+00  0.00000000E+00  0.00000000E+00
  0.00000000E+00  0.00000000E+00  0.00000000E+00
  0.00000000E+00  0.00000000E+00  0.00000000E+00
  0.00000000E+00  0.00000000E+00  0.00000000E+00
  0.00000000E+00  0.00000000E+00  0.00000000E+00
  0.00000000E+00  0.00000000E+00  0.00000000E+00
  0.00000000E+00  0.00000000E+00  0.00000000E+00
  0.00000000E+00  0.00000000E+00  0.00000000E+00
  0.00000000E+00  0.00000000E+00  0.00000000E+00
  0.00000000E+00  0.00000000E+00  0.00000000E+00
  0.00000000E+00  0.00000000E+00  0.00000000E+00
  0.00000000E+00  0.00000000E+00  0.00000000E+00
  0.00000000E+00  0.00000000E+00  0.00000000E+00
  0.00000000E+00  0.00000000E+00  0.00000000E+00
  0.00000000E+00  0.00000000E+00  0.00000000E+00
  0.00000000E+00  0.00000000E+00  0.00000000E+00
  0.00000000E+00  0.00000000E+00  0.00000000E+00
  0.00000000E+00  0.00000000E+00  0.00000000E+00
  0.00000000E+00  0.00000000E+00  0.00000000E+00
  0.00000000E+00  0.00000000E+00  0.00000000E+00
  0.00000000E+00  0.00000000E+00  0.00000000E+00
  0.00000000E+00  0.00000000E+00  0.00000000E+00
  0.00000000E+00  0.00000000E+00  0.00000000E+00
  0.00000000E+00  0.00000000E+00  0.00000000E+00
  0.00000000E+00  0.00000000E+00  0.00000000E+00
  0.00000000E+00  0.00000000E+00  0.00000000E+00
  0.00000000E+00  0.00000000E+00  0.00000000E+00
  0.00000000E+00  0.00000000E+00  0.00000000E+00
  0.00000000E+00  0.00000000E+00  0.00000000E+00
  0.00000000E+00  0.00000000E+00  0.00000000E+00
  0.00000000E+00  0.00000000E+00  0.00000000E+00
  0.00000000E+00  0.00000000E+00  0.00000000E+00
  0.00000000E+00  0.00000000E+00  0.00000000E+00
  0.00000000E+00  0.00000000E+00  0.00000000E+00
  0.00000000E+00  0.00000000E+00  0.00000000E+00
  0.00000000E+00  0.00000000E+00  0.00000000E+00
  0.00000000E+00  0.00000000E+00  0.00000000E+00
  0.00000000E+00  0.00000000E+00  0.00000000E+00
  0.00000000E+00  0.00000000E+00  0.00000000E+00
  0.00000000E+00  0.00000000E+00  0.00000000E+00
  0.00000000E+00  0.00000000E+00  0.00000000E+00
  0.00000000E+00  0.00000000E+00  0.00000000E+00
  0.00000000E+00  0.00000000E+00  0.00000000E+00
  0.00000000E+00  0.00000000E+00  0.00000000E+00
  0.00000000E+00  0.00000000E+00  0.00000000E+00
  0.00000000E+00  0.00000000E+00  0.00000000E+00
  0.00000000E+00  0.00000000E+00  0.00000000E+00
  0.00000000E+00  0.00000000E+00  0.00000000E+00
  0.00000000E+00  0.00000000E+00  0.00000000E+00
  0.00000000E+00  0.00000000E+00  0.00000000E+00
  0.00000000E+00  0.00000000E+00  0.00000000E+00
  0.00000000E+00  0.00000000E+00  0.00000000E+00
  0.00000000E+00  0.00000000E+00  0.00000000E+00
  0.00000000E+00  0.00000000E+00  0.00000000E+00
  0.00000000E+00  0.00000000E+00  0.00000000E+00
  0.00000000E+00  0.00000000E+00  0.00000000E+00
  0.00000000E+00  0.00000000E+00  0.00000000E+00
  0.00000000E+00  0.00000000E+00  0.00000000E+00
  0.00000000E+00  0.00000000E+00  0.00000000E+00
  0.00000000E+00  0.00000000E+00  0.00000000E+00
  0.00000000E+00  0.00000000E+00  0.00000000E+00
  0.00000000E+00  0.00000000E+00  0.00000000E+00
  0.00000000E+00  0.00000000E+00  0.00000000E+00
  0.00000000E+00  0.00000000E+00  0.00000000E+00
  0.00000000E+00  0.00000000E+00  0.00000000E+00
  0.00000000E+00  0.00000000E+00  0.00000000E+00
  0.00000000E+00  0.00000000E+00  0.00000000E+00
  0.00000000E+00  0.00000000E+00  0.00000000E+00
  0.00000000E+00  0.00000000E+00  0.00000000E+00
  0.00000000E+00  0.00000000E+00  0.00000000E+00
  0.00000000E+00  0.00000000E+00  0.00000000E+00
  0.00000000E+00  0.00000000E+00  0.00000000E+00
  0.00000000E+00  0.00000000E+00  0.00000000E+00
  0.00000000E+00  0.00000000E+00  0.00000000E+00
  0.00000000E+00  0.00000000E+00  0.00000000E+00
  0.00000000E+00  0.00000000E+00  0.00000000E+00
  0.00000000E+00  0.00000000E+00  0.00000000E+00
  0.00000000E+00  0.00000000E+00  0.00000000E+00
  0.00000000E+00  0.00000000E+00  0.00000000E+00
  0.00000000E+00  0.00000000E+00  0.00000000E+00
  0.00000000E+00  0.00000000E+00  0.00000000E+00
  0.00000000E+00  0.00000000E+00  0.00000000E+00
  0.00000000E+00  0.00000000E+00  0.00000000E+00
  0.00000000E+00  0.00000000E+00  0.00000000E+00
  0.00000000E+00  0.00000000E+00  0.00000000E+00
  0.00000000E+00  0.00000000E+00  0.00000000E+00
  0.00000000E+00  0.00000000E+00  0.00000000E+00
  0.00000000E+00  0.00000000E+00  0.00000000E+00
  0.00000000E+00  0.00000000E+00  0.00000000E+00
  0.00000000E+00  0.00000000E+00  0.00000000E+00
  0.00000000E+00  0.00000000E+00  0.00000000E+00
