Ge Cs F                                 
   1.00000000000000     
     9.1065649999999998   -9.1065649999999998    0.0000000000000000
     9.1065649999999998    9.1065649999999998    0.0000000000000000
     0.0000000000000000    0.0000000000000000   18.2131289999999986
   Cs   F    Ge
    32    96    32
Direct
  0.0020409065187312  0.0005429518420909  0.0047728934852213
  0.9975363700061357  0.0058900917486605  0.2523654164255942
  0.0029474992731241  0.0067905512673670  0.5022228706130800
  0.0078940578634417  0.0053515513172924  0.7541751591548411
  0.5076300440046163  0.0007615306637965  0.0051911289966149
  0.4988529266926121  0.0014432585942663  0.2536979121277232
  0.5056750895642399  0.9984750974284594  0.5019848856811411
  0.5099554167076457  0.0029428914753979  0.7525730874510100
  0.2557088545241178  0.2465430670001588  0.0027977621577317
  0.2541834927308386  0.2578670739342509  0.2498160475345444
  0.2525771966372768  0.2493988555604699  0.5010699738560148
  0.2555498483266360  0.2521626843557743  0.7544231102577591
  0.0051045405459459  0.4999680708873278  0.9938519910387830
  0.0003856970504303  0.5046348856316319  0.2410612937893020
  0.0061739268670327  0.5057489329344937  0.4904277838980639
  0.0104562230119547  0.5001031345920292  0.7415588984881424
  0.7554266935020453  0.2506279766574532  0.9951741982411371
  0.7535722633079738  0.2554778051375824  0.2481884285799478
  0.7489199015397889  0.2596163634810261  0.4967375588034734
  0.7505131588353919  0.2600815349456671  0.7463671705765651
  0.5062188418269254  0.4994942686237567  0.9954826310937774
  0.5007265262165326  0.5023403791250948  0.2470151920975569
  0.4972927156158850  0.5026795927122343  0.4988788223803319
  0.5046018688535148  0.5072214909732035  0.7453144974477149
  0.2538436991785116  0.7502064653989176  0.9997938238304379
  0.2464935824787892  0.7549124933699288  0.2491332828234689
  0.2517186115059100  0.7541174172159836  0.5020475799627573
  0.2565616453702097  0.7581526725201255  0.7544851856144156
  0.7555338569357389  0.7506484012533635  0.9924870619838331
  0.7438742577852103  0.7517961176243462  0.2442930677364150
  0.7559306002030425  0.7551980325899323  0.4957507868149256
  0.7620296754153069  0.7551996463001953  0.7464826458826310
  0.0090005133475976  0.2615552992479174  0.9729542053458280
  0.0124489316962458  0.2458070700367019  0.2230922934121989
  0.0016066309659600  0.2721262415432925  0.4719297109765766
  0.0000035498434254  0.2432082086679402  0.7232099086627455
  0.5003341115601913  0.2598709501285962  0.9747416553157183
  0.5116746235490047  0.2464085115849588  0.2252366051619402
  0.4968558651574997  0.2538618367572421  0.4752084241915152
  0.5074984935675616  0.2457089946416798  0.7250370848191452
  0.2575799594481253  0.4799769128965370  0.0220507553726050
  0.2477054454291687  0.5149807118244372  0.2737234498496707
  0.2539749295958455  0.4937096470853822  0.5253448133846519
  0.2613841281720362  0.5187996427694159  0.7744268712398744
  0.0134594435809459  0.7398840735746767  0.0192717171460130
  0.9801066866480442  0.7687987660169053  0.2689596627538273
  0.0081306065371758  0.7606909148120090  0.5201819444311154
  0.0049571368943469  0.7589172582177502  0.7695715030928643
  0.7567319181500761  0.5066989523685398  0.9660670671585940
  0.7594747622906383  0.4982526059709225  0.2170104893711360
  0.7430783227963020  0.5181412597860550  0.4696011606212940
  0.7634356675829437  0.5063034321902999  0.7179055385699460
  0.4912655308818787  0.7355271025838397  0.0210792611734696
  0.4840476667701650  0.7568372476024707  0.2733328788126502
  0.5098414745286246  0.7390890082583131  0.5231864782247393
  0.5243130969814809  0.7695200464537862  0.7724669371980044
  0.2558297882433134  0.9984893134768438  0.0299512049616391
  0.2418258638455103  0.0218956510816942  0.2785504358242884
  0.2620305604279379  0.9910241543701067  0.5295945477261764
  0.2591680856326188  0.0118769590411545  0.7812187855349345
  0.7538936066611334  0.9906066034432411  0.0274935277279829
  0.7449096942663207  0.0224293414421648  0.2760430263160615
  0.7562528469554091  0.0014455920892253  0.5252445791733329
  0.7612587335480600  0.0224505196223646  0.7746253530916207
  0.1476607312004773  0.1028720918376306  0.1337280977514215
  0.1045625434991581  0.1552938412601390  0.3722882337077164
  0.1616332048689172  0.1041131790357149  0.6339622174197290
  0.1497096861839915  0.0959864013604791  0.8935355342804561
  0.6470486988512013  0.0985823359393922  0.1309130165113603
  0.6028206283829055  0.1520220759530753  0.3685161544649460
  0.6044910778678572  0.1572037501113628  0.6085541141335736
  0.6016383175264932  0.1509946948022581  0.8698053104405448
  0.4033718550373067  0.3535868350087003  0.1218796608594089
  0.3484754568946232  0.4015418091749920  0.3781947017974291
  0.3546390232655728  0.4052843056736767  0.6402067729983385
  0.3616701983316213  0.4082216372859819  0.8791003559985044
  0.1493197735620381  0.5994559111368007  0.1182063355733015
  0.0988677252335878  0.6526140647093329  0.3626615495339429
  0.1109728072691528  0.6615617724548101  0.6280075185719460
  0.1016894689750321  0.6465503062024358  0.8727145982122267
  0.8978345233479444  0.3500720379331746  0.1227531034225099
  0.8529659889909299  0.4043991556168107  0.3723075440748182
  0.9108171869239384  0.3562609313660003  0.6171005291000996
  0.9143881998664309  0.3598035569311882  0.8624195511340643
  0.6483885265158547  0.6012348921986084  0.1134140751866914
  0.5965508299319590  0.6465602044447656  0.3731378239280698
  0.6599546266647432  0.6072734309171256  0.6114474322415535
  0.6563412038398799  0.6024171430970021  0.8542226080132371
  0.3976954642140531  0.8512400185761153  0.1244046903072054
  0.3434783433909232  0.8961676712269160  0.3723424160166210
  0.4121401730494569  0.8542193907303266  0.6256857052813175
  0.4149388930769126  0.8595297691096652  0.8803628486173910
  0.8948078622323344  0.8466440107777251  0.1160043704636740
  0.8495598630973817  0.9011494216554589  0.3719255036457143
  0.8619981838027326  0.9149159570454752  0.6351204488490262
  0.8629676235241464  0.9114953885034515  0.8770984607787204
  0.8561375025887407  0.1017136747694140  0.1312405210044763
  0.8543156983233833  0.1089767873756774  0.3890234215830620
  0.8401482753633809  0.1244771455468214  0.6291965781955572
  0.9104736058022588  0.1500248318961377  0.8690615866859763
  0.3574265107098094  0.1035933068890799  0.1381562955476901
  0.3596208661032669  0.1032534519049162  0.3880680500652766
  0.3710494349216190  0.0906137125775648  0.6348811890324165
  0.3618056027840814  0.0964700219784465  0.8957779576800061
  0.1072073337001951  0.3531908058933144  0.1145705324127872
  0.0999859279310058  0.3642069317804124  0.3569741295268890
  0.1197980949585577  0.3388156443177024  0.6211557245985069
  0.1515982248623229  0.4111025468239921  0.8760097445619113
  0.8586821418244929  0.6042675029633643  0.1088893097447204
  0.8507579766093561  0.6135103707172711  0.3594951411375829
  0.8698373078903586  0.5926386580656461  0.6051855427314388
  0.8666558744168900  0.5926669929335672  0.8545447933240684
  0.6132811906136871  0.3489137661773504  0.1189498340530841
  0.5999780598473046  0.3617689770427599  0.3726120736315128
  0.5910637584772230  0.3669862890360776  0.6204745789649627
  0.5932443664361755  0.3619150053829057  0.8650892123561198
  0.3582358049303033  0.6010930528439471  0.1214378182230312
  0.3517447331067230  0.6120133571494968  0.3813151552250448
  0.3424170687100174  0.6162612889628291  0.6272026686470975
  0.4155225189992744  0.6494919275535156  0.8673729197368977
  0.1042999398446673  0.8555621390817008  0.1247796691205134
  0.1005236726495448  0.8630214053153962  0.3701404671483444
  0.0925094251148863  0.8701213970874688  0.6301366744742330
  0.0988344894812696  0.8572394554877716  0.8810071257740801
  0.6076695840484804  0.8495332617578145  0.1164168438200082
  0.6062600881751755  0.8561311970713597  0.3712061051518820
  0.6227330345114049  0.8402350809315831  0.6239149696918177
  0.6521487178612748  0.9121065427986956  0.8752656130425385
  0.0043492487563215  0.2439177618544609  0.1175095082570750
  0.9948990045710417  0.2573735048116481  0.3664131580359877
  0.0058235028121155  0.2413477032431575  0.6176427519714034
  0.0187482915653767  0.2532180061884963  0.8676517173500514
  0.5060217819863199  0.2435896842694345  0.1194347874958037
  0.4940105256167417  0.2547710806950756  0.3694078825581807
  0.4915182408806795  0.2543867650106478  0.6198097442008401
  0.4909562292313615  0.2528357368840213  0.8691324691839637
  0.2541371152486926  0.4925468878504101  0.1270904544653269
  0.2428435751947010  0.5081368712563219  0.3791156389304732
  0.2431530140039030  0.5041301289864463  0.6310248788589787
  0.2580390255086633  0.5161813614926731  0.8806093010313036
  0.0029690981240667  0.7439539254417534  0.1251404289064773
  0.9921336687256369  0.7581439086077726  0.3741261623282633
  0.9955648377710204  0.7565891230098083  0.6260906089888055
  0.9944413063590460  0.7505679386929160  0.8755301477582585
  0.7550225422025136  0.4950230849613187  0.1110901870752968
  0.7441150812601419  0.5075443274880866  0.3640999003017597
  0.7575981944780610  0.4944365386945970  0.6120966024145835
  0.7568403918803002  0.4917955406287371  0.8602673158163946
  0.5015018368290921  0.7429124274148680  0.1262943148491410
  0.4937396258362826  0.7556955506874568  0.3791634482269778
  0.5107966481243733  0.7411102178690636  0.6289125718081463
  0.5214395677722495  0.7544904695084389  0.8778195195303315
  0.2525222530324754  0.9957239401731386  0.1359986665336599
  0.2437407711555810  0.0068442625560207  0.3834615447523698
  0.2595565114784507  0.9906984895523769  0.6355334102877199
  0.2565215028232490  0.9911502912827571  0.8867112181408980
  0.7528412072252585  0.9923124747523777  0.1333655417324443
  0.7438067762145973  0.0074565612249433  0.3814367375817317
  0.7454786533805384  0.0087507286858813  0.6306634248532412
  0.7578157844833404  0.0181500672855510  0.8801114000979048
 
  0.00000000E+00  0.00000000E+00  0.00000000E+00
  0.00000000E+00  0.00000000E+00  0.00000000E+00
  0.00000000E+00  0.00000000E+00  0.00000000E+00
  0.00000000E+00  0.00000000E+00  0.00000000E+00
  0.00000000E+00  0.00000000E+00  0.00000000E+00
  0.00000000E+00  0.00000000E+00  0.00000000E+00
  0.00000000E+00  0.00000000E+00  0.00000000E+00
  0.00000000E+00  0.00000000E+00  0.00000000E+00
  0.00000000E+00  0.00000000E+00  0.00000000E+00
  0.00000000E+00  0.00000000E+00  0.00000000E+00
  0.00000000E+00  0.00000000E+00  0.00000000E+00
  0.00000000E+00  0.00000000E+00  0.00000000E+00
  0.00000000E+00  0.00000000E+00  0.00000000E+00
  0.00000000E+00  0.00000000E+00  0.00000000E+00
  0.00000000E+00  0.00000000E+00  0.00000000E+00
  0.00000000E+00  0.00000000E+00  0.00000000E+00
  0.00000000E+00  0.00000000E+00  0.00000000E+00
  0.00000000E+00  0.00000000E+00  0.00000000E+00
  0.00000000E+00  0.00000000E+00  0.00000000E+00
  0.00000000E+00  0.00000000E+00  0.00000000E+00
  0.00000000E+00  0.00000000E+00  0.00000000E+00
  0.00000000E+00  0.00000000E+00  0.00000000E+00
  0.00000000E+00  0.00000000E+00  0.00000000E+00
  0.00000000E+00  0.00000000E+00  0.00000000E+00
  0.00000000E+00  0.00000000E+00  0.00000000E+00
  0.00000000E+00  0.00000000E+00  0.00000000E+00
  0.00000000E+00  0.00000000E+00  0.00000000E+00
  0.00000000E+00  0.00000000E+00  0.00000000E+00
  0.00000000E+00  0.00000000E+00  0.00000000E+00
  0.00000000E+00  0.00000000E+00  0.00000000E+00
  0.00000000E+00  0.00000000E+00  0.00000000E+00
  0.00000000E+00  0.00000000E+00  0.00000000E+00
  0.00000000E+00  0.00000000E+00  0.00000000E+00
  0.00000000E+00  0.00000000E+00  0.00000000E+00
  0.00000000E+00  0.00000000E+00  0.00000000E+00
  0.00000000E+00  0.00000000E+00  0.00000000E+00
  0.00000000E+00  0.00000000E+00  0.00000000E+00
  0.00000000E+00  0.00000000E+00  0.00000000E+00
  0.00000000E+00  0.00000000E+00  0.00000000E+00
  0.00000000E+00  0.00000000E+00  0.00000000E+00
  0.00000000E+00  0.00000000E+00  0.00000000E+00
  0.00000000E+00  0.00000000E+00  0.00000000E+00
  0.00000000E+00  0.00000000E+00  0.00000000E+00
  0.00000000E+00  0.00000000E+00  0.00000000E+00
  0.00000000E+00  0.00000000E+00  0.00000000E+00
  0.00000000E+00  0.00000000E+00  0.00000000E+00
  0.00000000E+00  0.00000000E+00  0.00000000E+00
  0.00000000E+00  0.00000000E+00  0.00000000E+00
  0.00000000E+00  0.00000000E+00  0.00000000E+00
  0.00000000E+00  0.00000000E+00  0.00000000E+00
  0.00000000E+00  0.00000000E+00  0.00000000E+00
  0.00000000E+00  0.00000000E+00  0.00000000E+00
  0.00000000E+00  0.00000000E+00  0.00000000E+00
  0.00000000E+00  0.00000000E+00  0.00000000E+00
  0.00000000E+00  0.00000000E+00  0.00000000E+00
  0.00000000E+00  0.00000000E+00  0.00000000E+00
  0.00000000E+00  0.00000000E+00  0.00000000E+00
  0.00000000E+00  0.00000000E+00  0.00000000E+00
  0.00000000E+00  0.00000000E+00  0.00000000E+00
  0.00000000E+00  0.00000000E+00  0.00000000E+00
  0.00000000E+00  0.00000000E+00  0.00000000E+00
  0.00000000E+00  0.00000000E+00  0.00000000E+00
  0.00000000E+00  0.00000000E+00  0.00000000E+00
  0.00000000E+00  0.00000000E+00  0.00000000E+00
  0.00000000E+00  0.00000000E+00  0.00000000E+00
  0.00000000E+00  0.00000000E+00  0.00000000E+00
  0.00000000E+00  0.00000000E+00  0.00000000E+00
  0.00000000E+00  0.00000000E+00  0.00000000E+00
  0.00000000E+00  0.00000000E+00  0.00000000E+00
  0.00000000E+00  0.00000000E+00  0.00000000E+00
  0.00000000E+00  0.00000000E+00  0.00000000E+00
  0.00000000E+00  0.00000000E+00  0.00000000E+00
  0.00000000E+00  0.00000000E+00  0.00000000E+00
  0.00000000E+00  0.00000000E+00  0.00000000E+00
  0.00000000E+00  0.00000000E+00  0.00000000E+00
  0.00000000E+00  0.00000000E+00  0.00000000E+00
  0.00000000E+00  0.00000000E+00  0.00000000E+00
  0.00000000E+00  0.00000000E+00  0.00000000E+00
  0.00000000E+00  0.00000000E+00  0.00000000E+00
  0.00000000E+00  0.00000000E+00  0.00000000E+00
  0.00000000E+00  0.00000000E+00  0.00000000E+00
  0.00000000E+00  0.00000000E+00  0.00000000E+00
  0.00000000E+00  0.00000000E+00  0.00000000E+00
  0.00000000E+00  0.00000000E+00  0.00000000E+00
  0.00000000E+00  0.00000000E+00  0.00000000E+00
  0.00000000E+00  0.00000000E+00  0.00000000E+00
  0.00000000E+00  0.00000000E+00  0.00000000E+00
  0.00000000E+00  0.00000000E+00  0.00000000E+00
  0.00000000E+00  0.00000000E+00  0.00000000E+00
  0.00000000E+00  0.00000000E+00  0.00000000E+00
  0.00000000E+00  0.00000000E+00  0.00000000E+00
  0.00000000E+00  0.00000000E+00  0.00000000E+00
  0.00000000E+00  0.00000000E+00  0.00000000E+00
  0.00000000E+00  0.00000000E+00  0.00000000E+00
  0.00000000E+00  0.00000000E+00  0.00000000E+00
  0.00000000E+00  0.00000000E+00  0.00000000E+00
  0.00000000E+00  0.00000000E+00  0.00000000E+00
  0.00000000E+00  0.00000000E+00  0.00000000E+00
  0.00000000E+00  0.00000000E+00  0.00000000E+00
  0.00000000E+00  0.00000000E+00  0.00000000E+00
  0.00000000E+00  0.00000000E+00  0.00000000E+00
  0.00000000E+00  0.00000000E+00  0.00000000E+00
  0.00000000E+00  0.00000000E+00  0.00000000E+00
  0.00000000E+00  0.00000000E+00  0.00000000E+00
  0.00000000E+00  0.00000000E+00  0.00000000E+00
  0.00000000E+00  0.00000000E+00  0.00000000E+00
  0.00000000E+00  0.00000000E+00  0.00000000E+00
  0.00000000E+00  0.00000000E+00  0.00000000E+00
  0.00000000E+00  0.00000000E+00  0.00000000E+00
  0.00000000E+00  0.00000000E+00  0.00000000E+00
  0.00000000E+00  0.00000000E+00  0.00000000E+00
  0.00000000E+00  0.00000000E+00  0.00000000E+00
  0.00000000E+00  0.00000000E+00  0.00000000E+00
  0.00000000E+00  0.00000000E+00  0.00000000E+00
  0.00000000E+00  0.00000000E+00  0.00000000E+00
  0.00000000E+00  0.00000000E+00  0.00000000E+00
  0.00000000E+00  0.00000000E+00  0.00000000E+00
  0.00000000E+00  0.00000000E+00  0.00000000E+00
  0.00000000E+00  0.00000000E+00  0.00000000E+00
  0.00000000E+00  0.00000000E+00  0.00000000E+00
  0.00000000E+00  0.00000000E+00  0.00000000E+00
  0.00000000E+00  0.00000000E+00  0.00000000E+00
  0.00000000E+00  0.00000000E+00  0.00000000E+00
  0.00000000E+00  0.00000000E+00  0.00000000E+00
  0.00000000E+00  0.00000000E+00  0.00000000E+00
  0.00000000E+00  0.00000000E+00  0.00000000E+00
  0.00000000E+00  0.00000000E+00  0.00000000E+00
  0.00000000E+00  0.00000000E+00  0.00000000E+00
  0.00000000E+00  0.00000000E+00  0.00000000E+00
  0.00000000E+00  0.00000000E+00  0.00000000E+00
  0.00000000E+00  0.00000000E+00  0.00000000E+00
  0.00000000E+00  0.00000000E+00  0.00000000E+00
  0.00000000E+00  0.00000000E+00  0.00000000E+00
  0.00000000E+00  0.00000000E+00  0.00000000E+00
  0.00000000E+00  0.00000000E+00  0.00000000E+00
  0.00000000E+00  0.00000000E+00  0.00000000E+00
  0.00000000E+00  0.00000000E+00  0.00000000E+00
  0.00000000E+00  0.00000000E+00  0.00000000E+00
  0.00000000E+00  0.00000000E+00  0.00000000E+00
  0.00000000E+00  0.00000000E+00  0.00000000E+00
  0.00000000E+00  0.00000000E+00  0.00000000E+00
  0.00000000E+00  0.00000000E+00  0.00000000E+00
  0.00000000E+00  0.00000000E+00  0.00000000E+00
  0.00000000E+00  0.00000000E+00  0.00000000E+00
  0.00000000E+00  0.00000000E+00  0.00000000E+00
  0.00000000E+00  0.00000000E+00  0.00000000E+00
  0.00000000E+00  0.00000000E+00  0.00000000E+00
  0.00000000E+00  0.00000000E+00  0.00000000E+00
  0.00000000E+00  0.00000000E+00  0.00000000E+00
  0.00000000E+00  0.00000000E+00  0.00000000E+00
  0.00000000E+00  0.00000000E+00  0.00000000E+00
  0.00000000E+00  0.00000000E+00  0.00000000E+00
  0.00000000E+00  0.00000000E+00  0.00000000E+00
  0.00000000E+00  0.00000000E+00  0.00000000E+00
  0.00000000E+00  0.00000000E+00  0.00000000E+00
  0.00000000E+00  0.00000000E+00  0.00000000E+00
  0.00000000E+00  0.00000000E+00  0.00000000E+00
  0.00000000E+00  0.00000000E+00  0.00000000E+00
  0.00000000E+00  0.00000000E+00  0.00000000E+00
  0.00000000E+00  0.00000000E+00  0.00000000E+00
