Cl Hg Rb                                
   1.00000000000000     
    10.7280309999999997  -10.7280309999999997    0.0000000000000000
    10.7280309999999997   10.7280309999999997    0.0000000000000000
     0.0000000000000000    0.0000000000000000   21.4560609999999983
   Cl   Hg   Rb
    96    32    32
Direct
  0.1471976362712466  0.0986484799934496  0.9642066799302050
  0.1098130067381764  0.1786974232577911  0.2594216966253119
  0.1365812064160177  0.0994687435168755  0.4607873810056945
  0.1136668964702034  0.1743352908181534  0.7662465313723108
  0.6357791285856134  0.0691711064986854  0.0107295710942133
  0.6168771166536352  0.1495545123427680  0.2042349051539046
  0.6371750808069929  0.0719173202634621  0.5155667177975675
  0.6188019843093774  0.1420875215594700  0.7116660524349111
  0.3769169468279177  0.4088427967005603  0.0174162334534664
  0.3657667892872164  0.3576300379998377  0.2389632579386032
  0.3794579923812963  0.3989505768258996  0.5225157124001589
  0.3640497728152953  0.3555694264920130  0.7271161231925580
  0.1493584981711247  0.5967248499560509  0.0295581190565384
  0.1192458057999306  0.6759662116550389  0.2349226300561781
  0.1345677970847785  0.6012122301427553  0.5278207496883538
  0.1172975007414542  0.6723607192169093  0.7333402941302528
  0.8499115280559129  0.3887374199799564  0.9720344863557647
  0.8917067868623347  0.3633533376640534  0.2931368237337759
  0.8438358131489702  0.4050233598850336  0.4781221406449131
  0.8983170435317199  0.3545224660634350  0.7823905857003814
  0.6413475641843537  0.5699497061280482  0.9854674506551582
  0.6115682081217843  0.6494070609295708  0.2869388237598868
  0.6374216064210866  0.5723435034705652  0.4899223938340118
  0.6177120607891248  0.6421521812227139  0.7848096518151295
  0.3753407961371672  0.9037740098750638  0.9728107620774020
  0.3730615523280723  0.8527800265841702  0.2744459943730983
  0.3804432488313822  0.9022800323510453  0.4741694786505052
  0.3716402927375783  0.8487415714150646  0.7700446856692434
  0.8583154429751900  0.8921744964286983  0.0271187303073135
  0.9025832455400936  0.8521673487043019  0.2180453188272480
  0.8488473493734091  0.9017424457174185  0.5271798654778879
  0.8973415874587419  0.8495299464631668  0.7228251017966016
  0.8645196428985688  0.1419016284068969  0.0194188172527659
  0.8874673322820336  0.1072182772055772  0.2288988665759103
  0.8715333063482226  0.1571132837189128  0.5186041358823232
  0.8794890569983668  0.0996316270300937  0.7373044819810417
  0.3970031046950206  0.1486928131167920  0.0106176494298444
  0.3515336464136482  0.1087323044152246  0.2236771934857667
  0.3888259073925062  0.1436094582410131  0.5157148032297231
  0.3484672640730102  0.1049437638517029  0.7180585756873366
  0.1034007897331096  0.3462758670278338  0.9662354651219821
  0.1377661492188605  0.4281913106060972  0.2549573913342672
  0.1042930571299723  0.3566642812015476  0.4535838481310422
  0.1400713450127483  0.4263784258891806  0.7579284226411743
  0.8677411354192019  0.6408979940391945  0.0183243367967206
  0.8818207020633186  0.6016851851352161  0.2301001067785951
  0.8706797283539219  0.6504751831461607  0.5152012851743967
  0.8833547897648272  0.6001036657789611  0.7328230383661249
  0.6108846911798895  0.3229555726046995  0.0105832216524584
  0.6382442267178230  0.3922402017982061  0.2873565100355060
  0.6081858471461667  0.3204985267013762  0.4995046837604607
  0.6332299565556185  0.3871436190044490  0.8005755286189122
  0.4138542923192995  0.6627036887796566  0.0247740754509490
  0.3617236802233749  0.6092108794223671  0.2384120907456749
  0.4024306299329472  0.6503820677908990  0.5265217644771621
  0.3627929482735406  0.6051769379941604  0.7227273628655277
  0.1108632517189128  0.8423507472014637  0.9809336340088556
  0.1368035271944211  0.9263542442323350  0.2672152176218353
  0.1018887807881268  0.8502041018081410  0.4817500887084045
  0.1355330136349107  0.9217334145891337  0.7563794793035887
  0.6184676763637098  0.8252667139072560  0.9851675883384599
  0.6443774317903954  0.9020312721121858  0.2602413353274681
  0.6140492940342096  0.8243440218694682  0.4859062569068923
  0.6378997280729717  0.8935552349471311  0.7717267661769730
  0.0429421370268210  0.0190030686360572  0.1074034028228310
  0.9455195968458261  0.9964738593122393  0.3819218306104136
  0.0324740229822114  0.0255091495448807  0.6070849556126789
  0.9605408822763329  0.9934357408056204  0.8847600085242837
  0.4854336715817273  0.9540469687375512  0.1324269701635697
  0.5041183657581162  0.0417106527462568  0.3558735000051745
  0.4941721081137905  0.9500618761694132  0.6342983192102389
  0.4939108951755160  0.0388573191576499  0.8558331427266491
  0.2253175141060284  0.2630831895113619  0.1058493485952318
  0.2950557963948215  0.2585630168117293  0.3826358955266543
  0.2037547594418530  0.2605411774926932  0.6032486227582097
  0.2979731002429266  0.2668219770211875  0.8790363049740260
  0.9872400355218882  0.4635353717311257  0.1088032047539421
  0.0015422764625663  0.5587243326945492  0.3856719308878152
  0.9905771068463157  0.4585935334353040  0.6106918421615593
  0.0060895900252206  0.5510454984245433  0.8892953072516343
  0.7855842004162551  0.2935258264186674  0.1459061688168024
  0.7396596632469541  0.1936010461150732  0.3619995217479742
  0.7663156138517698  0.2950483904691011  0.6459294543645957
  0.7427588883731912  0.1929006826615538  0.8654337062789221
  0.5336859356264350  0.4905931796494344  0.1448286558774823
  0.4549510920478987  0.4912880685448571  0.3724031069339794
  0.5470624431107011  0.4808147626398878  0.6476795564904639
  0.4474267616752267  0.5021445167582269  0.8677090994572262
  0.2576095492489492  0.7992082980816720  0.1150543450115279
  0.2512206869207638  0.7157095798086953  0.3910148797520571
  0.2518415530716632  0.7988614291172020  0.6128328364595095
  0.2572011193851056  0.7096624984699895  0.8877800407603801
  0.7147436700460437  0.7276213271635038  0.1409081913502313
  0.7975353202775669  0.7571514183168713  0.3637705669680072
  0.7168506785801302  0.7320951407801934  0.6407984831358973
  0.8027849579575832  0.7505138483902631  0.8675962054965033
  0.0090878802285763  0.9828666620072644  0.9963239491509065
  0.9988671469535017  0.9972522989573575  0.2451507965967653
  0.9987691503123921  0.9879206286191466  0.4941388488041378
  0.9986742730043638  0.9967411529934701  0.7415803036393708
  0.4967692018586221  0.9970842442126487  0.9998481614775474
  0.5093975036581400  0.0217327068432919  0.2393164616241835
  0.4966153627548680  0.0028206191788802  0.5018329313003458
  0.5044424699834984  0.0174039292413771  0.7409618375042915
  0.2430718610109326  0.2397935758550931  0.9895913253884893
  0.2480966122136399  0.2523038835109515  0.2495606770455672
  0.2340585265704625  0.2406413880392073  0.4906585008007375
  0.2502377376883591  0.2497068432730641  0.7480734497879759
  0.0022864800549778  0.4864480507532769  0.9956442443777913
  0.9938124774708744  0.4949849052647557  0.2579364219794883
  0.0015331675366817  0.4845103105415082  0.4934766903673285
  0.9977895934027118  0.4933877171640929  0.7493003092958568
  0.7514418806733040  0.2514960966156249  0.0076773242452534
  0.7477992031968070  0.2599316906601490  0.2559433466622269
  0.7503767479450978  0.2548919977770018  0.5046494366423365
  0.7413298092132692  0.2634050266238750  0.7590365760905623
  0.4988103058411899  0.5074117325963414  0.0021594744357433
  0.5108022345742491  0.5109366918203869  0.2606335538564535
  0.4977727301671376  0.5019606924890979  0.5062043299510135
  0.5085078745511685  0.5050406057541018  0.7591210690343991
  0.2527587853804310  0.7329336959515513  0.0054915633710678
  0.2547915309077837  0.7550709967392413  0.2468864994473049
  0.2452266667225665  0.7360661772719012  0.5059809767040265
  0.2575629705598052  0.7428584682710543  0.7479972949708052
  0.7544118108479133  0.7494174991664365  0.0038302026163870
  0.7515749169300040  0.7618652087856227  0.2519613117938651
  0.7516167029057833  0.7527610990137290  0.5055503892287460
  0.7475928821362237  0.7600979232783577  0.7559033976320849
  0.0021205413273415  0.2441511244956406  0.1249807250265007
  0.9730713273817737  0.2165993852244152  0.3835115666402513
  0.9850055836578110  0.2450809172350273  0.6418436774214173
  0.9704749430583494  0.2182481203225976  0.8870007021290710
  0.4755343804457910  0.2645203757776476  0.1251440859363444
  0.5111072573692670  0.2605953589955765  0.3683522990759757
  0.4901261253183862  0.2575178398448317  0.6234637883326202
  0.5134841188648898  0.2519658702122295  0.8829140163003193
  0.2565923978769078  0.4925536810117442  0.1345078069939942
  0.2373634553778566  0.4972903475833928  0.3841134601068575
  0.2424867260515580  0.4868819450761678  0.6280374953226726
  0.2322629837548257  0.4910905582737177  0.8920606467944976
  0.0156373978461235  0.7518259101536688  0.1067398263184726
  0.0140401806200246  0.7735983857184925  0.3543969074759946
  0.0125521696469075  0.7609491621121108  0.6083097562632866
  0.0179832200468440  0.7695407833475585  0.8539032441401042
  0.7569317082689306  0.5038909426661322  0.1158804956758771
  0.7716472239078385  0.5290397111177648  0.3643701694948152
  0.7653333050997554  0.5085182356024052  0.6141047115249730
  0.7779402409841067  0.5228551852290791  0.8642120283390347
  0.4975596947424558  0.7399814335911383  0.1564383813224334
  0.4719856969200819  0.7262112486450580  0.3881201495227316
  0.4998909239168096  0.7353976716001585  0.6495166861377312
  0.4792307019827723  0.7342687851183450  0.8827280787602243
  0.2626693849003532  0.0153842621762365  0.0980802344450687
  0.2823244378273098  0.0248412669687692  0.3615076751829598
  0.2512610283842843  0.0140501174162079  0.5961142335397459
  0.2740868280580441  0.0211324568732149  0.8553342234005754
  0.7468396400738293  0.9906397646673957  0.1375292720643299
  0.7297131635899889  0.9755319756063455  0.3910197098103451
  0.7369950492612994  0.9807141039511604  0.6442459325166880
  0.7435624539430468  0.9743953348032484  0.8924929817977822
 
  0.00000000E+00  0.00000000E+00  0.00000000E+00
  0.00000000E+00  0.00000000E+00  0.00000000E+00
  0.00000000E+00  0.00000000E+00  0.00000000E+00
  0.00000000E+00  0.00000000E+00  0.00000000E+00
  0.00000000E+00  0.00000000E+00  0.00000000E+00
  0.00000000E+00  0.00000000E+00  0.00000000E+00
  0.00000000E+00  0.00000000E+00  0.00000000E+00
  0.00000000E+00  0.00000000E+00  0.00000000E+00
  0.00000000E+00  0.00000000E+00  0.00000000E+00
  0.00000000E+00  0.00000000E+00  0.00000000E+00
  0.00000000E+00  0.00000000E+00  0.00000000E+00
  0.00000000E+00  0.00000000E+00  0.00000000E+00
  0.00000000E+00  0.00000000E+00  0.00000000E+00
  0.00000000E+00  0.00000000E+00  0.00000000E+00
  0.00000000E+00  0.00000000E+00  0.00000000E+00
  0.00000000E+00  0.00000000E+00  0.00000000E+00
  0.00000000E+00  0.00000000E+00  0.00000000E+00
  0.00000000E+00  0.00000000E+00  0.00000000E+00
  0.00000000E+00  0.00000000E+00  0.00000000E+00
  0.00000000E+00  0.00000000E+00  0.00000000E+00
  0.00000000E+00  0.00000000E+00  0.00000000E+00
  0.00000000E+00  0.00000000E+00  0.00000000E+00
  0.00000000E+00  0.00000000E+00  0.00000000E+00
  0.00000000E+00  0.00000000E+00  0.00000000E+00
  0.00000000E+00  0.00000000E+00  0.00000000E+00
  0.00000000E+00  0.00000000E+00  0.00000000E+00
  0.00000000E+00  0.00000000E+00  0.00000000E+00
  0.00000000E+00  0.00000000E+00  0.00000000E+00
  0.00000000E+00  0.00000000E+00  0.00000000E+00
  0.00000000E+00  0.00000000E+00  0.00000000E+00
  0.00000000E+00  0.00000000E+00  0.00000000E+00
  0.00000000E+00  0.00000000E+00  0.00000000E+00
  0.00000000E+00  0.00000000E+00  0.00000000E+00
  0.00000000E+00  0.00000000E+00  0.00000000E+00
  0.00000000E+00  0.00000000E+00  0.00000000E+00
  0.00000000E+00  0.00000000E+00  0.00000000E+00
  0.00000000E+00  0.00000000E+00  0.00000000E+00
  0.00000000E+00  0.00000000E+00  0.00000000E+00
  0.00000000E+00  0.00000000E+00  0.00000000E+00
  0.00000000E+00  0.00000000E+00  0.00000000E+00
  0.00000000E+00  0.00000000E+00  0.00000000E+00
  0.00000000E+00  0.00000000E+00  0.00000000E+00
  0.00000000E+00  0.00000000E+00  0.00000000E+00
  0.00000000E+00  0.00000000E+00  0.00000000E+00
  0.00000000E+00  0.00000000E+00  0.00000000E+00
  0.00000000E+00  0.00000000E+00  0.00000000E+00
  0.00000000E+00  0.00000000E+00  0.00000000E+00
  0.00000000E+00  0.00000000E+00  0.00000000E+00
  0.00000000E+00  0.00000000E+00  0.00000000E+00
  0.00000000E+00  0.00000000E+00  0.00000000E+00
  0.00000000E+00  0.00000000E+00  0.00000000E+00
  0.00000000E+00  0.00000000E+00  0.00000000E+00
  0.00000000E+00  0.00000000E+00  0.00000000E+00
  0.00000000E+00  0.00000000E+00  0.00000000E+00
  0.00000000E+00  0.00000000E+00  0.00000000E+00
  0.00000000E+00  0.00000000E+00  0.00000000E+00
  0.00000000E+00  0.00000000E+00  0.00000000E+00
  0.00000000E+00  0.00000000E+00  0.00000000E+00
  0.00000000E+00  0.00000000E+00  0.00000000E+00
  0.00000000E+00  0.00000000E+00  0.00000000E+00
  0.00000000E+00  0.00000000E+00  0.00000000E+00
  0.00000000E+00  0.00000000E+00  0.00000000E+00
  0.00000000E+00  0.00000000E+00  0.00000000E+00
  0.00000000E+00  0.00000000E+00  0.00000000E+00
  0.00000000E+00  0.00000000E+00  0.00000000E+00
  0.00000000E+00  0.00000000E+00  0.00000000E+00
  0.00000000E+00  0.00000000E+00  0.00000000E+00
  0.00000000E+00  0.00000000E+00  0.00000000E+00
  0.00000000E+00  0.00000000E+00  0.00000000E+00
  0.00000000E+00  0.00000000E+00  0.00000000E+00
  0.00000000E+00  0.00000000E+00  0.00000000E+00
  0.00000000E+00  0.00000000E+00  0.00000000E+00
  0.00000000E+00  0.00000000E+00  0.00000000E+00
  0.00000000E+00  0.00000000E+00  0.00000000E+00
  0.00000000E+00  0.00000000E+00  0.00000000E+00
  0.00000000E+00  0.00000000E+00  0.00000000E+00
  0.00000000E+00  0.00000000E+00  0.00000000E+00
  0.00000000E+00  0.00000000E+00  0.00000000E+00
  0.00000000E+00  0.00000000E+00  0.00000000E+00
  0.00000000E+00  0.00000000E+00  0.00000000E+00
  0.00000000E+00  0.00000000E+00  0.00000000E+00
  0.00000000E+00  0.00000000E+00  0.00000000E+00
  0.00000000E+00  0.00000000E+00  0.00000000E+00
  0.00000000E+00  0.00000000E+00  0.00000000E+00
  0.00000000E+00  0.00000000E+00  0.00000000E+00
  0.00000000E+00  0.00000000E+00  0.00000000E+00
  0.00000000E+00  0.00000000E+00  0.00000000E+00
  0.00000000E+00  0.00000000E+00  0.00000000E+00
  0.00000000E+00  0.00000000E+00  0.00000000E+00
  0.00000000E+00  0.00000000E+00  0.00000000E+00
  0.00000000E+00  0.00000000E+00  0.00000000E+00
  0.00000000E+00  0.00000000E+00  0.00000000E+00
  0.00000000E+00  0.00000000E+00  0.00000000E+00
  0.00000000E+00  0.00000000E+00  0.00000000E+00
  0.00000000E+00  0.00000000E+00  0.00000000E+00
  0.00000000E+00  0.00000000E+00  0.00000000E+00
  0.00000000E+00  0.00000000E+00  0.00000000E+00
  0.00000000E+00  0.00000000E+00  0.00000000E+00
  0.00000000E+00  0.00000000E+00  0.00000000E+00
  0.00000000E+00  0.00000000E+00  0.00000000E+00
  0.00000000E+00  0.00000000E+00  0.00000000E+00
  0.00000000E+00  0.00000000E+00  0.00000000E+00
  0.00000000E+00  0.00000000E+00  0.00000000E+00
  0.00000000E+00  0.00000000E+00  0.00000000E+00
  0.00000000E+00  0.00000000E+00  0.00000000E+00
  0.00000000E+00  0.00000000E+00  0.00000000E+00
  0.00000000E+00  0.00000000E+00  0.00000000E+00
  0.00000000E+00  0.00000000E+00  0.00000000E+00
  0.00000000E+00  0.00000000E+00  0.00000000E+00
  0.00000000E+00  0.00000000E+00  0.00000000E+00
  0.00000000E+00  0.00000000E+00  0.00000000E+00
  0.00000000E+00  0.00000000E+00  0.00000000E+00
  0.00000000E+00  0.00000000E+00  0.00000000E+00
  0.00000000E+00  0.00000000E+00  0.00000000E+00
  0.00000000E+00  0.00000000E+00  0.00000000E+00
  0.00000000E+00  0.00000000E+00  0.00000000E+00
  0.00000000E+00  0.00000000E+00  0.00000000E+00
  0.00000000E+00  0.00000000E+00  0.00000000E+00
  0.00000000E+00  0.00000000E+00  0.00000000E+00
  0.00000000E+00  0.00000000E+00  0.00000000E+00
  0.00000000E+00  0.00000000E+00  0.00000000E+00
  0.00000000E+00  0.00000000E+00  0.00000000E+00
  0.00000000E+00  0.00000000E+00  0.00000000E+00
  0.00000000E+00  0.00000000E+00  0.00000000E+00
  0.00000000E+00  0.00000000E+00  0.00000000E+00
  0.00000000E+00  0.00000000E+00  0.00000000E+00
  0.00000000E+00  0.00000000E+00  0.00000000E+00
  0.00000000E+00  0.00000000E+00  0.00000000E+00
  0.00000000E+00  0.00000000E+00  0.00000000E+00
  0.00000000E+00  0.00000000E+00  0.00000000E+00
  0.00000000E+00  0.00000000E+00  0.00000000E+00
  0.00000000E+00  0.00000000E+00  0.00000000E+00
  0.00000000E+00  0.00000000E+00  0.00000000E+00
  0.00000000E+00  0.00000000E+00  0.00000000E+00
  0.00000000E+00  0.00000000E+00  0.00000000E+00
  0.00000000E+00  0.00000000E+00  0.00000000E+00
  0.00000000E+00  0.00000000E+00  0.00000000E+00
  0.00000000E+00  0.00000000E+00  0.00000000E+00
  0.00000000E+00  0.00000000E+00  0.00000000E+00
  0.00000000E+00  0.00000000E+00  0.00000000E+00
  0.00000000E+00  0.00000000E+00  0.00000000E+00
  0.00000000E+00  0.00000000E+00  0.00000000E+00
  0.00000000E+00  0.00000000E+00  0.00000000E+00
  0.00000000E+00  0.00000000E+00  0.00000000E+00
  0.00000000E+00  0.00000000E+00  0.00000000E+00
  0.00000000E+00  0.00000000E+00  0.00000000E+00
  0.00000000E+00  0.00000000E+00  0.00000000E+00
  0.00000000E+00  0.00000000E+00  0.00000000E+00
  0.00000000E+00  0.00000000E+00  0.00000000E+00
  0.00000000E+00  0.00000000E+00  0.00000000E+00
  0.00000000E+00  0.00000000E+00  0.00000000E+00
  0.00000000E+00  0.00000000E+00  0.00000000E+00
  0.00000000E+00  0.00000000E+00  0.00000000E+00
  0.00000000E+00  0.00000000E+00  0.00000000E+00
  0.00000000E+00  0.00000000E+00  0.00000000E+00
  0.00000000E+00  0.00000000E+00  0.00000000E+00
  0.00000000E+00  0.00000000E+00  0.00000000E+00
  0.00000000E+00  0.00000000E+00  0.00000000E+00
  0.00000000E+00  0.00000000E+00  0.00000000E+00
  0.00000000E+00  0.00000000E+00  0.00000000E+00
