Cs I Cd                                 
   1.00000000000000     
    12.0973959999999998  -12.0973959999999998    0.0000000000000000
    12.0973959999999998   12.0973959999999998    0.0000000000000000
     0.0000000000000000    0.0000000000000000   24.1947930000000007
   Cd   Cs   I 
    32    32    96
Direct
  0.0001987665939962  0.9833201308697520  0.0074057899620294
  0.9657416016584328  0.9964241108383602  0.2345365162373882
  0.9900637111063209  0.0281231827196708  0.4976342798409296
  0.0348954849873441  0.0195100715198449  0.7673190036753110
  0.4722316266382566  0.0005639687150179  0.9907295951200554
  0.5236958991731168  0.9718427066233091  0.2603029833060286
  0.5244557989884592  0.9945630697316584  0.5186753363338905
  0.5102570242274544  0.0118267192343410  0.7529812623515586
  0.2284382649260429  0.2331345232375252  0.0035725804380701
  0.2429127616233886  0.2795002119440844  0.2691027816566632
  0.2176997393036204  0.2473903715693019  0.4866115049936889
  0.2998870803583062  0.2449776258363729  0.7420984457337946
  0.9913663641299811  0.5087702216212500  0.9932124774788021
  0.9872128527647441  0.5069981219729316  0.2596629749823826
  0.0096797489593481  0.4914947000236046  0.4906239233748045
  0.0238294666245934  0.5062256557813740  0.7663714453860258
  0.7324288042645586  0.2790353892548629  0.9843747836988361
  0.7306307574296871  0.2597419426434229  0.2496560353920815
  0.7806587177161356  0.2563471843616407  0.5188589011650657
  0.7189536513812427  0.2563991307430123  0.7418923831812334
  0.4638651071723544  0.5252940199472114  0.0053725620199384
  0.4897894239620554  0.5188113591536876  0.2434667931771133
  0.4834455903024155  0.5301320632927872  0.4856127976174311
  0.4751560583128341  0.4925818144603288  0.7588184099715927
  0.2445812733362448  0.7518763464541049  0.9858707172343738
  0.2488153224685235  0.7235014246920978  0.2198074775467348
  0.2326753652806737  0.7560238077177027  0.4853992716856735
  0.2803228886921108  0.7586047501111621  0.7627508646617142
  0.7976318266837701  0.7480680627460573  0.0305315794161788
  0.7559717307813207  0.7348525873012913  0.2600449613616476
  0.8061795763814108  0.7298166410229915  0.4787913454960948
  0.7352114481932575  0.7497205712710938  0.7608225532906557
  0.9650438848375371  0.2206589742693675  0.1359436915060551
  0.9564910806631882  0.2330735371283865  0.3579483205696715
  0.9783084830988213  0.2306350796147489  0.6470358722684882
  0.9798214709357104  0.2231665774318217  0.8928332786537247
  0.5018966433530380  0.2552426755607491  0.1092111691547850
  0.4873718761084555  0.2448954375695069  0.3623143010084511
  0.5145903279108516  0.2735970503705077  0.5933451014320072
  0.5280802424475082  0.2803032241723725  0.8894822797537815
  0.2227749379796767  0.4785482075744155  0.1416367578703037
  0.2580545824344953  0.5342492671667781  0.3937514533850009
  0.2366211411967717  0.5012258686578588  0.6492345534772629
  0.2028259194813444  0.4725442581900264  0.9002295336758117
  0.0421483490080748  0.7383849494541131  0.1181838755949950
  0.0526679302034223  0.7792373749635626  0.3574853865772765
  0.0050028422167914  0.7569795579258766  0.6124906131743088
  0.0003704336213121  0.7507070456836922  0.8407782714767783
  0.7536792811412355  0.4822317121341495  0.1264266897068836
  0.7240824365271751  0.4831711048611884  0.3559644595927789
  0.7770401608494433  0.5090157235769240  0.6107878847987416
  0.7569468209533432  0.5042760940019824  0.8428894313734658
  0.5034569454964052  0.7669535132456976  0.1291642761050497
  0.4894800782890710  0.7632565648095988  0.4138090315681179
  0.4846784155771636  0.7485786555674521  0.6320991982777970
  0.5286457414900702  0.7517354092489427  0.8918452388905326
  0.2693363446155434  0.0256828161075146  0.1259942713064311
  0.2689726929457378  0.0118862129030445  0.3704655192246180
  0.2662158978887261  0.0244483238999687  0.6243847772819163
  0.2607891166763012  0.0215983301990685  0.8746359591677380
  0.7333034201374250  0.0231307215039141  0.1176468919840780
  0.7270116232305355  0.9803235828465560  0.3745213802680404
  0.7381278339254469  0.9696837459701850  0.6344954526433118
  0.7729200945757279  0.9613798487068935  0.8787143445762734
  0.1061887922561878  0.1188129323214695  0.0337937819425420
  0.0996561330201331  0.0859508568988427  0.2356625501927822
  0.1111222987840395  0.1434021322967274  0.5401182693330271
  0.1603959919410489  0.1387816492684168  0.7460674519724293
  0.6417933689020215  0.1442810662159697  0.9945741719390891
  0.5872857826746640  0.1193032704535529  0.2379034341254534
  0.5954828011061440  0.1318943687088984  0.4834162113649901
  0.6615284716727038  0.0999130334789334  0.7721293454050353
  0.3797382642435307  0.3895506619010154  0.9833664568516979
  0.3446447532344890  0.4113282530111554  0.2815578713509951
  0.4058874631059669  0.3919755597605455  0.4830667593852406
  0.3375410082889853  0.3936257884924992  0.7901525742004373
  0.0935887939762387  0.6430734298047235  0.9755298362818495
  0.1430995308136243  0.6070467436822691  0.2657279046979878
  0.1006563507596917  0.6479441445765530  0.4781037132493047
  0.1546820795986132  0.6072831341425073  0.7822247445536797
  0.8769060681595678  0.3390269650060047  0.0179383440936927
  0.8644421444570696  0.3795383891653921  0.2501217722639277
  0.9308096002291302  0.3306358502817093  0.5058575583779354
  0.8399968394294852  0.3657182161281859  0.7250710271536805
  0.5852007711974384  0.6298232322608984  0.0177988560362344
  0.6351696436716450  0.6184024212551813  0.2235329583654709
  0.6038316762994610  0.6190559301226241  0.5235287630034066
  0.6537381120496326  0.6232010746118697  0.7181810191341669
  0.3901407611765186  0.8531566463202777  0.0006037594471548
  0.3842363295123788  0.9044995173620962  0.2281172885674002
  0.3856568307594262  0.9083236089111789  0.5190898351788952
  0.3647276961143113  0.9176691202752472  0.7500781668541628
  0.9245628910234441  0.8267546413266382  0.9786698341209035
  0.8869220672840112  0.8690454802337264  0.2833191998484100
  0.9039218506775654  0.8567493905020996  0.4594320694062931
  0.8589687344011676  0.8509328985790283  0.7377362704107876
  0.8689242044017549  0.0835161307024950  0.9925836800414050
  0.8409650707293476  0.1070349048022509  0.2532675770341287
  0.8391911639082433  0.1128190202741594  0.4716222492720811
  0.8978170651929631  0.1026174099339871  0.7646167294772163
  0.3801108161600775  0.1395516861642072  0.9790505504958730
  0.3449092701799564  0.1556079285154369  0.2503070403868902
  0.3566979408199827  0.1622023149122743  0.4847759110025032
  0.4113547126257439  0.1472272728669076  0.7950582589754857
  0.0979300364917377  0.3906418996124270  0.0275317932800813
  0.1020593907011526  0.3396039863577949  0.2281169755575998
  0.1701117857616802  0.4013565357118741  0.5107743862622486
  0.0949690646919411  0.3659775848917531  0.7405015263810680
  0.8385653402585602  0.5856399771249918  0.9967037690639338
  0.8853415395995780  0.6309217160234223  0.3000126225316226
  0.8564698851985526  0.5700827643221803  0.4658796559721281
  0.9022755058094923  0.6063921616755985  0.7392044341591320
  0.6248656740755150  0.3990799231823050  0.0102786084628860
  0.5865505789530607  0.3757734818365501  0.2443958163782757
  0.6719047180234243  0.3749800604650755  0.5020578845626005
  0.5754746264755197  0.3380174152451292  0.7373523437942179
  0.3468862093884931  0.6282457469684615  0.9472738600349481
  0.3949016221669917  0.6682099077208828  0.2589710956908399
  0.3503239948605036  0.6440316225223685  0.5199974719456060
  0.4137545177078035  0.6632283090553591  0.7749740884653125
  0.1544267468763017  0.8862296081646654  0.0240514112630922
  0.1588391534214684  0.8581927347006859  0.2248193619494554
  0.1510692529937682  0.8840652905294651  0.5252207495811879
  0.1083797102619338  0.8921993168158421  0.7234405213868764
  0.6719020809364037  0.8494688320203057  0.0197952940850214
  0.6553668431205513  0.8720649746720344  0.2271973114610916
  0.6366961075992059  0.8749947275393251  0.5133879826022290
  0.6016362563718868  0.8628374271219692  0.7450865108226736
  0.9485659851590070  0.9434717544736321  0.1221507611077753
  0.0400929250678267  0.0171072213659703  0.3891144558001823
  0.9586849171139099  0.9927452697985152  0.6069842820728205
  0.0413477252191902  0.9828934818958007  0.8848039991157215
  0.5106836284916771  0.0113894808133686  0.1014322063371267
  0.4993324336139039  0.9770252198442436  0.3753766665133912
  0.5057751188123697  0.0547980450578878  0.6367274217730563
  0.5403463937468027  0.9783689039675560  0.8869092117036106
  0.2718905859713897  0.2610236409090035  0.1110300642608386
  0.1752983150949133  0.2262812762953544  0.3725194511806202
  0.2953686122762468  0.2687306039412940  0.6299167610939814
  0.2024812126040609  0.2497414110404402  0.8922042672401796
  0.9881080609632987  0.5234266707615350  0.1424617185423566
  0.0366886816431179  0.4527285952156701  0.3709504073327364
  0.0085879902934507  0.5206527256538966  0.6059119383347967
  0.9727397020046580  0.4538161831042743  0.8789149161364163
  0.7312630759647430  0.2495261982324096  0.1359466009740869
  0.7177467182627564  0.2506579082153195  0.3625672675914998
  0.7418999337681152  0.1921061842875794  0.6250512166130283
  0.7614756970635574  0.2790945461857983  0.8663142689546374
  0.4454122258150167  0.4919623879927431  0.1296368741490525
  0.5120590130493274  0.5476122400636613  0.3661432982231821
  0.4641995588711672  0.5036891299600567  0.6447293351674614
  0.5380383995874919  0.5088846252314906  0.8647119381089995
  0.2731756470846278  0.6899058176290112  0.1038500596213848
  0.2740074467139272  0.7845111107720942  0.3746717593899678
  0.2438635891590755  0.7414211235636456  0.6513723312167626
  0.2177947934193892  0.8040401595489041  0.8670101847185652
  0.8217400258763792  0.7142693822957344  0.1453519988640009
  0.7068607780577842  0.7404577230020389  0.3781859167380369
  0.7809421554639874  0.7330452344915074  0.5931960906202015
  0.7507150829445353  0.7272017318523855  0.8757234548824692
 
  0.00000000E+00  0.00000000E+00  0.00000000E+00
  0.00000000E+00  0.00000000E+00  0.00000000E+00
  0.00000000E+00  0.00000000E+00  0.00000000E+00
  0.00000000E+00  0.00000000E+00  0.00000000E+00
  0.00000000E+00  0.00000000E+00  0.00000000E+00
  0.00000000E+00  0.00000000E+00  0.00000000E+00
  0.00000000E+00  0.00000000E+00  0.00000000E+00
  0.00000000E+00  0.00000000E+00  0.00000000E+00
  0.00000000E+00  0.00000000E+00  0.00000000E+00
  0.00000000E+00  0.00000000E+00  0.00000000E+00
  0.00000000E+00  0.00000000E+00  0.00000000E+00
  0.00000000E+00  0.00000000E+00  0.00000000E+00
  0.00000000E+00  0.00000000E+00  0.00000000E+00
  0.00000000E+00  0.00000000E+00  0.00000000E+00
  0.00000000E+00  0.00000000E+00  0.00000000E+00
  0.00000000E+00  0.00000000E+00  0.00000000E+00
  0.00000000E+00  0.00000000E+00  0.00000000E+00
  0.00000000E+00  0.00000000E+00  0.00000000E+00
  0.00000000E+00  0.00000000E+00  0.00000000E+00
  0.00000000E+00  0.00000000E+00  0.00000000E+00
  0.00000000E+00  0.00000000E+00  0.00000000E+00
  0.00000000E+00  0.00000000E+00  0.00000000E+00
  0.00000000E+00  0.00000000E+00  0.00000000E+00
  0.00000000E+00  0.00000000E+00  0.00000000E+00
  0.00000000E+00  0.00000000E+00  0.00000000E+00
  0.00000000E+00  0.00000000E+00  0.00000000E+00
  0.00000000E+00  0.00000000E+00  0.00000000E+00
  0.00000000E+00  0.00000000E+00  0.00000000E+00
  0.00000000E+00  0.00000000E+00  0.00000000E+00
  0.00000000E+00  0.00000000E+00  0.00000000E+00
  0.00000000E+00  0.00000000E+00  0.00000000E+00
  0.00000000E+00  0.00000000E+00  0.00000000E+00
  0.00000000E+00  0.00000000E+00  0.00000000E+00
  0.00000000E+00  0.00000000E+00  0.00000000E+00
  0.00000000E+00  0.00000000E+00  0.00000000E+00
  0.00000000E+00  0.00000000E+00  0.00000000E+00
  0.00000000E+00  0.00000000E+00  0.00000000E+00
  0.00000000E+00  0.00000000E+00  0.00000000E+00
  0.00000000E+00  0.00000000E+00  0.00000000E+00
  0.00000000E+00  0.00000000E+00  0.00000000E+00
  0.00000000E+00  0.00000000E+00  0.00000000E+00
  0.00000000E+00  0.00000000E+00  0.00000000E+00
  0.00000000E+00  0.00000000E+00  0.00000000E+00
  0.00000000E+00  0.00000000E+00  0.00000000E+00
  0.00000000E+00  0.00000000E+00  0.00000000E+00
  0.00000000E+00  0.00000000E+00  0.00000000E+00
  0.00000000E+00  0.00000000E+00  0.00000000E+00
  0.00000000E+00  0.00000000E+00  0.00000000E+00
  0.00000000E+00  0.00000000E+00  0.00000000E+00
  0.00000000E+00  0.00000000E+00  0.00000000E+00
  0.00000000E+00  0.00000000E+00  0.00000000E+00
  0.00000000E+00  0.00000000E+00  0.00000000E+00
  0.00000000E+00  0.00000000E+00  0.00000000E+00
  0.00000000E+00  0.00000000E+00  0.00000000E+00
  0.00000000E+00  0.00000000E+00  0.00000000E+00
  0.00000000E+00  0.00000000E+00  0.00000000E+00
  0.00000000E+00  0.00000000E+00  0.00000000E+00
  0.00000000E+00  0.00000000E+00  0.00000000E+00
  0.00000000E+00  0.00000000E+00  0.00000000E+00
  0.00000000E+00  0.00000000E+00  0.00000000E+00
  0.00000000E+00  0.00000000E+00  0.00000000E+00
  0.00000000E+00  0.00000000E+00  0.00000000E+00
  0.00000000E+00  0.00000000E+00  0.00000000E+00
  0.00000000E+00  0.00000000E+00  0.00000000E+00
  0.00000000E+00  0.00000000E+00  0.00000000E+00
  0.00000000E+00  0.00000000E+00  0.00000000E+00
  0.00000000E+00  0.00000000E+00  0.00000000E+00
  0.00000000E+00  0.00000000E+00  0.00000000E+00
  0.00000000E+00  0.00000000E+00  0.00000000E+00
  0.00000000E+00  0.00000000E+00  0.00000000E+00
  0.00000000E+00  0.00000000E+00  0.00000000E+00
  0.00000000E+00  0.00000000E+00  0.00000000E+00
  0.00000000E+00  0.00000000E+00  0.00000000E+00
  0.00000000E+00  0.00000000E+00  0.00000000E+00
  0.00000000E+00  0.00000000E+00  0.00000000E+00
  0.00000000E+00  0.00000000E+00  0.00000000E+00
  0.00000000E+00  0.00000000E+00  0.00000000E+00
  0.00000000E+00  0.00000000E+00  0.00000000E+00
  0.00000000E+00  0.00000000E+00  0.00000000E+00
  0.00000000E+00  0.00000000E+00  0.00000000E+00
  0.00000000E+00  0.00000000E+00  0.00000000E+00
  0.00000000E+00  0.00000000E+00  0.00000000E+00
  0.00000000E+00  0.00000000E+00  0.00000000E+00
  0.00000000E+00  0.00000000E+00  0.00000000E+00
  0.00000000E+00  0.00000000E+00  0.00000000E+00
  0.00000000E+00  0.00000000E+00  0.00000000E+00
  0.00000000E+00  0.00000000E+00  0.00000000E+00
  0.00000000E+00  0.00000000E+00  0.00000000E+00
  0.00000000E+00  0.00000000E+00  0.00000000E+00
  0.00000000E+00  0.00000000E+00  0.00000000E+00
  0.00000000E+00  0.00000000E+00  0.00000000E+00
  0.00000000E+00  0.00000000E+00  0.00000000E+00
  0.00000000E+00  0.00000000E+00  0.00000000E+00
  0.00000000E+00  0.00000000E+00  0.00000000E+00
  0.00000000E+00  0.00000000E+00  0.00000000E+00
  0.00000000E+00  0.00000000E+00  0.00000000E+00
  0.00000000E+00  0.00000000E+00  0.00000000E+00
  0.00000000E+00  0.00000000E+00  0.00000000E+00
  0.00000000E+00  0.00000000E+00  0.00000000E+00
  0.00000000E+00  0.00000000E+00  0.00000000E+00
  0.00000000E+00  0.00000000E+00  0.00000000E+00
  0.00000000E+00  0.00000000E+00  0.00000000E+00
  0.00000000E+00  0.00000000E+00  0.00000000E+00
  0.00000000E+00  0.00000000E+00  0.00000000E+00
  0.00000000E+00  0.00000000E+00  0.00000000E+00
  0.00000000E+00  0.00000000E+00  0.00000000E+00
  0.00000000E+00  0.00000000E+00  0.00000000E+00
  0.00000000E+00  0.00000000E+00  0.00000000E+00
  0.00000000E+00  0.00000000E+00  0.00000000E+00
  0.00000000E+00  0.00000000E+00  0.00000000E+00
  0.00000000E+00  0.00000000E+00  0.00000000E+00
  0.00000000E+00  0.00000000E+00  0.00000000E+00
  0.00000000E+00  0.00000000E+00  0.00000000E+00
  0.00000000E+00  0.00000000E+00  0.00000000E+00
  0.00000000E+00  0.00000000E+00  0.00000000E+00
  0.00000000E+00  0.00000000E+00  0.00000000E+00
  0.00000000E+00  0.00000000E+00  0.00000000E+00
  0.00000000E+00  0.00000000E+00  0.00000000E+00
  0.00000000E+00  0.00000000E+00  0.00000000E+00
  0.00000000E+00  0.00000000E+00  0.00000000E+00
  0.00000000E+00  0.00000000E+00  0.00000000E+00
  0.00000000E+00  0.00000000E+00  0.00000000E+00
  0.00000000E+00  0.00000000E+00  0.00000000E+00
  0.00000000E+00  0.00000000E+00  0.00000000E+00
  0.00000000E+00  0.00000000E+00  0.00000000E+00
  0.00000000E+00  0.00000000E+00  0.00000000E+00
  0.00000000E+00  0.00000000E+00  0.00000000E+00
  0.00000000E+00  0.00000000E+00  0.00000000E+00
  0.00000000E+00  0.00000000E+00  0.00000000E+00
  0.00000000E+00  0.00000000E+00  0.00000000E+00
  0.00000000E+00  0.00000000E+00  0.00000000E+00
  0.00000000E+00  0.00000000E+00  0.00000000E+00
  0.00000000E+00  0.00000000E+00  0.00000000E+00
  0.00000000E+00  0.00000000E+00  0.00000000E+00
  0.00000000E+00  0.00000000E+00  0.00000000E+00
  0.00000000E+00  0.00000000E+00  0.00000000E+00
  0.00000000E+00  0.00000000E+00  0.00000000E+00
  0.00000000E+00  0.00000000E+00  0.00000000E+00
  0.00000000E+00  0.00000000E+00  0.00000000E+00
  0.00000000E+00  0.00000000E+00  0.00000000E+00
  0.00000000E+00  0.00000000E+00  0.00000000E+00
  0.00000000E+00  0.00000000E+00  0.00000000E+00
  0.00000000E+00  0.00000000E+00  0.00000000E+00
  0.00000000E+00  0.00000000E+00  0.00000000E+00
  0.00000000E+00  0.00000000E+00  0.00000000E+00
  0.00000000E+00  0.00000000E+00  0.00000000E+00
  0.00000000E+00  0.00000000E+00  0.00000000E+00
  0.00000000E+00  0.00000000E+00  0.00000000E+00
  0.00000000E+00  0.00000000E+00  0.00000000E+00
  0.00000000E+00  0.00000000E+00  0.00000000E+00
  0.00000000E+00  0.00000000E+00  0.00000000E+00
  0.00000000E+00  0.00000000E+00  0.00000000E+00
  0.00000000E+00  0.00000000E+00  0.00000000E+00
  0.00000000E+00  0.00000000E+00  0.00000000E+00
  0.00000000E+00  0.00000000E+00  0.00000000E+00
  0.00000000E+00  0.00000000E+00  0.00000000E+00
  0.00000000E+00  0.00000000E+00  0.00000000E+00
  0.00000000E+00  0.00000000E+00  0.00000000E+00
  0.00000000E+00  0.00000000E+00  0.00000000E+00
  0.00000000E+00  0.00000000E+00  0.00000000E+00
