Cs Ge I                                 
   1.00000000000000     
    11.9965200000000003  -11.9965200000000003    0.0000000000000000
    11.9965200000000003   11.9965200000000003    0.0000000000000000
     0.0000000000000000    0.0000000000000000   23.9930400000000006
   Cs   Ge   I 
    32    32    96
Direct
  0.9962070432263926  0.0015905986304246  0.9952557834927898
  0.0068058506261213  0.9881035237105079  0.2534163768086002
  0.0034177725738894  0.0024824708744011  0.5063227345037220
  0.0033528064501627 -0.0030665050183752  0.7514610153614223
  0.4932070035338704  0.0055698443567150  0.9967967987819123
  0.5024119869466709  0.9836629589309543  0.2453665621127396
  0.4949509562380915  0.0056562788882174  0.4967782695124741
  0.4939547661077814  0.9988557751467377  0.7474116388245029
  0.2384140155977676  0.2515173091042782  0.9968130175973376
  0.2509986389105427  0.2439830241524693  0.2509633568791804
  0.2447519064414865  0.2593916843292510  0.5032897897830724
  0.2448870491381810  0.2503299056505726  0.7505290855019864
 -0.0006040231747344  0.5052925797506286  0.9997644455895608
  0.0024951917097304  0.4836097589169588  0.2504827510591631
  0.9894910059751210  0.5091547266626801  0.4998950500073137
  0.9968193402759726  0.4985238392053625  0.7517163223898838
  0.7493813664268330  0.2549389247689181  0.9909711532257469
  0.7498124276060782  0.2364548975878827  0.2482238615766041
  0.7513491426747383  0.2559910409101729  0.5038539891752351
  0.7554163894191521  0.2440893446248088  0.7488780728948496
  0.4944376183605465  0.4984479722698750  0.9954049991925614
  0.5078601187434024  0.4859159281684000  0.2491304347109681
  0.5021454752911604  0.5006756984643980  0.5011322410871838
  0.5059091776017880  0.4943002134448489  0.7454698738468776
  0.2500190501457041  0.7550915234151788  0.9915649499375541
  0.2537377951931234  0.7354873938218633  0.2504184843490331
  0.2507250850090339  0.7506844530415470  0.5040397886547137
  0.2548343757986370  0.7441133368476286  0.7501282366521717
  0.7441744713263830  0.7564711738525637  0.9959126248401706
  0.7461320200227103  0.7390923089370522  0.2509387343094087
  0.7445542625886780  0.7635267242661335  0.5036795562901168
  0.7442107913969852  0.7457759484075567  0.7450522265117203
  0.0111447251014567  0.2432557749415425  0.1338397490098530
  0.0154609152124374  0.2489737033741341  0.3822631193570029
  0.9992427613981116  0.2360699228069619  0.6301500377757372
  0.9993085560087329  0.2644278857009628  0.8807584071684138
  0.5177794132285588  0.2442627112274751  0.1168481370454626
  0.5128891408572508  0.2458771692054146  0.3628507397807035
  0.5020515523101829  0.2621654778683921  0.6162378132869231
  0.4983629525066714  0.2624023836310419  0.8653026762636268
  0.2642841073928358  0.5005172760198545  0.1158155589182661
  0.2673771842949267  0.5027981807973509  0.3704081035021545
  0.2335713674246937  0.5002702979188570  0.6201075651265187
  0.2528929508504823  0.5125920122350294  0.8677133462940289
  0.0186621670934875  0.7454270650090451  0.1216140219559829
  0.0133424027001552  0.7478589134948804  0.3665690741603320
  0.0033290491808096  0.7638050962322247  0.6192053263362700
  0.9986744780038632  0.7614827449697950  0.8677186215248934
  0.7663328758317465  0.5056298437950459  0.1298081952651229
  0.7640924528199247  0.5044636129702811  0.3821505185057480
  0.7649370806765506  0.5019300307926703  0.6300747404064893
  0.7476657041425522  0.5133983150480881  0.8833446612534624
  0.5134614170119173  0.7424192242561088  0.1301033812722495
  0.5166222354307475  0.7499099369419167  0.3787626277369174
  0.4988272578742384  0.7345967349296764  0.6280184919965591
  0.5019056296380285  0.7647973438346539  0.8783467784460162
  0.2631260679509709  0.0009531902517538  0.1165435372147563
  0.2663257443511444  0.0045823360130692  0.3678144143822928
  0.2622250032928960  0.9982555964647477  0.6159275813878797
  0.2493510012174598  0.0151975338943245  0.8693571798294910
  0.7676642791453537  0.0018608423745371  0.1290002791452518
  0.7648973880301915  0.0052535502652669  0.3836154412775748
  0.7391139846259038 -0.0002403200640673  0.6336807869322365
  0.7454062336711093  0.0118287314720974  0.8804339612416631
  0.0002493592980226  0.2627902749265077  0.9968997422521101
  0.9848789552511987  0.2344646559802970  0.2484368202625493
  0.0089340702975009  0.2700446797665035  0.4980255401572530
  0.9921494792108996  0.2328962832634272  0.7468369151162620
  0.5182254184932942  0.2483308281714051  0.9997808068801968
  0.4796653253833638  0.2467220347922312  0.2488964381872904
  0.5180279987536508  0.2501500557961598  0.5005680413393400
  0.4761948566085051  0.2423200346508065  0.7504635378795669
  0.2326773281865147  0.4875145210588972  0.0020019654340481
  0.2703974680239362  0.4998977777898636  0.2537268199998221
  0.2206348273392449  0.4986476451429768  0.5036387305063863
  0.2738021176596719  0.5021630151718919  0.7522513434569194
  0.0196073884650571  0.7468887701084674  0.0042345671952538
  0.9763563722226302  0.7492342586927389  0.2534528972974475
  0.0197973081550392  0.7539271418002748  0.5037211294126478
  0.9770407868239499  0.7400655274635670  0.7535170408154173
  0.7295313553652220  0.4886474391252226  0.9970265568846411
  0.7576428185487393  0.5066333437348352  0.2466262931067904
  0.7375395375456872  0.4880744363982257  0.4967292656333477
  0.7580766203226923  0.5077206384250588  0.7464323328053902
  0.5071646786424416  0.7665235651177625  0.9942674370856739
  0.4880608176554143  0.7356660059680146  0.2450936301311222
  0.5078732220063025  0.7676543526940347  0.4948312550832829
  0.4913281029015077  0.7297457867170893  0.7443326552926314
  0.2341186908211046  0.9855442859869118  0.0016804460929265
  0.2567538655620886  0.0135628272985318  0.2515108184114209
  0.2391336296733564  0.9823060445625246  0.5013603831257667
  0.2554501379295077  0.0163955461347263  0.7523846414464679
  0.7282798022726826  0.9943974228455592  0.9957437656141421
  0.7691306506742182 -0.0008089733400826  0.2459785193630614
  0.7296094790561083  0.0073516446725414  0.4973991108530908
  0.7700682018670850  0.9927839302692030  0.7474067941250652
  0.1014917547457205  0.1068333252804936  0.1253216471975692
  0.1075218947546093  0.1128092587296238  0.3823576223674734
  0.1220972154821172  0.1270686131359461  0.6226451097005613
  0.1190690311455723  0.1170028039381582  0.8762455672258908
  0.6041738488919598  0.1049869745106105  0.1283554994810701
  0.6056459319638267  0.1103223217072312  0.3605804134460223
  0.6266535848214548  0.1199532152783875  0.6395433311376422
  0.6205474165942264  0.1164336608953037  0.8645577589597816
  0.3863111696390709  0.3887488523972837  0.1188018824230576
  0.3840410579169637  0.3889733686942690  0.3862633682186563
  0.3816548896370953  0.3750987901844169  0.6159366034209165
  0.3758298674364037  0.3700836751069403  0.8832866671131101
  0.1067842285530542  0.6073632075918095  0.1350468974999889
  0.1064649663447930  0.6125297611473999  0.3664424888008139
  0.1246086876723388  0.6206041574380545  0.6385252225015695
  0.1234635435005393  0.6161061507291072  0.8681564114462950
  0.8877083938837834  0.3947380717053991  0.1209729335755914
  0.8831862111321821  0.3908585357705961  0.3749558508237502
  0.8788087520005418  0.3832291785175977  0.6243608882548115
  0.8761509284739701  0.3736613711804528  0.8693406243003006
  0.6028541217014012  0.6056181673403151  0.1217503906964345
  0.6073357978051791  0.6127419970163845  0.3743177118090724
  0.6203327989248628  0.6246519869804725  0.6176316186070651
  0.6205826393211661  0.6177006627315169  0.8709963214141839
  0.3849115652679314  0.8898485955766724  0.1194604831261216
  0.3845637158553958  0.8898070811608877  0.3695043636210214
  0.3741396545379658  0.8783944257487241  0.6270147338028182
  0.3767523087501217  0.8733035182348394  0.8689640315379886
  0.8895926754455670  0.8923724214331634  0.1164794817049411
  0.8857888395157004  0.8934705316028096  0.3905696951625143
  0.8819071226510748  0.8758433950867945  0.6155991050638137
  0.8784061801052349  0.8726015812939215  0.8811433817312765
  0.8532939952344236  0.1395871950580791  0.1112119025786495
  0.8568326111158518  0.1413317744886992  0.3842369057141215
  0.8755505265041302  0.1294250090847514  0.6129595236781150
  0.8689793257709836  0.1223879569533452  0.8815317556687567
  0.3537691538902449  0.1379753276752784  0.1116221040220255
  0.3581629375831179  0.1379214801763391  0.3874961188192945
  0.3713285165859679  0.1222826688068904  0.6117445244668004
  0.3669780683379537  0.1256701911428676  0.8877638767839126
  0.1351093625295116  0.3535004708197509  0.1369684527608355
  0.1349348250640842  0.3601265927742218  0.3643680745857646
  0.1281438382182569  0.3766779982270834  0.6391996579089904
  0.1249368496920828  0.3688557026644880  0.8661688960079666
  0.8540361644955274  0.6425038993919157  0.1164276237018223
  0.8566534837232647  0.6398222600133820  0.3908780004368964
  0.8687393590351000  0.6279938358257660  0.6164664978502057
  0.8690410644569533  0.6230420466927832  0.8915875043431402
  0.6396378864574203  0.3529174467686785  0.1305709149451612
  0.6344731909758512  0.3581299084748384  0.3604023101215212
  0.6254759863701005  0.3690841685937524  0.6327606071381631
  0.6245975453746653  0.3675635074491617  0.8572197108599906
  0.3556797980441010  0.6366849614896655  0.1079204644409243
  0.3594401582082344  0.6375408425086037  0.3855648807424303
  0.3765812897650169  0.6264883113164336  0.6110928616102874
  0.3717043158050350  0.6234583365412194  0.8848776031575591
  0.1392960609283875  0.8545989862704793  0.1386360024730368
  0.1359450988709684  0.8582964024577738  0.3637108884600751
  0.1243088523197544  0.8717866126386282  0.6406110717901385
  0.1255333602669589  0.8660542182158552  0.8622770089565226
  0.6370745284187771  0.8522363047302128  0.1316545996908662
  0.6367929990408948  0.8609582605520036  0.3632773588667975
  0.6273850887103734  0.8771702962975146  0.6313818063050419
  0.6254923352601574  0.8687067917740274  0.8576890444343198
 
  0.00000000E+00  0.00000000E+00  0.00000000E+00
  0.00000000E+00  0.00000000E+00  0.00000000E+00
  0.00000000E+00  0.00000000E+00  0.00000000E+00
  0.00000000E+00  0.00000000E+00  0.00000000E+00
  0.00000000E+00  0.00000000E+00  0.00000000E+00
  0.00000000E+00  0.00000000E+00  0.00000000E+00
  0.00000000E+00  0.00000000E+00  0.00000000E+00
  0.00000000E+00  0.00000000E+00  0.00000000E+00
  0.00000000E+00  0.00000000E+00  0.00000000E+00
  0.00000000E+00  0.00000000E+00  0.00000000E+00
  0.00000000E+00  0.00000000E+00  0.00000000E+00
  0.00000000E+00  0.00000000E+00  0.00000000E+00
  0.00000000E+00  0.00000000E+00  0.00000000E+00
  0.00000000E+00  0.00000000E+00  0.00000000E+00
  0.00000000E+00  0.00000000E+00  0.00000000E+00
  0.00000000E+00  0.00000000E+00  0.00000000E+00
  0.00000000E+00  0.00000000E+00  0.00000000E+00
  0.00000000E+00  0.00000000E+00  0.00000000E+00
  0.00000000E+00  0.00000000E+00  0.00000000E+00
  0.00000000E+00  0.00000000E+00  0.00000000E+00
  0.00000000E+00  0.00000000E+00  0.00000000E+00
  0.00000000E+00  0.00000000E+00  0.00000000E+00
  0.00000000E+00  0.00000000E+00  0.00000000E+00
  0.00000000E+00  0.00000000E+00  0.00000000E+00
  0.00000000E+00  0.00000000E+00  0.00000000E+00
  0.00000000E+00  0.00000000E+00  0.00000000E+00
  0.00000000E+00  0.00000000E+00  0.00000000E+00
  0.00000000E+00  0.00000000E+00  0.00000000E+00
  0.00000000E+00  0.00000000E+00  0.00000000E+00
  0.00000000E+00  0.00000000E+00  0.00000000E+00
  0.00000000E+00  0.00000000E+00  0.00000000E+00
  0.00000000E+00  0.00000000E+00  0.00000000E+00
  0.00000000E+00  0.00000000E+00  0.00000000E+00
  0.00000000E+00  0.00000000E+00  0.00000000E+00
  0.00000000E+00  0.00000000E+00  0.00000000E+00
  0.00000000E+00  0.00000000E+00  0.00000000E+00
  0.00000000E+00  0.00000000E+00  0.00000000E+00
  0.00000000E+00  0.00000000E+00  0.00000000E+00
  0.00000000E+00  0.00000000E+00  0.00000000E+00
  0.00000000E+00  0.00000000E+00  0.00000000E+00
  0.00000000E+00  0.00000000E+00  0.00000000E+00
  0.00000000E+00  0.00000000E+00  0.00000000E+00
  0.00000000E+00  0.00000000E+00  0.00000000E+00
  0.00000000E+00  0.00000000E+00  0.00000000E+00
  0.00000000E+00  0.00000000E+00  0.00000000E+00
  0.00000000E+00  0.00000000E+00  0.00000000E+00
  0.00000000E+00  0.00000000E+00  0.00000000E+00
  0.00000000E+00  0.00000000E+00  0.00000000E+00
  0.00000000E+00  0.00000000E+00  0.00000000E+00
  0.00000000E+00  0.00000000E+00  0.00000000E+00
  0.00000000E+00  0.00000000E+00  0.00000000E+00
  0.00000000E+00  0.00000000E+00  0.00000000E+00
  0.00000000E+00  0.00000000E+00  0.00000000E+00
  0.00000000E+00  0.00000000E+00  0.00000000E+00
  0.00000000E+00  0.00000000E+00  0.00000000E+00
  0.00000000E+00  0.00000000E+00  0.00000000E+00
  0.00000000E+00  0.00000000E+00  0.00000000E+00
  0.00000000E+00  0.00000000E+00  0.00000000E+00
  0.00000000E+00  0.00000000E+00  0.00000000E+00
  0.00000000E+00  0.00000000E+00  0.00000000E+00
  0.00000000E+00  0.00000000E+00  0.00000000E+00
  0.00000000E+00  0.00000000E+00  0.00000000E+00
  0.00000000E+00  0.00000000E+00  0.00000000E+00
  0.00000000E+00  0.00000000E+00  0.00000000E+00
  0.00000000E+00  0.00000000E+00  0.00000000E+00
  0.00000000E+00  0.00000000E+00  0.00000000E+00
  0.00000000E+00  0.00000000E+00  0.00000000E+00
  0.00000000E+00  0.00000000E+00  0.00000000E+00
  0.00000000E+00  0.00000000E+00  0.00000000E+00
  0.00000000E+00  0.00000000E+00  0.00000000E+00
  0.00000000E+00  0.00000000E+00  0.00000000E+00
  0.00000000E+00  0.00000000E+00  0.00000000E+00
  0.00000000E+00  0.00000000E+00  0.00000000E+00
  0.00000000E+00  0.00000000E+00  0.00000000E+00
  0.00000000E+00  0.00000000E+00  0.00000000E+00
  0.00000000E+00  0.00000000E+00  0.00000000E+00
  0.00000000E+00  0.00000000E+00  0.00000000E+00
  0.00000000E+00  0.00000000E+00  0.00000000E+00
  0.00000000E+00  0.00000000E+00  0.00000000E+00
  0.00000000E+00  0.00000000E+00  0.00000000E+00
  0.00000000E+00  0.00000000E+00  0.00000000E+00
  0.00000000E+00  0.00000000E+00  0.00000000E+00
  0.00000000E+00  0.00000000E+00  0.00000000E+00
  0.00000000E+00  0.00000000E+00  0.00000000E+00
  0.00000000E+00  0.00000000E+00  0.00000000E+00
  0.00000000E+00  0.00000000E+00  0.00000000E+00
  0.00000000E+00  0.00000000E+00  0.00000000E+00
  0.00000000E+00  0.00000000E+00  0.00000000E+00
  0.00000000E+00  0.00000000E+00  0.00000000E+00
  0.00000000E+00  0.00000000E+00  0.00000000E+00
  0.00000000E+00  0.00000000E+00  0.00000000E+00
  0.00000000E+00  0.00000000E+00  0.00000000E+00
  0.00000000E+00  0.00000000E+00  0.00000000E+00
  0.00000000E+00  0.00000000E+00  0.00000000E+00
  0.00000000E+00  0.00000000E+00  0.00000000E+00
  0.00000000E+00  0.00000000E+00  0.00000000E+00
  0.00000000E+00  0.00000000E+00  0.00000000E+00
  0.00000000E+00  0.00000000E+00  0.00000000E+00
  0.00000000E+00  0.00000000E+00  0.00000000E+00
  0.00000000E+00  0.00000000E+00  0.00000000E+00
  0.00000000E+00  0.00000000E+00  0.00000000E+00
  0.00000000E+00  0.00000000E+00  0.00000000E+00
  0.00000000E+00  0.00000000E+00  0.00000000E+00
  0.00000000E+00  0.00000000E+00  0.00000000E+00
  0.00000000E+00  0.00000000E+00  0.00000000E+00
  0.00000000E+00  0.00000000E+00  0.00000000E+00
  0.00000000E+00  0.00000000E+00  0.00000000E+00
  0.00000000E+00  0.00000000E+00  0.00000000E+00
  0.00000000E+00  0.00000000E+00  0.00000000E+00
  0.00000000E+00  0.00000000E+00  0.00000000E+00
  0.00000000E+00  0.00000000E+00  0.00000000E+00
  0.00000000E+00  0.00000000E+00  0.00000000E+00
  0.00000000E+00  0.00000000E+00  0.00000000E+00
  0.00000000E+00  0.00000000E+00  0.00000000E+00
  0.00000000E+00  0.00000000E+00  0.00000000E+00
  0.00000000E+00  0.00000000E+00  0.00000000E+00
  0.00000000E+00  0.00000000E+00  0.00000000E+00
  0.00000000E+00  0.00000000E+00  0.00000000E+00
  0.00000000E+00  0.00000000E+00  0.00000000E+00
  0.00000000E+00  0.00000000E+00  0.00000000E+00
  0.00000000E+00  0.00000000E+00  0.00000000E+00
  0.00000000E+00  0.00000000E+00  0.00000000E+00
  0.00000000E+00  0.00000000E+00  0.00000000E+00
  0.00000000E+00  0.00000000E+00  0.00000000E+00
  0.00000000E+00  0.00000000E+00  0.00000000E+00
  0.00000000E+00  0.00000000E+00  0.00000000E+00
  0.00000000E+00  0.00000000E+00  0.00000000E+00
  0.00000000E+00  0.00000000E+00  0.00000000E+00
  0.00000000E+00  0.00000000E+00  0.00000000E+00
  0.00000000E+00  0.00000000E+00  0.00000000E+00
  0.00000000E+00  0.00000000E+00  0.00000000E+00
  0.00000000E+00  0.00000000E+00  0.00000000E+00
  0.00000000E+00  0.00000000E+00  0.00000000E+00
  0.00000000E+00  0.00000000E+00  0.00000000E+00
  0.00000000E+00  0.00000000E+00  0.00000000E+00
  0.00000000E+00  0.00000000E+00  0.00000000E+00
  0.00000000E+00  0.00000000E+00  0.00000000E+00
  0.00000000E+00  0.00000000E+00  0.00000000E+00
  0.00000000E+00  0.00000000E+00  0.00000000E+00
  0.00000000E+00  0.00000000E+00  0.00000000E+00
  0.00000000E+00  0.00000000E+00  0.00000000E+00
  0.00000000E+00  0.00000000E+00  0.00000000E+00
  0.00000000E+00  0.00000000E+00  0.00000000E+00
  0.00000000E+00  0.00000000E+00  0.00000000E+00
  0.00000000E+00  0.00000000E+00  0.00000000E+00
  0.00000000E+00  0.00000000E+00  0.00000000E+00
  0.00000000E+00  0.00000000E+00  0.00000000E+00
  0.00000000E+00  0.00000000E+00  0.00000000E+00
  0.00000000E+00  0.00000000E+00  0.00000000E+00
  0.00000000E+00  0.00000000E+00  0.00000000E+00
  0.00000000E+00  0.00000000E+00  0.00000000E+00
  0.00000000E+00  0.00000000E+00  0.00000000E+00
  0.00000000E+00  0.00000000E+00  0.00000000E+00
  0.00000000E+00  0.00000000E+00  0.00000000E+00
  0.00000000E+00  0.00000000E+00  0.00000000E+00
  0.00000000E+00  0.00000000E+00  0.00000000E+00
  0.00000000E+00  0.00000000E+00  0.00000000E+00
  0.00000000E+00  0.00000000E+00  0.00000000E+00
  0.00000000E+00  0.00000000E+00  0.00000000E+00
  0.00000000E+00  0.00000000E+00  0.00000000E+00
