Na Hg Cl                                
   1.00000000000000     
    10.6137420000000002  -10.6137420000000002    0.0000000000000000
    10.6137420000000002   10.6137420000000002    0.0000000000000000
     0.0000000000000000    0.0000000000000000   21.2274850000000015
   Cl   Hg   Na
    96    32    32
Direct
  0.0992986995793541  0.1975935689662675  0.9739183383875509
  0.0383877921759299  0.3400828005772500  0.2492113234594993
  0.0313023532967266  0.2459705864702648  0.4693036608181920
  0.8939485324500327  0.1610541297620039  0.7440403426439713
  0.5239694509886440  0.2031352070984903  0.9825277853715337
  0.5508994242817054  0.3519104487285290  0.2640561563686295
  0.4766603562990870  0.1296120623912030  0.5178818144872112
  0.4867789337219073  0.3224718314658448  0.7742245078380829
  0.1547543536828652  0.4413649219473731  0.9556935299250435
  0.3023017182099942  0.5117395529460868  0.2375169113155236
  0.1038886337378375  0.4947639669515287  0.5212970964126518
  0.2963238468572802  0.5121144358443315  0.7618584843819584
  0.9644633801866463  0.6694230693820652  0.9879977302030915
  0.9667594022333306  0.8460196451276105  0.2560188173960103
  0.0499641611090463  0.7523204512499663  0.4597253766762741
  0.9608380087685046  0.7873226944859391  0.7842271987778167
  0.7493105671910104  0.5414583002927347  0.0214458805024405
  0.8079374127774113  0.4422596675230097  0.2435748634112962
  0.7851086065343698  0.5237382113569413  0.5379868580434792
  0.7335996467586030  0.4118632534071416  0.7424057935675673
  0.5544026198927156  0.6908336297315928  0.0205549464995352
  0.4318719855329268  0.7224782563117258  0.2242967293660616
  0.5652939150087800  0.6384286519697782  0.5240643735895871
  0.4692228502476700  0.8846728608691630  0.7710855633328263
  0.3116237305444733  0.1282208390664281  0.0403011485720406
  0.2824491473230873  0.0004953251510540  0.2242648172826063
  0.1650227132762681  0.9803215123810824  0.4833738626104404
  0.2345010538204071  0.9471147376190431  0.7446480440198318
  0.6583427665182097  0.0184145965302203  0.0226308920307825
  0.7451011006566314  0.9414498909550386  0.2828537750306213
  0.7058718653280260  0.0363559998756276  0.4960908787055158
  0.7737585467212268  0.9239739960726465  0.7147960986945742
  0.0801403134589481  0.1376322930964544  0.1424362129137969
  0.0827676409821022  0.1046249954356020  0.3130880291814790
  0.2355145954897171  0.2039509689798386  0.6052462315333572
  0.0539454973435243  0.0603833626955826  0.8423879735377413
  0.5251204644516227  0.1196315150693898  0.1529489542069001
  0.5901887408637962  0.1313053297695767  0.3364425928264144
  0.6804014205367538  0.1280811152045922  0.6559013301004644
  0.6448359736943470  0.1072549018680869  0.8346667255709382
  0.4737536528418214  0.4248130232977295  0.1076774439297271
  0.4259857529149286  0.3487430358644943  0.4421742131071708
  0.3274603936244995  0.4352855930049653  0.5822799754455398
  0.3799856507660155  0.3982758076456112  0.9287930003776731
  0.0806651374260473  0.5628977212584454  0.1294867463158673
  0.0868121850788208  0.6136165493443114  0.3115965648016532
  0.2157603076254934  0.7239186914967937  0.6079921097499722
  0.0670530446901065  0.5800416060023894  0.8346039216716615
  0.9345439545545385  0.3849884502514158  0.0580072014186278
  0.9396759667926374  0.4545738507828428  0.3992231511520780
  0.7977633927366647  0.2763332470880887  0.5409942267207982
  0.9367386077997334  0.3531108430518360  0.8603717023078417
  0.6332332679152576  0.5977082579709116  0.1835771943753254
  0.5197386906560230  0.5604637851010810  0.3657825262988063
  0.7108888736662995  0.6563966562510186  0.6936708932994785
  0.5574487281671214  0.5694321709457658  0.8665220195130856
  0.3885316409860081  0.8790897748276588  0.0932525015016848
  0.4087107192795795  0.8394617728388271  0.4234984573653038
  0.3593753269385230  0.9184212678202999  0.5765310157494106
  0.3919496343695948  0.9340480753196151  0.9342414409602237
  0.9055376320308914  0.8848989371807674  0.0546689292121274
  0.9199262548326865  0.9730824170343024  0.4081963645641005
  0.8443092012831080  0.8159577135187440  0.5475250217172603
  0.8503941426160798  0.9136159785399453  0.8820022211268630
  0.8359728101431839  0.0998220284970878  0.1601596186710131
  0.8533583938542739  0.1963103718119392  0.3415190047838704
  0.9176411324320275  0.0629684329672000  0.5791303244153999
  0.8479837911765681  0.1470351026294419  0.9471956946222324
  0.3389474710218410  0.2312738767838174  0.2291343170161406
  0.3618757380390527  0.0710591325831429  0.3828638741165624
  0.4392952309084497  0.1196625364536804  0.6869380612633140
  0.3360729603723504  0.1553394006741902  0.8563438232805561
  0.2104451697717243  0.3483730955732258  0.1092403112740076
  0.1998536107625507  0.3777953937302918  0.3815174104239192
  0.9427214174134723  0.3811158378823923  0.6527398038257638
  0.1621218030090616  0.3104730286724250  0.7864291430302073
  0.8803200070767281  0.6669737702903755  0.1568600462797238
  0.7905054317692275  0.6671974691490400  0.3606937999396744
  0.9687635730329421  0.5955463568281029  0.6551248376009903
  0.8315560928412072  0.5905426774900675  0.8502896106280445
  0.7032744127678975  0.3076818327262635  0.1199417949406103
  0.6857934952338773  0.3854428269934470  0.4045968214413510
  0.5682591882820521  0.3754755618172029  0.6042973855275080
  0.6835188355988553  0.3424531784511278  0.9087861909523959
  0.3219027187765887  0.6254872712477314  0.0547993483447168
  0.2843008820278056  0.6294633271328656  0.4500398344741162
  0.4382008208522901  0.6580885756176525  0.6848924072830496
  0.3553790637551218  0.7021538477739574  0.8936551565087836
  0.1522202576962672  0.8184047020052738  0.1067544338673010
  0.2058101565821039  0.8471361990776342  0.3327743808248410
  0.0495031406266430  0.8949142416578660  0.6450469280965783
  0.1266890360292869  0.8572256330417530  0.9291428690068435
  0.6923318426765481  0.8237011351857761  0.1339040286370625
  0.6375300581655413  0.8247578627429891  0.4297413698995666
  0.5897360517342264  0.8817437150914794  0.6108290435854132
  0.6481541324558430  0.8162790530778307  0.8826084559846420
  0.0346462929534424  0.2682827440132995  0.0824144421735369
  0.0113997169736504  0.2862073637497615  0.3569219794713698
  0.8550675453379205  0.2194547459382693  0.6410323307673480
  0.0485076218121235  0.2248291824177328  0.8544452452997108
  0.4972981968476238  0.2791955535068676  0.1551793113825698
  0.5036720244352133  0.2367603175165607  0.3902674129059402
  0.5464789337701023  0.2126092454871751  0.6118599854090385
  0.4921133027787388  0.2658495059351073  0.8806671070895630
  0.2440321033516558  0.5175512439282932  0.1255200824965700
  0.1332563678320804  0.5358360738558690  0.4080827139648142
  0.2672407742226604  0.5792185527382351  0.5831943335050542
  0.2268166421099110  0.4611048191606725  0.8557346958350640
  0.0132605686976861  0.7367306781511417  0.1062500746717257
  0.0345217787458962  0.7919772932051000  0.3504420240935376
  0.0036443519744152  0.7462122429360714  0.6569316124969231
  0.0535531238101977  0.7284843410599326  0.8835940414575912
  0.6838736889715389  0.4664716509764744  0.1291585999188232
  0.7809353365859731  0.5027892498887897  0.3567166001592718
  0.7592913119900447  0.4698694693943251  0.6411699452761760
  0.7089370875400459  0.5069410827584153  0.9004933294778898
  0.4816324491920676  0.7310063747744092  0.1162499719136213
  0.4569411504555173  0.6927976866520669  0.4045736054999355
  0.5795110374624257  0.7172432694787667  0.6355220158374969
  0.4943929500327556  0.7774202741451279  0.8771646967921770
  0.2558809289122785  0.1265646188224012  0.1483705265479879
  0.2039444496820947  0.0243696557732574  0.3663242947846578
  0.3118014108995767  0.0679552060506794  0.5881059736572698
  0.3288922086940333  0.9857387780493612  0.8324018184061756
  0.7750062911691185  0.9622934022814913  0.1249928971433936
  0.7623604115496414  0.9225379510751913  0.4031296563334559
  0.7723546809017320  0.9591732685953039  0.5975120306917716
  0.7298631069428402  0.0160764999624815  0.9134895241516231
  0.9779003481002384  0.0026342859615735  0.9566236331271912
  0.9085466919251712  0.0409975668452794  0.2795558736421663
  0.9996879244542816  0.9186438216543003  0.5193701961910574
  0.9401123334013218  0.9730361313533442  0.7616637004833043
  0.4679197939531244  0.0319899454848601  0.0354924516172365
  0.4348706218249934  0.0793977449578574  0.2654566870573451
  0.5285898135125930  0.9513851901271223  0.4975271278645430
  0.5940777565153160  0.0035970678439060  0.7292908038495943
  0.2600362805915913  0.2877327724881455  0.9879845291157758
  0.2186524890204956  0.3563448362347086  0.2546378734348518
  0.2031718193042801  0.3334372960997193  0.5060548674118966
  0.3181078351626687  0.2350829366228741  0.7413471281516787
  0.9763463586362708  0.4912197663849915  0.9508462437484079
  0.9749117633841128  0.5125226516871830  0.2267706112742331
  0.9379647646411705  0.4023408391088787  0.5234252033473258
  0.9365724711509100  0.4795258676622607  0.7641660394828028
  0.7063034904165122  0.2153927894436041  0.0090365840856538
  0.7188233808922924  0.2882750371422613  0.2861511424315109
  0.8666901928853220  0.1414578917924365  0.4658477407614817
  0.7908315883456473  0.2360530119202719  0.8370314627205513
  0.4401601355302007  0.5591707884931368  0.9675102353988564
  0.4814568132849976  0.5184509150818768  0.2361587429131647
  0.5623520010753873  0.4598918256714108  0.4872809473168548
  0.4779574614626291  0.5066908202037883  0.7606999851252518
  0.2771894412669620  0.8085054233970949  0.0012413746735224
  0.2780755945700034  0.8255220332491361  0.2026333226966996
  0.2325492578952713  0.8092249881241257  0.4665336766220733
  0.3425544695385371  0.8193866302909625  0.6906351097488774
  0.7955418161782705  0.7225010800621281  0.0430408874824416
  0.7863823312536685  0.7692120999565276  0.2449683010506680
  0.7355158399853864  0.6956853078900591  0.4897501122507204
  0.7784961641957159  0.7613020077631576  0.7935659024882501
 
  0.00000000E+00  0.00000000E+00  0.00000000E+00
  0.00000000E+00  0.00000000E+00  0.00000000E+00
  0.00000000E+00  0.00000000E+00  0.00000000E+00
  0.00000000E+00  0.00000000E+00  0.00000000E+00
  0.00000000E+00  0.00000000E+00  0.00000000E+00
  0.00000000E+00  0.00000000E+00  0.00000000E+00
  0.00000000E+00  0.00000000E+00  0.00000000E+00
  0.00000000E+00  0.00000000E+00  0.00000000E+00
  0.00000000E+00  0.00000000E+00  0.00000000E+00
  0.00000000E+00  0.00000000E+00  0.00000000E+00
  0.00000000E+00  0.00000000E+00  0.00000000E+00
  0.00000000E+00  0.00000000E+00  0.00000000E+00
  0.00000000E+00  0.00000000E+00  0.00000000E+00
  0.00000000E+00  0.00000000E+00  0.00000000E+00
  0.00000000E+00  0.00000000E+00  0.00000000E+00
  0.00000000E+00  0.00000000E+00  0.00000000E+00
  0.00000000E+00  0.00000000E+00  0.00000000E+00
  0.00000000E+00  0.00000000E+00  0.00000000E+00
  0.00000000E+00  0.00000000E+00  0.00000000E+00
  0.00000000E+00  0.00000000E+00  0.00000000E+00
  0.00000000E+00  0.00000000E+00  0.00000000E+00
  0.00000000E+00  0.00000000E+00  0.00000000E+00
  0.00000000E+00  0.00000000E+00  0.00000000E+00
  0.00000000E+00  0.00000000E+00  0.00000000E+00
  0.00000000E+00  0.00000000E+00  0.00000000E+00
  0.00000000E+00  0.00000000E+00  0.00000000E+00
  0.00000000E+00  0.00000000E+00  0.00000000E+00
  0.00000000E+00  0.00000000E+00  0.00000000E+00
  0.00000000E+00  0.00000000E+00  0.00000000E+00
  0.00000000E+00  0.00000000E+00  0.00000000E+00
  0.00000000E+00  0.00000000E+00  0.00000000E+00
  0.00000000E+00  0.00000000E+00  0.00000000E+00
  0.00000000E+00  0.00000000E+00  0.00000000E+00
  0.00000000E+00  0.00000000E+00  0.00000000E+00
  0.00000000E+00  0.00000000E+00  0.00000000E+00
  0.00000000E+00  0.00000000E+00  0.00000000E+00
  0.00000000E+00  0.00000000E+00  0.00000000E+00
  0.00000000E+00  0.00000000E+00  0.00000000E+00
  0.00000000E+00  0.00000000E+00  0.00000000E+00
  0.00000000E+00  0.00000000E+00  0.00000000E+00
  0.00000000E+00  0.00000000E+00  0.00000000E+00
  0.00000000E+00  0.00000000E+00  0.00000000E+00
  0.00000000E+00  0.00000000E+00  0.00000000E+00
  0.00000000E+00  0.00000000E+00  0.00000000E+00
  0.00000000E+00  0.00000000E+00  0.00000000E+00
  0.00000000E+00  0.00000000E+00  0.00000000E+00
  0.00000000E+00  0.00000000E+00  0.00000000E+00
  0.00000000E+00  0.00000000E+00  0.00000000E+00
  0.00000000E+00  0.00000000E+00  0.00000000E+00
  0.00000000E+00  0.00000000E+00  0.00000000E+00
  0.00000000E+00  0.00000000E+00  0.00000000E+00
  0.00000000E+00  0.00000000E+00  0.00000000E+00
  0.00000000E+00  0.00000000E+00  0.00000000E+00
  0.00000000E+00  0.00000000E+00  0.00000000E+00
  0.00000000E+00  0.00000000E+00  0.00000000E+00
  0.00000000E+00  0.00000000E+00  0.00000000E+00
  0.00000000E+00  0.00000000E+00  0.00000000E+00
  0.00000000E+00  0.00000000E+00  0.00000000E+00
  0.00000000E+00  0.00000000E+00  0.00000000E+00
  0.00000000E+00  0.00000000E+00  0.00000000E+00
  0.00000000E+00  0.00000000E+00  0.00000000E+00
  0.00000000E+00  0.00000000E+00  0.00000000E+00
  0.00000000E+00  0.00000000E+00  0.00000000E+00
  0.00000000E+00  0.00000000E+00  0.00000000E+00
  0.00000000E+00  0.00000000E+00  0.00000000E+00
  0.00000000E+00  0.00000000E+00  0.00000000E+00
  0.00000000E+00  0.00000000E+00  0.00000000E+00
  0.00000000E+00  0.00000000E+00  0.00000000E+00
  0.00000000E+00  0.00000000E+00  0.00000000E+00
  0.00000000E+00  0.00000000E+00  0.00000000E+00
  0.00000000E+00  0.00000000E+00  0.00000000E+00
  0.00000000E+00  0.00000000E+00  0.00000000E+00
  0.00000000E+00  0.00000000E+00  0.00000000E+00
  0.00000000E+00  0.00000000E+00  0.00000000E+00
  0.00000000E+00  0.00000000E+00  0.00000000E+00
  0.00000000E+00  0.00000000E+00  0.00000000E+00
  0.00000000E+00  0.00000000E+00  0.00000000E+00
  0.00000000E+00  0.00000000E+00  0.00000000E+00
  0.00000000E+00  0.00000000E+00  0.00000000E+00
  0.00000000E+00  0.00000000E+00  0.00000000E+00
  0.00000000E+00  0.00000000E+00  0.00000000E+00
  0.00000000E+00  0.00000000E+00  0.00000000E+00
  0.00000000E+00  0.00000000E+00  0.00000000E+00
  0.00000000E+00  0.00000000E+00  0.00000000E+00
  0.00000000E+00  0.00000000E+00  0.00000000E+00
  0.00000000E+00  0.00000000E+00  0.00000000E+00
  0.00000000E+00  0.00000000E+00  0.00000000E+00
  0.00000000E+00  0.00000000E+00  0.00000000E+00
  0.00000000E+00  0.00000000E+00  0.00000000E+00
  0.00000000E+00  0.00000000E+00  0.00000000E+00
  0.00000000E+00  0.00000000E+00  0.00000000E+00
  0.00000000E+00  0.00000000E+00  0.00000000E+00
  0.00000000E+00  0.00000000E+00  0.00000000E+00
  0.00000000E+00  0.00000000E+00  0.00000000E+00
  0.00000000E+00  0.00000000E+00  0.00000000E+00
  0.00000000E+00  0.00000000E+00  0.00000000E+00
  0.00000000E+00  0.00000000E+00  0.00000000E+00
  0.00000000E+00  0.00000000E+00  0.00000000E+00
  0.00000000E+00  0.00000000E+00  0.00000000E+00
  0.00000000E+00  0.00000000E+00  0.00000000E+00
  0.00000000E+00  0.00000000E+00  0.00000000E+00
  0.00000000E+00  0.00000000E+00  0.00000000E+00
  0.00000000E+00  0.00000000E+00  0.00000000E+00
  0.00000000E+00  0.00000000E+00  0.00000000E+00
  0.00000000E+00  0.00000000E+00  0.00000000E+00
  0.00000000E+00  0.00000000E+00  0.00000000E+00
  0.00000000E+00  0.00000000E+00  0.00000000E+00
  0.00000000E+00  0.00000000E+00  0.00000000E+00
  0.00000000E+00  0.00000000E+00  0.00000000E+00
  0.00000000E+00  0.00000000E+00  0.00000000E+00
  0.00000000E+00  0.00000000E+00  0.00000000E+00
  0.00000000E+00  0.00000000E+00  0.00000000E+00
  0.00000000E+00  0.00000000E+00  0.00000000E+00
  0.00000000E+00  0.00000000E+00  0.00000000E+00
  0.00000000E+00  0.00000000E+00  0.00000000E+00
  0.00000000E+00  0.00000000E+00  0.00000000E+00
  0.00000000E+00  0.00000000E+00  0.00000000E+00
  0.00000000E+00  0.00000000E+00  0.00000000E+00
  0.00000000E+00  0.00000000E+00  0.00000000E+00
  0.00000000E+00  0.00000000E+00  0.00000000E+00
  0.00000000E+00  0.00000000E+00  0.00000000E+00
  0.00000000E+00  0.00000000E+00  0.00000000E+00
  0.00000000E+00  0.00000000E+00  0.00000000E+00
  0.00000000E+00  0.00000000E+00  0.00000000E+00
  0.00000000E+00  0.00000000E+00  0.00000000E+00
  0.00000000E+00  0.00000000E+00  0.00000000E+00
  0.00000000E+00  0.00000000E+00  0.00000000E+00
  0.00000000E+00  0.00000000E+00  0.00000000E+00
  0.00000000E+00  0.00000000E+00  0.00000000E+00
  0.00000000E+00  0.00000000E+00  0.00000000E+00
  0.00000000E+00  0.00000000E+00  0.00000000E+00
  0.00000000E+00  0.00000000E+00  0.00000000E+00
  0.00000000E+00  0.00000000E+00  0.00000000E+00
  0.00000000E+00  0.00000000E+00  0.00000000E+00
  0.00000000E+00  0.00000000E+00  0.00000000E+00
  0.00000000E+00  0.00000000E+00  0.00000000E+00
  0.00000000E+00  0.00000000E+00  0.00000000E+00
  0.00000000E+00  0.00000000E+00  0.00000000E+00
  0.00000000E+00  0.00000000E+00  0.00000000E+00
  0.00000000E+00  0.00000000E+00  0.00000000E+00
  0.00000000E+00  0.00000000E+00  0.00000000E+00
  0.00000000E+00  0.00000000E+00  0.00000000E+00
  0.00000000E+00  0.00000000E+00  0.00000000E+00
  0.00000000E+00  0.00000000E+00  0.00000000E+00
  0.00000000E+00  0.00000000E+00  0.00000000E+00
  0.00000000E+00  0.00000000E+00  0.00000000E+00
  0.00000000E+00  0.00000000E+00  0.00000000E+00
  0.00000000E+00  0.00000000E+00  0.00000000E+00
  0.00000000E+00  0.00000000E+00  0.00000000E+00
  0.00000000E+00  0.00000000E+00  0.00000000E+00
  0.00000000E+00  0.00000000E+00  0.00000000E+00
  0.00000000E+00  0.00000000E+00  0.00000000E+00
  0.00000000E+00  0.00000000E+00  0.00000000E+00
  0.00000000E+00  0.00000000E+00  0.00000000E+00
  0.00000000E+00  0.00000000E+00  0.00000000E+00
  0.00000000E+00  0.00000000E+00  0.00000000E+00
  0.00000000E+00  0.00000000E+00  0.00000000E+00
  0.00000000E+00  0.00000000E+00  0.00000000E+00
  0.00000000E+00  0.00000000E+00  0.00000000E+00
  0.00000000E+00  0.00000000E+00  0.00000000E+00
