Sr Cl Cs                                
   1.00000000000000     
    11.4495769999999997  -11.4495769999999997    0.0000000000000000
    11.4495769999999997   11.4495769999999997    0.0000000000000000
     0.0000000000000000    0.0000000000000000   22.8991539999999993
   Cl   Cs   Sr
    96    32    32
Direct
  0.0011926989659792  0.2134900043016063  0.0000154984303747
  0.9980773972270184  0.2844687076882397  0.2501003137735460
  0.0010933396106817  0.2131950505211626  0.5000629609612568
  0.9992786694901774  0.2856052718606658  0.7500055149150685
  0.5358647123276016  0.2490596600513865  0.0001028753649513
  0.4648675769483180  0.2498674699591691  0.2500263834261015
  0.5344872074372417  0.2481901481964829  0.5001316668430333
  0.4643106849890275  0.2503588556473731  0.7501700117734638
  0.2490901398685686  0.5349104698994571  0.0001105600918628
  0.2498535712327940  0.4645606516767087  0.2500783539158878
  0.2502858596105197  0.5337447200252859  0.5001400855541939
  0.2502919402522148  0.4637973290929851  0.7502551282126502
  0.0353254749424141  0.7483648087780943 -0.0000764052540238
  0.9654841453949591  0.7500866239230553  0.2499911283553150
  0.0347112003273310  0.7479815826752392  0.5001212331085231
  0.9641321699768548  0.7503608604427946  0.7500774636213549
  0.7146080126985275  0.5016618255488318  0.0000393663621463
  0.7854037351882543  0.4971661987797604  0.2501089923809439
  0.7138366377206904  0.5018150059955224  0.5000374447467256
  0.7854083301470196  0.4974173467462811  0.7500086091453718
  0.5015765929218892  0.7142309468406998  0.0000094225407935
  0.4980515360327423  0.7844465758383380  0.2501242656945797
  0.5012057150512759  0.7129441371732526  0.5000527454105469
  0.4980621441110732  0.7855974528846065  0.7499511165840441
  0.2146827689400157  0.0013753535651277  0.0000760784047312
  0.2851181496571242  0.9971699260241044  0.2501188094990644
  0.2136334633287470  0.0010940726041672  0.5001350330166741
  0.2854015777350932  0.9978738527257279  0.7499731753237413
  0.7489630870806285  0.0347762831594922  0.0000413176230772
  0.7503431461374704  0.9641607889497082  0.2500389745374323
  0.7489183163331624  0.0339332363174535  0.5000478853310069
  0.7501757157393497  0.9640003579910922  0.7500866581852538
  0.1129299270108126  0.1120492109190001  0.1467478042116507
  0.1459718286752172  0.1452027130644249  0.3617725106507249
  0.1119784451734718  0.1117330319791143  0.6467258486940605
  0.1456082286710378  0.1455261686530906  0.8616926293905788
  0.6034154276744649  0.1026300998448229  0.1376460301513132
  0.6381011546889496  0.1372047978404628  0.3538223667443982
  0.6033490575125739  0.1027576244693581  0.6376610008232538
  0.6373793700624919  0.1371690688044840  0.8537694207626544
  0.3964661913742225  0.3956536089046965  0.1127757144709823
  0.3612589550914657  0.3602302946920975  0.3957789227422130
  0.3966925873751282  0.3957518774594952  0.6129193647917059
  0.3625480522264797  0.3624614644891148  0.8965950833534440
  0.1035769144912630  0.6027899114682150  0.1376516567159953
  0.1383836436104270  0.6374875482972180  0.3542859395901675
  0.1034868657547986  0.6027078822601345  0.6374226138149311
  0.1376675241992391  0.6374083718221950  0.8534249314836767
  0.8881613472232758  0.3871016797370744  0.1032221261181256
  0.8528648078691633  0.3523628512945007  0.3883630728269047
  0.8872531686717964  0.3867680838167931  0.6027998243380079
  0.8543052152240168  0.3543391926251776  0.8882746745512311
  0.6127640238957445  0.6118350355946968  0.1466909778720248
  0.6468408127996278  0.6462307112111942  0.3616769785613282
  0.6120133450940930  0.6116475770579569  0.6469729615469532
  0.6455817708235502  0.6457880987241247  0.8615907139199585
  0.3883443368083386  0.8874512491748408  0.1035735182090394
  0.3528845588465434  0.8518702714917384  0.3882897571003844
  0.3869496912881527  0.8865326770257447  0.6030391441281137
  0.3543116492395861  0.8543444351540442  0.8882750672132741
  0.8961678384209257  0.8955248285771008  0.1123633960617934
  0.8613701790431356  0.8605598264350693  0.3963026966058198
  0.8956461909477061  0.8952208867838728  0.6122787935769683
  0.8627528351059729  0.8624354100980779  0.8965668663075094
  0.8571256277233628  0.1422640187622702  0.1424569206367272
  0.8931813233236161  0.1055844545149333  0.3578277195105806
  0.8565949196150426  0.1422762478291631  0.6425921461251893
  0.8925388927399488  0.1072352643406951  0.8575168448386512
  0.3571273349876793  0.1427770049401574  0.1077323215552433
  0.3934485511857574  0.1051177087374359  0.3921847632738549
  0.3564125605544990  0.1423992476317723  0.6079650170553447
  0.3927618471734274  0.1070227490444482  0.8925939394751654
  0.1438252420151480  0.3557564988905673  0.1076962837966891
  0.1062733802470975  0.3924035752328885  0.3923653336132480
  0.1431005203335337  0.3560055405808109  0.6077207747626925
  0.1067832362201986  0.3927939559120673  0.8927503772684472
  0.8570262186167176  0.6426668275066204  0.1077660453196544
  0.8936262270288289  0.6051717441285430  0.3918465676798344
  0.8565171911119239  0.6423189004764722  0.6080059327982140
  0.8925529862417524  0.6071928248584449  0.8920605999969903
  0.6437434809406900  0.3560481687933979  0.1423937614447225
  0.6062255084822596  0.3923990658221393  0.3580708892244909
  0.6432422921349106  0.3556776432444890  0.6421610261991937
  0.6070247231519407  0.3926204806922588  0.8577891621426998
  0.3570151477135383  0.6426167388599263  0.1420439421090967
  0.3940059989064203  0.6047490585208051  0.3577832561410384
  0.3566684127092702  0.6421325954235858  0.6426155543754072
  0.3922195576773524  0.6072955598296359  0.8576497483702177
  0.1436575775173460  0.8560540717858957  0.1413678936731790
  0.1059432031403042  0.8926892621744321  0.3578795238091778
  0.1428073127579956  0.8560434911912606  0.6423014192217824
  0.1069829445669628  0.8927790113282672  0.8577478356812619
  0.6436534657008696  0.8559204815253444  0.1078290326520618
  0.6059734947347526  0.8926998316539854  0.3921082310398032
  0.6423360173102293  0.8561892040840103  0.6076633903052227
  0.6072095067043696  0.8923945733307481  0.8926746984639767
  0.9925620786386971 -0.0076522062768151  0.9881978847311780
  0.9882830003551364  0.9882194486278287  0.2426651618057050
  0.9920472961806478  0.9915827200664294  0.4879139654316381
  0.9880300579801670  0.9879502577812292  0.7428765973672932
  0.5118222979838113  0.0116157604564696  0.0070924359009979
  0.5071903070946455  0.0063266371330151  0.2621343483748801
  0.5119049679286991  0.0106226387883198  0.5075678188807278
  0.5073137298443178  0.0070098540916639  0.7622090193967017
  0.2380743827529362  0.2374357948174728  0.9926661689309603
  0.2431114221254304  0.2426424264329665  0.2380213276381515
  0.2376270206383203  0.2372052367901369  0.4926677577703075
  0.2425458616555059  0.2424152407840442  0.7376542887178146
  0.0116363210336603  0.5121356556466323  0.0072690670573141
  0.0077133224399438  0.5068658049938308  0.2622507274815856
  0.0117802344249930  0.5112551957803313  0.5072248797680431
  0.0072903147099722  0.5070418756740873  0.7621691137506539
  0.7574751407590868  0.2566338450724433  0.0117747688934103
  0.7621510872891916  0.2612485916959965  0.2575359766110750
  0.7566489875225602  0.2561405098994010  0.5123453302813263
  0.7621149765190223  0.2617328421471602  0.7577215612882789
  0.4926013811292463  0.4923814235640173  0.9888811217494663
  0.4884780804495782  0.4875635652719283  0.2426611253154522
  0.4919416920356589  0.4909299340531452  0.4879313297813576
  0.4877242162460506  0.4878397365102098  0.7430857338930171
  0.2575624968223241  0.7569003530477513  0.0121122905699435
  0.2621582740314350  0.7615878272045636  0.2570040431166353
  0.2563498583508309  0.7559310125094283  0.5123665659104152
  0.2622304507813402  0.7618594185452988  0.7576261548762137
  0.7379889794826359  0.7380474913615851  0.9923387036476949
  0.7436845403977237  0.7427296003206579  0.2379955035968833
  0.7372861106052667  0.7366672115829030  0.4929130449311669
  0.7424638511257298  0.7422568646065828  0.7379348595224706
  0.0002501954999430  0.2493703689138513  0.1250426748841709
  0.9996449329728804  0.2489804231063499  0.3750964020906464
 -0.0003519615800105  0.2493686733233960  0.6250027175132391
 -0.0000488572898686  0.2498661454237553  0.8750698991929385
  0.5004297943536056  0.2493356708649923  0.1250986135538819
  0.4998528576123200  0.2486735251721006  0.3750372347664875
  0.4997697044353874  0.2491020764370331  0.6252299318838710
  0.4999055999029694  0.2498047154170315  0.8751364723413544
  0.2500185104678467  0.4994043873466182  0.1250195411655696
  0.2499464677307494  0.4989168030965610  0.3750970943321700
  0.2499476275047983  0.4990014076203321  0.6252171814113611
  0.2497775137770293  0.4997077302124350  0.8751338372106293
  0.0001823083811607  0.7493801030547509  0.1249191783362114
 -0.0001802757503022  0.7490093428042646  0.3750976392722279
 -0.0003859795568600  0.7491220779280804  0.6251178292416553
  0.0000713106687596  0.7498029272117491  0.8749553726977084
  0.7504613675652919  0.4993529032908011  0.1250338784098882
  0.7495694251263347  0.4991487728585433  0.3750197458888491
  0.7496922773525152  0.4991388658903206  0.6250338979977139
  0.7496896391072354  0.4999860456121014  0.8749817186845767
  0.5004018728175641  0.7494323152807597  0.1250754559301179
  0.4997558255044957  0.7487975686770644  0.3750936886369954
  0.4994747256235351  0.7490502243008784  0.6250193793522504
  0.4997792941398161  0.7498393412815062  0.8750058777021326
  0.2504118787962101  0.9995771413641424  0.1250107064573437
  0.2497646786747159  0.9987804796192870  0.3751924699218455
  0.2495460130634601  0.9992471583782802  0.6250353406243554
  0.2498752180851699 -0.0000935162447087  0.8750448606064872
  0.7500025606114169 -0.0006157996538541  0.1250232632440556
  0.7497349064210236  0.9989261951035338  0.3750643709519148
  0.7496687038637787  0.9990721211568109  0.6251074904381265
  0.7499457591962885 -0.0003306311306978  0.8750305305017202
 
  0.00000000E+00  0.00000000E+00  0.00000000E+00
  0.00000000E+00  0.00000000E+00  0.00000000E+00
  0.00000000E+00  0.00000000E+00  0.00000000E+00
  0.00000000E+00  0.00000000E+00  0.00000000E+00
  0.00000000E+00  0.00000000E+00  0.00000000E+00
  0.00000000E+00  0.00000000E+00  0.00000000E+00
  0.00000000E+00  0.00000000E+00  0.00000000E+00
  0.00000000E+00  0.00000000E+00  0.00000000E+00
  0.00000000E+00  0.00000000E+00  0.00000000E+00
  0.00000000E+00  0.00000000E+00  0.00000000E+00
  0.00000000E+00  0.00000000E+00  0.00000000E+00
  0.00000000E+00  0.00000000E+00  0.00000000E+00
  0.00000000E+00  0.00000000E+00  0.00000000E+00
  0.00000000E+00  0.00000000E+00  0.00000000E+00
  0.00000000E+00  0.00000000E+00  0.00000000E+00
  0.00000000E+00  0.00000000E+00  0.00000000E+00
  0.00000000E+00  0.00000000E+00  0.00000000E+00
  0.00000000E+00  0.00000000E+00  0.00000000E+00
  0.00000000E+00  0.00000000E+00  0.00000000E+00
  0.00000000E+00  0.00000000E+00  0.00000000E+00
  0.00000000E+00  0.00000000E+00  0.00000000E+00
  0.00000000E+00  0.00000000E+00  0.00000000E+00
  0.00000000E+00  0.00000000E+00  0.00000000E+00
  0.00000000E+00  0.00000000E+00  0.00000000E+00
  0.00000000E+00  0.00000000E+00  0.00000000E+00
  0.00000000E+00  0.00000000E+00  0.00000000E+00
  0.00000000E+00  0.00000000E+00  0.00000000E+00
  0.00000000E+00  0.00000000E+00  0.00000000E+00
  0.00000000E+00  0.00000000E+00  0.00000000E+00
  0.00000000E+00  0.00000000E+00  0.00000000E+00
  0.00000000E+00  0.00000000E+00  0.00000000E+00
  0.00000000E+00  0.00000000E+00  0.00000000E+00
  0.00000000E+00  0.00000000E+00  0.00000000E+00
  0.00000000E+00  0.00000000E+00  0.00000000E+00
  0.00000000E+00  0.00000000E+00  0.00000000E+00
  0.00000000E+00  0.00000000E+00  0.00000000E+00
  0.00000000E+00  0.00000000E+00  0.00000000E+00
  0.00000000E+00  0.00000000E+00  0.00000000E+00
  0.00000000E+00  0.00000000E+00  0.00000000E+00
  0.00000000E+00  0.00000000E+00  0.00000000E+00
  0.00000000E+00  0.00000000E+00  0.00000000E+00
  0.00000000E+00  0.00000000E+00  0.00000000E+00
  0.00000000E+00  0.00000000E+00  0.00000000E+00
  0.00000000E+00  0.00000000E+00  0.00000000E+00
  0.00000000E+00  0.00000000E+00  0.00000000E+00
  0.00000000E+00  0.00000000E+00  0.00000000E+00
  0.00000000E+00  0.00000000E+00  0.00000000E+00
  0.00000000E+00  0.00000000E+00  0.00000000E+00
  0.00000000E+00  0.00000000E+00  0.00000000E+00
  0.00000000E+00  0.00000000E+00  0.00000000E+00
  0.00000000E+00  0.00000000E+00  0.00000000E+00
  0.00000000E+00  0.00000000E+00  0.00000000E+00
  0.00000000E+00  0.00000000E+00  0.00000000E+00
  0.00000000E+00  0.00000000E+00  0.00000000E+00
  0.00000000E+00  0.00000000E+00  0.00000000E+00
  0.00000000E+00  0.00000000E+00  0.00000000E+00
  0.00000000E+00  0.00000000E+00  0.00000000E+00
  0.00000000E+00  0.00000000E+00  0.00000000E+00
  0.00000000E+00  0.00000000E+00  0.00000000E+00
  0.00000000E+00  0.00000000E+00  0.00000000E+00
  0.00000000E+00  0.00000000E+00  0.00000000E+00
  0.00000000E+00  0.00000000E+00  0.00000000E+00
  0.00000000E+00  0.00000000E+00  0.00000000E+00
  0.00000000E+00  0.00000000E+00  0.00000000E+00
  0.00000000E+00  0.00000000E+00  0.00000000E+00
  0.00000000E+00  0.00000000E+00  0.00000000E+00
  0.00000000E+00  0.00000000E+00  0.00000000E+00
  0.00000000E+00  0.00000000E+00  0.00000000E+00
  0.00000000E+00  0.00000000E+00  0.00000000E+00
  0.00000000E+00  0.00000000E+00  0.00000000E+00
  0.00000000E+00  0.00000000E+00  0.00000000E+00
  0.00000000E+00  0.00000000E+00  0.00000000E+00
  0.00000000E+00  0.00000000E+00  0.00000000E+00
  0.00000000E+00  0.00000000E+00  0.00000000E+00
  0.00000000E+00  0.00000000E+00  0.00000000E+00
  0.00000000E+00  0.00000000E+00  0.00000000E+00
  0.00000000E+00  0.00000000E+00  0.00000000E+00
  0.00000000E+00  0.00000000E+00  0.00000000E+00
  0.00000000E+00  0.00000000E+00  0.00000000E+00
  0.00000000E+00  0.00000000E+00  0.00000000E+00
  0.00000000E+00  0.00000000E+00  0.00000000E+00
  0.00000000E+00  0.00000000E+00  0.00000000E+00
  0.00000000E+00  0.00000000E+00  0.00000000E+00
  0.00000000E+00  0.00000000E+00  0.00000000E+00
  0.00000000E+00  0.00000000E+00  0.00000000E+00
  0.00000000E+00  0.00000000E+00  0.00000000E+00
  0.00000000E+00  0.00000000E+00  0.00000000E+00
  0.00000000E+00  0.00000000E+00  0.00000000E+00
  0.00000000E+00  0.00000000E+00  0.00000000E+00
  0.00000000E+00  0.00000000E+00  0.00000000E+00
  0.00000000E+00  0.00000000E+00  0.00000000E+00
  0.00000000E+00  0.00000000E+00  0.00000000E+00
  0.00000000E+00  0.00000000E+00  0.00000000E+00
  0.00000000E+00  0.00000000E+00  0.00000000E+00
  0.00000000E+00  0.00000000E+00  0.00000000E+00
  0.00000000E+00  0.00000000E+00  0.00000000E+00
  0.00000000E+00  0.00000000E+00  0.00000000E+00
  0.00000000E+00  0.00000000E+00  0.00000000E+00
  0.00000000E+00  0.00000000E+00  0.00000000E+00
  0.00000000E+00  0.00000000E+00  0.00000000E+00
  0.00000000E+00  0.00000000E+00  0.00000000E+00
  0.00000000E+00  0.00000000E+00  0.00000000E+00
  0.00000000E+00  0.00000000E+00  0.00000000E+00
  0.00000000E+00  0.00000000E+00  0.00000000E+00
  0.00000000E+00  0.00000000E+00  0.00000000E+00
  0.00000000E+00  0.00000000E+00  0.00000000E+00
  0.00000000E+00  0.00000000E+00  0.00000000E+00
  0.00000000E+00  0.00000000E+00  0.00000000E+00
  0.00000000E+00  0.00000000E+00  0.00000000E+00
  0.00000000E+00  0.00000000E+00  0.00000000E+00
  0.00000000E+00  0.00000000E+00  0.00000000E+00
  0.00000000E+00  0.00000000E+00  0.00000000E+00
  0.00000000E+00  0.00000000E+00  0.00000000E+00
  0.00000000E+00  0.00000000E+00  0.00000000E+00
  0.00000000E+00  0.00000000E+00  0.00000000E+00
  0.00000000E+00  0.00000000E+00  0.00000000E+00
  0.00000000E+00  0.00000000E+00  0.00000000E+00
  0.00000000E+00  0.00000000E+00  0.00000000E+00
  0.00000000E+00  0.00000000E+00  0.00000000E+00
  0.00000000E+00  0.00000000E+00  0.00000000E+00
  0.00000000E+00  0.00000000E+00  0.00000000E+00
  0.00000000E+00  0.00000000E+00  0.00000000E+00
  0.00000000E+00  0.00000000E+00  0.00000000E+00
  0.00000000E+00  0.00000000E+00  0.00000000E+00
  0.00000000E+00  0.00000000E+00  0.00000000E+00
  0.00000000E+00  0.00000000E+00  0.00000000E+00
  0.00000000E+00  0.00000000E+00  0.00000000E+00
  0.00000000E+00  0.00000000E+00  0.00000000E+00
  0.00000000E+00  0.00000000E+00  0.00000000E+00
  0.00000000E+00  0.00000000E+00  0.00000000E+00
  0.00000000E+00  0.00000000E+00  0.00000000E+00
  0.00000000E+00  0.00000000E+00  0.00000000E+00
  0.00000000E+00  0.00000000E+00  0.00000000E+00
  0.00000000E+00  0.00000000E+00  0.00000000E+00
  0.00000000E+00  0.00000000E+00  0.00000000E+00
  0.00000000E+00  0.00000000E+00  0.00000000E+00
  0.00000000E+00  0.00000000E+00  0.00000000E+00
  0.00000000E+00  0.00000000E+00  0.00000000E+00
  0.00000000E+00  0.00000000E+00  0.00000000E+00
  0.00000000E+00  0.00000000E+00  0.00000000E+00
  0.00000000E+00  0.00000000E+00  0.00000000E+00
  0.00000000E+00  0.00000000E+00  0.00000000E+00
  0.00000000E+00  0.00000000E+00  0.00000000E+00
  0.00000000E+00  0.00000000E+00  0.00000000E+00
  0.00000000E+00  0.00000000E+00  0.00000000E+00
  0.00000000E+00  0.00000000E+00  0.00000000E+00
  0.00000000E+00  0.00000000E+00  0.00000000E+00
  0.00000000E+00  0.00000000E+00  0.00000000E+00
  0.00000000E+00  0.00000000E+00  0.00000000E+00
  0.00000000E+00  0.00000000E+00  0.00000000E+00
  0.00000000E+00  0.00000000E+00  0.00000000E+00
  0.00000000E+00  0.00000000E+00  0.00000000E+00
  0.00000000E+00  0.00000000E+00  0.00000000E+00
  0.00000000E+00  0.00000000E+00  0.00000000E+00
  0.00000000E+00  0.00000000E+00  0.00000000E+00
  0.00000000E+00  0.00000000E+00  0.00000000E+00
  0.00000000E+00  0.00000000E+00  0.00000000E+00
  0.00000000E+00  0.00000000E+00  0.00000000E+00
  0.00000000E+00  0.00000000E+00  0.00000000E+00
  0.00000000E+00  0.00000000E+00  0.00000000E+00
