Na Mg F                                 
   1.00000000000000     
     7.8743590000000001   -7.8743590000000001    0.0000000000000000
     7.8743590000000001    7.8743590000000001    0.0000000000000000
     0.0000000000000000    0.0000000000000000   15.7487180000000002
   F    Mg   Na
    96    32    32
Direct
  0.9923025346256212  0.2878392206662790 -0.0000660974458557
  0.0027663895194560  0.2045544024111278  0.2505204541024926
  0.0040430749680160  0.3004720542003776  0.5000220265964441
  0.0027989439520288  0.2044107129690667  0.7494275236471883
  0.4501637836018441  0.2468419066520353 -0.0000100824898487
  0.5454349356937686  0.2483891767745597  0.2493219695774129
  0.4622442041854898  0.2570608164282059  0.4999560712329560
  0.5454416989921613  0.2483384592878928  0.7506001588195855
  0.2472076181069791  0.4498091275435824  0.0000103147732141
  0.2487036029945413  0.5451009714386063  0.2493023612181395
  0.2576615558026101  0.4616941572511135  0.4999671282100968
  0.2485880287412624  0.5450085876607021  0.7505889710438259
  0.9502018419920246  0.7467943531432845  0.0000130892570456
  0.0454292353943026  0.7483203664897610  0.2493021433912897
  0.9622630164691565  0.7568889569513582  0.4999650881663029
  0.0454445271066553  0.7483835090596993  0.7506275441978862
  0.7885239321306519  0.4915719774608065 -0.0000719820061597
  0.7051764242114980  0.5021787462310010  0.2504633942865181
  0.8008392699993803  0.5030695964634023  0.5000020338758929
  0.7051083270286015  0.5021710814790959  0.7494510613725062
  0.4922683031269955  0.7879290746582858 -0.0000218293251186
  0.5029867384732474  0.7045125126568023  0.2504662254241855
  0.5040435902944083  0.8004261781404399  0.4999814859755135
  0.5028700040067917  0.7044804198911682  0.7494476862352407
  0.2885253075240136  0.9916198534098122 -0.0000204524784526
  0.2052472951676549  0.0022699003115096  0.2505277981935090
  0.3009243497182953  0.0031842347755532  0.4999831631923071
  0.2051796860771619  0.0021873717317644  0.7493906866283205
  0.7470706503538720  0.9498790370935803  0.0000255808782667
  0.7487097902778687  0.0451208879209053  0.2493748268798629
  0.7575220712821782  0.9616703014192308  0.4999601313714606
  0.7486294290585964  0.0450956836835620  0.7506129883226739
  0.1499263128762806  0.1493838802330635  0.1100475813354122
  0.1147595644769091  0.1141640888555824  0.4044363710181682
  0.1146252691642551  0.1140606047980569  0.5954318363417366
  0.1498621933105707  0.1492243394401790  0.8899935964823855
  0.6365280541263105  0.1360977152621896  0.0957313553806113
  0.6008899209876118  0.1004826299873679  0.3893672624092879
  0.6008524618185852  0.1003814143757187  0.6105544828040893
  0.6364629229976384  0.1359301167350482  0.9042944929167300
  0.3569248439569084  0.3565071581460199  0.1522742042093385
  0.4085508100907631  0.4080861260291389  0.3586725209094788
  0.4085430331457456  0.4080693057876308  0.6411910555547167
  0.3569654542665238  0.3565289143077544  0.8476947276296419
  0.1365237384588966  0.6361189306502814  0.0956686505006612
  0.1008886911584052  0.6004220243908280  0.3893898268509196
  0.1008659410332710  0.6003987484850555  0.6105114057554401
  0.1363202937696658  0.6359525348258183  0.9042796409608604
  0.8421320382165367  0.3415402767769100  0.1414599511197469
  0.8937276513902381  0.3931765301309757  0.3475201811366282
  0.8937637712920070  0.3931664096858092  0.6523961407229475
  0.8421869656059386  0.3415481947825140  0.8584016256700311
  0.6500776554606962  0.6494942117566465  0.1100685493387172
  0.6147251098407787  0.6141611622365359  0.4044645514522259
  0.6146599703172930  0.6140948294773536  0.5954364912450292
  0.6497971997569879  0.6493069651029840  0.8899744413766588
  0.3421109680368779  0.8415560951831508  0.1415505088316990
  0.3937983393361224  0.8932386149083360  0.3475271876613881
  0.3938238767391138  0.8932465979583748  0.6523554189135210
  0.3422165219961443  0.8415833582915848  0.8584017493839881
  0.8568383720262474  0.8564632174331964  0.1522793494912767
  0.9086245416429165  0.9081293604656303  0.3587826377401074
  0.9086366531224834  0.9080967374712440  0.6411473569166027
  0.8569098234523751  0.8565184483956482  0.8477422843115783
  0.8957247543500276  0.0981753999836349  0.1048588439334929
  0.8555353336313613  0.1516095707324518  0.3953142647217575
  0.8554186425870182  0.1516558484641407  0.6046487015673648
  0.8955941433081313  0.0981833316950371  0.8951544533860603
  0.3946172622368985  0.0999001317526682  0.1470908003008468
  0.3566116748087521  0.1498318644978919  0.3524563000677532
  0.3564497959929656  0.1498988759697050  0.6473971188257646
  0.3943923271902505  0.1000044670736384  0.8526927015571836
  0.1003372805580064  0.3940954237737738  0.1470588254680735
  0.1504212856645232  0.3560424356627072  0.3523764897310862
  0.1504066731424643  0.3560180870561906  0.6474769854550638
  0.1005012813564175  0.3938452080580099  0.8527069652450457
  0.8946192475856206  0.5997716751648732  0.1470474633408538
  0.8565179864599852  0.6498007460415367  0.3524361087638640
  0.8565521233487164  0.6498511457242285  0.6474651392825276
  0.8944321698803264  0.5999578815701213  0.8527192352119018
  0.5985856851260466  0.3953761466367496  0.1048533548972963
  0.6520584425513984  0.3550215305364029  0.3951905276729225
  0.6520709180458402  0.3549300851700513  0.6047640918574058
  0.5986488401297499  0.3951882182568053  0.8950835319481315
  0.3957129309182710  0.5981350306507444  0.1049427275566865
  0.3555058273605584  0.6516216934369025  0.3951763481587529
  0.3554531228568545  0.6515637805362521  0.6047422637904777
  0.3955419952513526  0.5981566400495160  0.8950663067531826
  0.0986405889187468  0.8953353866921472  0.1048868421270878
  0.1521072336757971  0.8548979602034242  0.3951247339338519
  0.1521423640601849  0.8548196483777343  0.6048112130298531
  0.0987578317535132  0.8950981367010545  0.8951371730834660
  0.6002565120880151  0.8940947317715545  0.1471608931316487
  0.6504093582283486  0.8560452289697841  0.3524328176325328
  0.6504287201270750  0.8559854499853942  0.6474927393609956
  0.6004845254710973  0.8938461909312132  0.8527332392773821
  0.9960352202882287  0.2480246993364359  0.1254385818450584
  0.0048919950405329  0.2517998116630385  0.3745299400028008
  0.0048496257787622  0.2517331044247921  0.6254409954596962
  0.9959766310633571  0.2479433767426449  0.8744474688229129
  0.4985777535330200  0.2458555032253009  0.1253210332391909
  0.5022656204074116  0.2544095910572529  0.3745016052452528
  0.5022441718980070  0.2543341475125314  0.6254391863469634
  0.4985988370925103  0.2456940491704486  0.8746291945932362
  0.2461895917813460  0.4981667348486081  0.1253114174958987
  0.2548559023301533  0.5018210324717013  0.3745065845030572
  0.2548162920217919  0.5018083574023364  0.6254255277683465
  0.2461134221489645  0.4981411833309661  0.8746320410119889
  0.9985220800624380  0.7458132161308951  0.1253546754797583
  0.0022337989393586  0.7543396667477762  0.3745263738524461
  0.0022895410087578  0.7542879388453261  0.6254306410571485
  0.9984887832439299  0.7457268567927999  0.8746412001631307
  0.7485739136914686  0.4954848912236192  0.1253958358987267
  0.7523290090301347  0.5043043342390261  0.3744823029426158
  0.7523708605008191  0.5042932970552914  0.6254393967515538
  0.7485961359052704  0.4953358950161340  0.8745238334317058
  0.4959994490430265  0.7480021052204955  0.1254226271498034
  0.5048675670764146  0.7517638642106611  0.3744972063072459
  0.5048427494222010  0.7517195563622887  0.6254792403670604
  0.4959615744884374  0.7479551504606423  0.8745366798932354
  0.2486281680710132  0.9954357615302396  0.1254808739630811
  0.2523569991205638  0.0043034790268898  0.3745148044760483
  0.2523225852780089  0.0042592904583919  0.6254209673902063
  0.2486242256210762  0.9954164258938999  0.8744877158178785
  0.7462302258192233  0.9980934335779882  0.1253730216409178
  0.7548683931563812  0.0018400459914445  0.3745227825419689
  0.7548681550531990  0.0018105944453468  0.6254376632278494
  0.7461665337935236  0.9980707728771150  0.8746357688198750
  0.9823817791902886  0.9819039881225229  0.9999843103241591
  0.9923710583616230  0.9917560840487869  0.2356383419647032
  0.9935728028934089  0.9935523237644777  0.4999230517388713
  0.9923516417348194  0.9915385495772668  0.7641445001267114
  0.5077738650142081  0.0072713285454217  0.0004030862774984
  0.5148460569828449  0.0141962094795789  0.2578355310754621
  0.5069752655745953  0.0067660787256266  0.4999542582789527
  0.5148708124549273  0.0140243276521907  0.7421973300586013
  0.2437054546391909  0.2434176729014410  0.9999634574867601
  0.2362672576339784  0.2354956961793884  0.2420508586267233
  0.2428440835481381  0.2424787389353344  0.5001212767706931
  0.2360526468592367  0.2355605438619518  0.7580401277344604
  0.0074774903689986  0.5071828264089313  0.0004371337251872
  0.0148431898217437  0.5141225107931210  0.2577766077762663
  0.0069167075599730  0.5067595712259468  0.4999919665556422
  0.0148547072239232  0.5140353031397592  0.7421396200262524
  0.7571831738478687  0.2566108092733563  0.0000477387811464
  0.7580529956073861  0.2578859802251898  0.2638046901055425
  0.7697914312571936  0.2695562122506235  0.4999333315381188
  0.7579612547299138  0.2578143594480016  0.7360327883166368
  0.4817934977359407  0.4815482722026121 -0.0000119034406220
  0.4922994637550371  0.4917719568096283  0.2355866070073564
  0.4938656137889837  0.4932389627580342  0.4999780362386058
  0.4923836995821317  0.4916835385404186  0.7641920588765114
  0.2569960126398590  0.7567002742312116 -0.0000605516438991
  0.2579539687097969  0.7577521232014607  0.2639467513524786
  0.2699154381084804  0.7694953521172531  0.4999609819633862
  0.2580758128272080  0.7577072740822621  0.7360856991067483
  0.7437836286414963  0.7435522277008909 -0.0000717578617454
  0.7357449337936901  0.7353554655023181  0.2420039757237241
  0.7427816182443564  0.7425519607525898  0.5000132708810607
  0.7359248217469174  0.7353141795025261  0.7581385364347135
 
  0.00000000E+00  0.00000000E+00  0.00000000E+00
  0.00000000E+00  0.00000000E+00  0.00000000E+00
  0.00000000E+00  0.00000000E+00  0.00000000E+00
  0.00000000E+00  0.00000000E+00  0.00000000E+00
  0.00000000E+00  0.00000000E+00  0.00000000E+00
  0.00000000E+00  0.00000000E+00  0.00000000E+00
  0.00000000E+00  0.00000000E+00  0.00000000E+00
  0.00000000E+00  0.00000000E+00  0.00000000E+00
  0.00000000E+00  0.00000000E+00  0.00000000E+00
  0.00000000E+00  0.00000000E+00  0.00000000E+00
  0.00000000E+00  0.00000000E+00  0.00000000E+00
  0.00000000E+00  0.00000000E+00  0.00000000E+00
  0.00000000E+00  0.00000000E+00  0.00000000E+00
  0.00000000E+00  0.00000000E+00  0.00000000E+00
  0.00000000E+00  0.00000000E+00  0.00000000E+00
  0.00000000E+00  0.00000000E+00  0.00000000E+00
  0.00000000E+00  0.00000000E+00  0.00000000E+00
  0.00000000E+00  0.00000000E+00  0.00000000E+00
  0.00000000E+00  0.00000000E+00  0.00000000E+00
  0.00000000E+00  0.00000000E+00  0.00000000E+00
  0.00000000E+00  0.00000000E+00  0.00000000E+00
  0.00000000E+00  0.00000000E+00  0.00000000E+00
  0.00000000E+00  0.00000000E+00  0.00000000E+00
  0.00000000E+00  0.00000000E+00  0.00000000E+00
  0.00000000E+00  0.00000000E+00  0.00000000E+00
  0.00000000E+00  0.00000000E+00  0.00000000E+00
  0.00000000E+00  0.00000000E+00  0.00000000E+00
  0.00000000E+00  0.00000000E+00  0.00000000E+00
  0.00000000E+00  0.00000000E+00  0.00000000E+00
  0.00000000E+00  0.00000000E+00  0.00000000E+00
  0.00000000E+00  0.00000000E+00  0.00000000E+00
  0.00000000E+00  0.00000000E+00  0.00000000E+00
  0.00000000E+00  0.00000000E+00  0.00000000E+00
  0.00000000E+00  0.00000000E+00  0.00000000E+00
  0.00000000E+00  0.00000000E+00  0.00000000E+00
  0.00000000E+00  0.00000000E+00  0.00000000E+00
  0.00000000E+00  0.00000000E+00  0.00000000E+00
  0.00000000E+00  0.00000000E+00  0.00000000E+00
  0.00000000E+00  0.00000000E+00  0.00000000E+00
  0.00000000E+00  0.00000000E+00  0.00000000E+00
  0.00000000E+00  0.00000000E+00  0.00000000E+00
  0.00000000E+00  0.00000000E+00  0.00000000E+00
  0.00000000E+00  0.00000000E+00  0.00000000E+00
  0.00000000E+00  0.00000000E+00  0.00000000E+00
  0.00000000E+00  0.00000000E+00  0.00000000E+00
  0.00000000E+00  0.00000000E+00  0.00000000E+00
  0.00000000E+00  0.00000000E+00  0.00000000E+00
  0.00000000E+00  0.00000000E+00  0.00000000E+00
  0.00000000E+00  0.00000000E+00  0.00000000E+00
  0.00000000E+00  0.00000000E+00  0.00000000E+00
  0.00000000E+00  0.00000000E+00  0.00000000E+00
  0.00000000E+00  0.00000000E+00  0.00000000E+00
  0.00000000E+00  0.00000000E+00  0.00000000E+00
  0.00000000E+00  0.00000000E+00  0.00000000E+00
  0.00000000E+00  0.00000000E+00  0.00000000E+00
  0.00000000E+00  0.00000000E+00  0.00000000E+00
  0.00000000E+00  0.00000000E+00  0.00000000E+00
  0.00000000E+00  0.00000000E+00  0.00000000E+00
  0.00000000E+00  0.00000000E+00  0.00000000E+00
  0.00000000E+00  0.00000000E+00  0.00000000E+00
  0.00000000E+00  0.00000000E+00  0.00000000E+00
  0.00000000E+00  0.00000000E+00  0.00000000E+00
  0.00000000E+00  0.00000000E+00  0.00000000E+00
  0.00000000E+00  0.00000000E+00  0.00000000E+00
  0.00000000E+00  0.00000000E+00  0.00000000E+00
  0.00000000E+00  0.00000000E+00  0.00000000E+00
  0.00000000E+00  0.00000000E+00  0.00000000E+00
  0.00000000E+00  0.00000000E+00  0.00000000E+00
  0.00000000E+00  0.00000000E+00  0.00000000E+00
  0.00000000E+00  0.00000000E+00  0.00000000E+00
  0.00000000E+00  0.00000000E+00  0.00000000E+00
  0.00000000E+00  0.00000000E+00  0.00000000E+00
  0.00000000E+00  0.00000000E+00  0.00000000E+00
  0.00000000E+00  0.00000000E+00  0.00000000E+00
  0.00000000E+00  0.00000000E+00  0.00000000E+00
  0.00000000E+00  0.00000000E+00  0.00000000E+00
  0.00000000E+00  0.00000000E+00  0.00000000E+00
  0.00000000E+00  0.00000000E+00  0.00000000E+00
  0.00000000E+00  0.00000000E+00  0.00000000E+00
  0.00000000E+00  0.00000000E+00  0.00000000E+00
  0.00000000E+00  0.00000000E+00  0.00000000E+00
  0.00000000E+00  0.00000000E+00  0.00000000E+00
  0.00000000E+00  0.00000000E+00  0.00000000E+00
  0.00000000E+00  0.00000000E+00  0.00000000E+00
  0.00000000E+00  0.00000000E+00  0.00000000E+00
  0.00000000E+00  0.00000000E+00  0.00000000E+00
  0.00000000E+00  0.00000000E+00  0.00000000E+00
  0.00000000E+00  0.00000000E+00  0.00000000E+00
  0.00000000E+00  0.00000000E+00  0.00000000E+00
  0.00000000E+00  0.00000000E+00  0.00000000E+00
  0.00000000E+00  0.00000000E+00  0.00000000E+00
  0.00000000E+00  0.00000000E+00  0.00000000E+00
  0.00000000E+00  0.00000000E+00  0.00000000E+00
  0.00000000E+00  0.00000000E+00  0.00000000E+00
  0.00000000E+00  0.00000000E+00  0.00000000E+00
  0.00000000E+00  0.00000000E+00  0.00000000E+00
  0.00000000E+00  0.00000000E+00  0.00000000E+00
  0.00000000E+00  0.00000000E+00  0.00000000E+00
  0.00000000E+00  0.00000000E+00  0.00000000E+00
  0.00000000E+00  0.00000000E+00  0.00000000E+00
  0.00000000E+00  0.00000000E+00  0.00000000E+00
  0.00000000E+00  0.00000000E+00  0.00000000E+00
  0.00000000E+00  0.00000000E+00  0.00000000E+00
  0.00000000E+00  0.00000000E+00  0.00000000E+00
  0.00000000E+00  0.00000000E+00  0.00000000E+00
  0.00000000E+00  0.00000000E+00  0.00000000E+00
  0.00000000E+00  0.00000000E+00  0.00000000E+00
  0.00000000E+00  0.00000000E+00  0.00000000E+00
  0.00000000E+00  0.00000000E+00  0.00000000E+00
  0.00000000E+00  0.00000000E+00  0.00000000E+00
  0.00000000E+00  0.00000000E+00  0.00000000E+00
  0.00000000E+00  0.00000000E+00  0.00000000E+00
  0.00000000E+00  0.00000000E+00  0.00000000E+00
  0.00000000E+00  0.00000000E+00  0.00000000E+00
  0.00000000E+00  0.00000000E+00  0.00000000E+00
  0.00000000E+00  0.00000000E+00  0.00000000E+00
  0.00000000E+00  0.00000000E+00  0.00000000E+00
  0.00000000E+00  0.00000000E+00  0.00000000E+00
  0.00000000E+00  0.00000000E+00  0.00000000E+00
  0.00000000E+00  0.00000000E+00  0.00000000E+00
  0.00000000E+00  0.00000000E+00  0.00000000E+00
  0.00000000E+00  0.00000000E+00  0.00000000E+00
  0.00000000E+00  0.00000000E+00  0.00000000E+00
  0.00000000E+00  0.00000000E+00  0.00000000E+00
  0.00000000E+00  0.00000000E+00  0.00000000E+00
  0.00000000E+00  0.00000000E+00  0.00000000E+00
  0.00000000E+00  0.00000000E+00  0.00000000E+00
  0.00000000E+00  0.00000000E+00  0.00000000E+00
  0.00000000E+00  0.00000000E+00  0.00000000E+00
  0.00000000E+00  0.00000000E+00  0.00000000E+00
  0.00000000E+00  0.00000000E+00  0.00000000E+00
  0.00000000E+00  0.00000000E+00  0.00000000E+00
  0.00000000E+00  0.00000000E+00  0.00000000E+00
  0.00000000E+00  0.00000000E+00  0.00000000E+00
  0.00000000E+00  0.00000000E+00  0.00000000E+00
  0.00000000E+00  0.00000000E+00  0.00000000E+00
  0.00000000E+00  0.00000000E+00  0.00000000E+00
  0.00000000E+00  0.00000000E+00  0.00000000E+00
  0.00000000E+00  0.00000000E+00  0.00000000E+00
  0.00000000E+00  0.00000000E+00  0.00000000E+00
  0.00000000E+00  0.00000000E+00  0.00000000E+00
  0.00000000E+00  0.00000000E+00  0.00000000E+00
  0.00000000E+00  0.00000000E+00  0.00000000E+00
  0.00000000E+00  0.00000000E+00  0.00000000E+00
  0.00000000E+00  0.00000000E+00  0.00000000E+00
  0.00000000E+00  0.00000000E+00  0.00000000E+00
  0.00000000E+00  0.00000000E+00  0.00000000E+00
  0.00000000E+00  0.00000000E+00  0.00000000E+00
  0.00000000E+00  0.00000000E+00  0.00000000E+00
  0.00000000E+00  0.00000000E+00  0.00000000E+00
  0.00000000E+00  0.00000000E+00  0.00000000E+00
  0.00000000E+00  0.00000000E+00  0.00000000E+00
  0.00000000E+00  0.00000000E+00  0.00000000E+00
  0.00000000E+00  0.00000000E+00  0.00000000E+00
  0.00000000E+00  0.00000000E+00  0.00000000E+00
  0.00000000E+00  0.00000000E+00  0.00000000E+00
  0.00000000E+00  0.00000000E+00  0.00000000E+00
  0.00000000E+00  0.00000000E+00  0.00000000E+00
  0.00000000E+00  0.00000000E+00  0.00000000E+00
  0.00000000E+00  0.00000000E+00  0.00000000E+00
