Ge Tl Br                                
   1.00000000000000     
    11.0281990000000008  -11.0281990000000008    0.0000000000000000
    11.0281990000000008   11.0281990000000008    0.0000000000000000
     0.0000000000000000    0.0000000000000000   22.0563980000000015
   Br   Ge   Tl
    96    32    32
Direct
  0.0859559957617237  0.1281884059330750  0.9650998070663869
  0.0911114046270810  0.1405727597666612  0.2768367024650407
  0.1144145578556753  0.1481815134508185  0.4700136410062370
  0.1546934823077174  0.1109203993910807  0.7778818631414203
  0.5735888177936044  0.1307348352312371  0.0251875751164892
  0.5899148216251420  0.1462863098689651  0.2278161863710763
  0.6260258564961286  0.1654730968042860  0.5346483479247068
  0.6526454236123891  0.1049763491453651  0.7200623558001584
  0.3771962698800145  0.3332416817008265  0.0340773980738136
  0.3930879237344445  0.3417873959587204  0.2228403915261956
  0.4043662656616315  0.3579731472519470  0.5366664865162063
  0.3538450764617608  0.4151071263712562  0.7206508211633450
  0.0747396196986342  0.6289507520293606  0.0303929067005059
  0.0803407776139091  0.6583840693901788  0.2344024588652587
  0.1210155887283866  0.6705014179447107  0.5280097009438268
  0.1524478741647544  0.6051503981872413  0.7154114594070999
  0.8772836062218731  0.3314154779432470  0.9687931299712766
  0.8979956832134705  0.3415772471210102  0.2760812484223579
  0.9153392990079106  0.3699601401905996  0.4740908652338964
  0.8587355134609888  0.4051187372818040  0.7816295391055345
  0.5847695069001855  0.6237410410133589  0.9666266009468343
  0.5856895457589113  0.6459332243538796  0.2731164419295228
  0.6142723893939301  0.6410517350020279  0.4676356955050465
  0.6552655521183303  0.6070429869734651  0.7793360983644237
  0.3760087957672985  0.8309373109904833  0.9658531423056911
  0.3999534584171209  0.8382144557524549  0.2723344590552887
  0.4168299444295996  0.8704141013318966  0.4723218818337504
  0.3531099285113746  0.9077170421136028  0.7769804514402970
  0.8796679006775306  0.8373553948778575  0.0283008177643072
  0.8862709209082547  0.8453590381450341  0.2188288256349410
  0.9077248331327503  0.8550193192385093  0.5281064306567788
  0.8503672970808873  0.9121604551955690  0.7202427766811754
  0.8336688868784946  0.0758739320965928  0.9802320193316265
  0.8505794594375776  0.0872015344959061  0.2610784258463795
  0.8753177746276046  0.1182551479679960  0.4809286042217832
  0.8981823539210355  0.1368868017470932  0.7810244184264081
  0.3414599142501456  0.0813645977212699  0.9771690892757033
  0.3583454287003304  0.0954665543151924  0.2782450224096532
  0.3726038022803269  0.1117363984936900  0.4667826708235100
  0.4113912944840848  0.1485540596576267  0.7746109676792580
  0.1352113459478686  0.3754976240476468  0.0399467156542075
  0.1506211348310875  0.3871844311364038  0.2295259014075730
  0.1666105490068900  0.4000737785643147  0.5180671637660302
  0.1034360179689866  0.3413599792646916  0.7321451838264633
  0.8425004599471974  0.5832849365857425  0.9815219765506467
  0.8577598042729716  0.5976794629548567  0.2879905649344114
  0.8682023415544825  0.6071176066487211  0.4738455573358018
  0.9117956034954195  0.6502631717307137  0.7759400545839237
  0.6389482551163612  0.3763655170593164  0.0093636658588568
  0.6649957074166536  0.4014039952983380  0.2367359559965700
  0.6713837613227498  0.4136707433087435  0.5262508041110658
  0.6078224441110976  0.3485912518889013  0.7208468185390073
  0.3334672298161870  0.5718588460136738  0.9775619260488779
  0.3442438527793483  0.5857640750966612  0.2592752407097460
  0.3755492865478406  0.6162869103241146  0.4783131447966177
  0.3982141019569626  0.6429959791182546  0.7791180090263384
  0.1337930400303546  0.8704477342356725  0.0026408852001628
  0.1697467468120696  0.9066020987440000  0.2312670051409566
  0.1763798465613683  0.9177404129919051  0.5200881612528157
  0.1068747049930239  0.8487645910516378  0.7134956224479301
  0.6380015950780852  0.8814484042127329  0.0361066699285122
  0.6482501857318366  0.8846004708106812  0.2291115806340950
  0.6670327991433392  0.9037209684009330  0.5220592507129556
  0.5995122497505905  0.8350493426485577  0.7275880919816561
  0.9961688177669379  0.0343772301795144  0.1122626733271648
  0.9996616467038631  0.9545386958918657  0.3690208923551809
  0.0129412757849660  0.0641529941862477  0.6176551386624921
  0.9829574519581272  0.9371958021919902  0.8631578421582743
  0.4433432161058827  0.9736300031719400  0.1215770554049715
  0.5541225319992089  0.0187923712562640  0.3669930012415651
  0.4491579917340284  0.0020300221556121  0.6156967015504197
  0.5415425067464786  0.9917018318264172  0.8714146599528383
  0.2226864874344130  0.1892925483762853  0.1246269199485986
  0.2737217243528238  0.2946713285022611  0.3673711926445957
  0.2507991216555839  0.2075042578036599  0.6197756366622239
  0.2424085506330580  0.2988504386395919  0.8727090224890928
  0.9400429828031334  0.4736649146992611  0.1253068473357387
  0.0582249674448854  0.5208074298453823  0.3702516847894577
  0.9553942731975510  0.4980738357345554  0.6189947173767771
  0.0432286330833453  0.4973655827868708  0.8753187799158403
  0.7844593623134873  0.2356620978773137  0.1155377715234873
  0.7095015973391288  0.2580716336900737  0.3723510118647068
  0.8127929306939792  0.2643555381838123  0.6242128183593548
  0.6812631656987549  0.2331128917885263  0.8653657970799720
  0.4977274350891419  0.5344313544469644  0.1299717472057077
  0.5040392305255377  0.4522720539648856  0.3828722474454497
  0.5052827929156553  0.5645150427405478  0.6312173703739036
  0.4850342493693595  0.4403423820855943  0.8759372433551675
  0.2827078178330120  0.7361926510521309  0.1122747081265379
  0.2083405463823882  0.7701400399378674  0.3702853174849769
  0.3101287899322823  0.7647513394436247  0.6202588784583072
  0.1826517329162355  0.7329073320342627  0.8606165363292894
  0.7304681325169101  0.6974838796836101  0.1340129723162314
  0.7767811834911019  0.8027942751850353  0.3845342819830648
  0.7512515997895602  0.6993484101343533  0.6332106982674687
  0.7448875069560633  0.8006488844875967  0.8865938807761256
  0.9858617995835838  0.0045643075321390  0.9952827591457288
  0.9973032922829469  0.0062847343655306  0.2579687040572551
  0.0112003955075604  0.0254722962969209  0.5029912620413621
  0.9840245553486678  0.9978058475815011  0.7538604464397747
  0.4817680202260511  0.9952452431715089  0.0070942616570829
  0.4979743734697423  0.0135146576564241  0.2532367162455382
  0.4936578807771983  0.0114459805905407  0.5013676843238809
  0.4885166489829993  0.0024325763663911  0.7607782851595559
  0.2352916514991292  0.2486225388453159  0.0150035561907437
  0.2561201495382983  0.2592323525902820  0.2496729698240236
  0.2717784677034575  0.2660505678859749  0.5110747592363262
  0.2395013961763762  0.2515500797230007  0.7594695336217973
  0.9798512844621335  0.4957441054971806  0.0112083029612613
  0.9969690317878758  0.5202683097161683  0.2580690519984316
  0.9942312889341615  0.5095448408434087  0.5035416493477124
  0.9916144284496458  0.5048704056134938  0.7642858254756393
  0.7514358421138808  0.2374492939984930  0.0005026879110629
  0.7546879189261237  0.2623078232937999  0.2599358795761014
  0.7530624708982726  0.2690920987791349  0.5138243618905673
  0.7302413802586862  0.2441536318471904  0.7528985647350339
  0.4850449012816140  0.4957367383909987  0.9861832070086953
  0.4934455644896554  0.5127829909347312  0.2486404862368825
  0.5088360039418305  0.5158065700124475  0.4926313706412460
  0.4868423207750157  0.5116086060752874  0.7432337059180061
  0.2508304349881694  0.7358987855188202  0.9971668801190130
  0.2529032112831510  0.7649326625453564  0.2582401362136283
  0.2524170700935726  0.7704191248280934  0.5093579363520472
  0.2298040872626184  0.7451439308145892  0.7473039563494770
  0.7382163864551208  0.7594341667511363  0.0019755397434886
  0.7528837844745306  0.7535407222715569  0.2424825301723648
  0.7701165599019987  0.7737912446646239  0.5028847512390101
  0.7374915769846206  0.7438565097778744  0.7466187369229659
  0.0126762730713622  0.2682365379773594  0.1476275563832641
  0.0550481890589904  0.2999735628727105  0.3733116940153406
  0.0273648765020351  0.2764730755122447  0.5977926718188871
  0.0186108560199784  0.2695369068828255  0.8617984752165990
  0.5418547024133751  0.2862115295071608  0.1251348595716504
  0.4863780417481041  0.2286721752491505  0.3581108959396959
  0.4815253092310348  0.2206104071608418  0.6399034557466007
  0.4736304991213884  0.2300032998990945  0.9082507781953544
  0.2809543815041520  0.5014652487388667  0.1209890861672817
  0.2688436135098652  0.5017472917952541  0.3824267230124166
  0.2862993779736614  0.5371316879058700  0.6053158380136719
  0.2545661576286178  0.5106642504603889  0.8420597978150756
  0.0396648016958477  0.7901901214272647  0.1248945152663588
  0.9874431649631628  0.7289034533061267  0.3740798906565200
  0.9786605812760940  0.7175692522372723  0.6370554570759023
  0.9796580098370398  0.7290259952408953  0.9086164470057294
  0.7348484297469392  0.4933654960056201  0.1116065362435953
  0.7261697779072130  0.4825563784512765  0.3856498768697049
  0.7464974657730586  0.4853835679984743  0.6576683816868318
  0.7197810914013545  0.4667673687748028  0.8875900773887722
  0.5144261674115435  0.7653630123897101  0.1455085275888519
  0.5561579264006706  0.7989347942648760  0.3726369024238635
  0.5212819904297080  0.7714179254723355  0.5944715505903926
  0.5245442490661407  0.7672138636882467  0.8626540240008259
  0.2396152077629895  0.9854584068100689  0.1019604227483841
  0.2201480965095612  0.9946358109487592  0.3786912390780943
  0.2397396141161180  0.9944369465125602  0.6531544918143747
  0.2158638160581551  0.9673814095227095  0.8834002730397079
  0.7825443248425421  0.0004396006605276  0.1261642970093702
  0.7642652029368985  0.0123354154641019  0.3833613998253090
  0.7844764260606788  0.0424745999355715  0.6084613191541829
  0.7553090362003682  0.0078350435800516  0.8470473177183077
 
  0.00000000E+00  0.00000000E+00  0.00000000E+00
  0.00000000E+00  0.00000000E+00  0.00000000E+00
  0.00000000E+00  0.00000000E+00  0.00000000E+00
  0.00000000E+00  0.00000000E+00  0.00000000E+00
  0.00000000E+00  0.00000000E+00  0.00000000E+00
  0.00000000E+00  0.00000000E+00  0.00000000E+00
  0.00000000E+00  0.00000000E+00  0.00000000E+00
  0.00000000E+00  0.00000000E+00  0.00000000E+00
  0.00000000E+00  0.00000000E+00  0.00000000E+00
  0.00000000E+00  0.00000000E+00  0.00000000E+00
  0.00000000E+00  0.00000000E+00  0.00000000E+00
  0.00000000E+00  0.00000000E+00  0.00000000E+00
  0.00000000E+00  0.00000000E+00  0.00000000E+00
  0.00000000E+00  0.00000000E+00  0.00000000E+00
  0.00000000E+00  0.00000000E+00  0.00000000E+00
  0.00000000E+00  0.00000000E+00  0.00000000E+00
  0.00000000E+00  0.00000000E+00  0.00000000E+00
  0.00000000E+00  0.00000000E+00  0.00000000E+00
  0.00000000E+00  0.00000000E+00  0.00000000E+00
  0.00000000E+00  0.00000000E+00  0.00000000E+00
  0.00000000E+00  0.00000000E+00  0.00000000E+00
  0.00000000E+00  0.00000000E+00  0.00000000E+00
  0.00000000E+00  0.00000000E+00  0.00000000E+00
  0.00000000E+00  0.00000000E+00  0.00000000E+00
  0.00000000E+00  0.00000000E+00  0.00000000E+00
  0.00000000E+00  0.00000000E+00  0.00000000E+00
  0.00000000E+00  0.00000000E+00  0.00000000E+00
  0.00000000E+00  0.00000000E+00  0.00000000E+00
  0.00000000E+00  0.00000000E+00  0.00000000E+00
  0.00000000E+00  0.00000000E+00  0.00000000E+00
  0.00000000E+00  0.00000000E+00  0.00000000E+00
  0.00000000E+00  0.00000000E+00  0.00000000E+00
  0.00000000E+00  0.00000000E+00  0.00000000E+00
  0.00000000E+00  0.00000000E+00  0.00000000E+00
  0.00000000E+00  0.00000000E+00  0.00000000E+00
  0.00000000E+00  0.00000000E+00  0.00000000E+00
  0.00000000E+00  0.00000000E+00  0.00000000E+00
  0.00000000E+00  0.00000000E+00  0.00000000E+00
  0.00000000E+00  0.00000000E+00  0.00000000E+00
  0.00000000E+00  0.00000000E+00  0.00000000E+00
  0.00000000E+00  0.00000000E+00  0.00000000E+00
  0.00000000E+00  0.00000000E+00  0.00000000E+00
  0.00000000E+00  0.00000000E+00  0.00000000E+00
  0.00000000E+00  0.00000000E+00  0.00000000E+00
  0.00000000E+00  0.00000000E+00  0.00000000E+00
  0.00000000E+00  0.00000000E+00  0.00000000E+00
  0.00000000E+00  0.00000000E+00  0.00000000E+00
  0.00000000E+00  0.00000000E+00  0.00000000E+00
  0.00000000E+00  0.00000000E+00  0.00000000E+00
  0.00000000E+00  0.00000000E+00  0.00000000E+00
  0.00000000E+00  0.00000000E+00  0.00000000E+00
  0.00000000E+00  0.00000000E+00  0.00000000E+00
  0.00000000E+00  0.00000000E+00  0.00000000E+00
  0.00000000E+00  0.00000000E+00  0.00000000E+00
  0.00000000E+00  0.00000000E+00  0.00000000E+00
  0.00000000E+00  0.00000000E+00  0.00000000E+00
  0.00000000E+00  0.00000000E+00  0.00000000E+00
  0.00000000E+00  0.00000000E+00  0.00000000E+00
  0.00000000E+00  0.00000000E+00  0.00000000E+00
  0.00000000E+00  0.00000000E+00  0.00000000E+00
  0.00000000E+00  0.00000000E+00  0.00000000E+00
  0.00000000E+00  0.00000000E+00  0.00000000E+00
  0.00000000E+00  0.00000000E+00  0.00000000E+00
  0.00000000E+00  0.00000000E+00  0.00000000E+00
  0.00000000E+00  0.00000000E+00  0.00000000E+00
  0.00000000E+00  0.00000000E+00  0.00000000E+00
  0.00000000E+00  0.00000000E+00  0.00000000E+00
  0.00000000E+00  0.00000000E+00  0.00000000E+00
  0.00000000E+00  0.00000000E+00  0.00000000E+00
  0.00000000E+00  0.00000000E+00  0.00000000E+00
  0.00000000E+00  0.00000000E+00  0.00000000E+00
  0.00000000E+00  0.00000000E+00  0.00000000E+00
  0.00000000E+00  0.00000000E+00  0.00000000E+00
  0.00000000E+00  0.00000000E+00  0.00000000E+00
  0.00000000E+00  0.00000000E+00  0.00000000E+00
  0.00000000E+00  0.00000000E+00  0.00000000E+00
  0.00000000E+00  0.00000000E+00  0.00000000E+00
  0.00000000E+00  0.00000000E+00  0.00000000E+00
  0.00000000E+00  0.00000000E+00  0.00000000E+00
  0.00000000E+00  0.00000000E+00  0.00000000E+00
  0.00000000E+00  0.00000000E+00  0.00000000E+00
  0.00000000E+00  0.00000000E+00  0.00000000E+00
  0.00000000E+00  0.00000000E+00  0.00000000E+00
  0.00000000E+00  0.00000000E+00  0.00000000E+00
  0.00000000E+00  0.00000000E+00  0.00000000E+00
  0.00000000E+00  0.00000000E+00  0.00000000E+00
  0.00000000E+00  0.00000000E+00  0.00000000E+00
  0.00000000E+00  0.00000000E+00  0.00000000E+00
  0.00000000E+00  0.00000000E+00  0.00000000E+00
  0.00000000E+00  0.00000000E+00  0.00000000E+00
  0.00000000E+00  0.00000000E+00  0.00000000E+00
  0.00000000E+00  0.00000000E+00  0.00000000E+00
  0.00000000E+00  0.00000000E+00  0.00000000E+00
  0.00000000E+00  0.00000000E+00  0.00000000E+00
  0.00000000E+00  0.00000000E+00  0.00000000E+00
  0.00000000E+00  0.00000000E+00  0.00000000E+00
  0.00000000E+00  0.00000000E+00  0.00000000E+00
  0.00000000E+00  0.00000000E+00  0.00000000E+00
  0.00000000E+00  0.00000000E+00  0.00000000E+00
  0.00000000E+00  0.00000000E+00  0.00000000E+00
  0.00000000E+00  0.00000000E+00  0.00000000E+00
  0.00000000E+00  0.00000000E+00  0.00000000E+00
  0.00000000E+00  0.00000000E+00  0.00000000E+00
  0.00000000E+00  0.00000000E+00  0.00000000E+00
  0.00000000E+00  0.00000000E+00  0.00000000E+00
  0.00000000E+00  0.00000000E+00  0.00000000E+00
  0.00000000E+00  0.00000000E+00  0.00000000E+00
  0.00000000E+00  0.00000000E+00  0.00000000E+00
  0.00000000E+00  0.00000000E+00  0.00000000E+00
  0.00000000E+00  0.00000000E+00  0.00000000E+00
  0.00000000E+00  0.00000000E+00  0.00000000E+00
  0.00000000E+00  0.00000000E+00  0.00000000E+00
  0.00000000E+00  0.00000000E+00  0.00000000E+00
  0.00000000E+00  0.00000000E+00  0.00000000E+00
  0.00000000E+00  0.00000000E+00  0.00000000E+00
  0.00000000E+00  0.00000000E+00  0.00000000E+00
  0.00000000E+00  0.00000000E+00  0.00000000E+00
  0.00000000E+00  0.00000000E+00  0.00000000E+00
  0.00000000E+00  0.00000000E+00  0.00000000E+00
  0.00000000E+00  0.00000000E+00  0.00000000E+00
  0.00000000E+00  0.00000000E+00  0.00000000E+00
  0.00000000E+00  0.00000000E+00  0.00000000E+00
  0.00000000E+00  0.00000000E+00  0.00000000E+00
  0.00000000E+00  0.00000000E+00  0.00000000E+00
  0.00000000E+00  0.00000000E+00  0.00000000E+00
  0.00000000E+00  0.00000000E+00  0.00000000E+00
  0.00000000E+00  0.00000000E+00  0.00000000E+00
  0.00000000E+00  0.00000000E+00  0.00000000E+00
  0.00000000E+00  0.00000000E+00  0.00000000E+00
  0.00000000E+00  0.00000000E+00  0.00000000E+00
  0.00000000E+00  0.00000000E+00  0.00000000E+00
  0.00000000E+00  0.00000000E+00  0.00000000E+00
  0.00000000E+00  0.00000000E+00  0.00000000E+00
  0.00000000E+00  0.00000000E+00  0.00000000E+00
  0.00000000E+00  0.00000000E+00  0.00000000E+00
  0.00000000E+00  0.00000000E+00  0.00000000E+00
  0.00000000E+00  0.00000000E+00  0.00000000E+00
  0.00000000E+00  0.00000000E+00  0.00000000E+00
  0.00000000E+00  0.00000000E+00  0.00000000E+00
  0.00000000E+00  0.00000000E+00  0.00000000E+00
  0.00000000E+00  0.00000000E+00  0.00000000E+00
  0.00000000E+00  0.00000000E+00  0.00000000E+00
  0.00000000E+00  0.00000000E+00  0.00000000E+00
  0.00000000E+00  0.00000000E+00  0.00000000E+00
  0.00000000E+00  0.00000000E+00  0.00000000E+00
  0.00000000E+00  0.00000000E+00  0.00000000E+00
  0.00000000E+00  0.00000000E+00  0.00000000E+00
  0.00000000E+00  0.00000000E+00  0.00000000E+00
  0.00000000E+00  0.00000000E+00  0.00000000E+00
  0.00000000E+00  0.00000000E+00  0.00000000E+00
  0.00000000E+00  0.00000000E+00  0.00000000E+00
  0.00000000E+00  0.00000000E+00  0.00000000E+00
  0.00000000E+00  0.00000000E+00  0.00000000E+00
  0.00000000E+00  0.00000000E+00  0.00000000E+00
  0.00000000E+00  0.00000000E+00  0.00000000E+00
  0.00000000E+00  0.00000000E+00  0.00000000E+00
  0.00000000E+00  0.00000000E+00  0.00000000E+00
  0.00000000E+00  0.00000000E+00  0.00000000E+00
  0.00000000E+00  0.00000000E+00  0.00000000E+00
  0.00000000E+00  0.00000000E+00  0.00000000E+00
