Cs I Pb                                 
   1.00000000000000     
    12.7780400000000007  -12.7780400000000007    0.0000000000000000
    12.7780400000000007   12.7780400000000007    0.0000000000000000
     0.0000000000000000    0.0000000000000000   25.5560809999999989
   Cs   I    Pb
    32    96    32
Direct
  0.0281503239610075  0.2503866216317455  0.1263350512726310
  0.0099860808153911  0.2429917717501495  0.3968706916080371
  0.0231031977063782  0.2281858880298206  0.6380342876949574
  0.9881938821448849  0.2507408016702856  0.8758612385327534
  0.5065141907070310  0.2467288516533133  0.1279679157042424
  0.4758880927919140  0.2690863556780973  0.3648607411552119
  0.4894136217562117  0.2574025804322945  0.6049887910821639
  0.4918546006250115  0.2676075530342614  0.8756695680717282
  0.2806984031881966  0.4831869323004001  0.1239423903300630
  0.2338803143606086  0.5125135075199775  0.3564801986467833
  0.2294219315630198  0.5172367493161667  0.6153886256091168
  0.2373729107381760  0.5184094975683931  0.8717314196896042
  0.0135898910080331  0.7504342970261955  0.1267817383430459
  0.9776316944547856  0.7693735755101546  0.3627046995346229
  0.9919870409608220  0.7580749721163957  0.6042729263980818
  0.9718106036531841  0.7459771470035728  0.8762757241481577
  0.7635322218496521  0.4779515913968119  0.1214219492054521
  0.7674658575419153  0.4829433676620001  0.3849000005380412
  0.7656596863524388  0.4875078556871376  0.6463473023107849
  0.7145548620722800  0.5289796438520873  0.8769071094049224
  0.5268219931936712  0.7505324490973927  0.1267580089398923
  0.5084911128826464  0.7427310848679243  0.3968892085854905
  0.5235298322062666  0.7275907078948606  0.6325837085968702
  0.4915030448665080  0.7474997619968750  0.8714560344650445
  0.2663863086738295  0.9823472771681668  0.1230314094583465
  0.2657092269227881  0.9805269112446574  0.3836018771979441
  0.2680441297447342  0.9878375189524568  0.6427755360510520
  0.2170617301974778  0.0122812096539432  0.8792013469713109
  0.7817290242239937  0.9854995662818565  0.1232241210264288
  0.7335138294289110  0.0129798609315430  0.3570965696329593
  0.7296631634795518  0.0218300576216260  0.6150554724226829
  0.7364740432177611  0.0151951639680761  0.8700637060748316
  0.1020040121260372  0.1461397701457051  0.9837781062798889
  0.0944896688426823  0.1579092825928539  0.2659427856205961
  0.1412275635128933  0.1079461279277848  0.4779352518333517
  0.1071228767380328  0.1415214710291577  0.7698604751873481
  0.5994564838914813  0.1460532065283729  0.9838220802876104
  0.6021577102439849  0.1502837588677816  0.2686415059551649
  0.6450657062614679  0.1053189016972662  0.4840680883593605
  0.6061863576091017  0.1393757737592855  0.7712912554657492
  0.3993888849129536  0.3500398664823562  0.0160649960911431
  0.3926485997558141  0.3595364811979063  0.2337252372927934
  0.3575646654136518  0.3909517153782043  0.5238162141078510
  0.4073495885431423  0.3412409501191800  0.7373873903855478
  0.1008801718015768  0.6455135400255103  0.9837449716481685
  0.1039374609844077  0.6488138144644666  0.2671833153423062
  0.1464783027589106  0.6020787192403894  0.4841360430948440
  0.1077583509156534  0.6400123108895027  0.7729257342449480
  0.8966334197727714  0.3482626096844804  0.0175074290849598
  0.8914664691323638  0.3608141709102820  0.2263427424502906
  0.8500609685832412  0.4003449853507401  0.5161052931516911
  0.8967957045760804  0.3497584123570296  0.7335126601209385
  0.5995009039288937  0.6491558642607898  0.9854621433900697
  0.5943763354272436  0.6583087434930165  0.2661802728291893
  0.6407913538980300  0.6090701670280314  0.4783403618231635
  0.6080688847475295  0.6417487146518100  0.7629815778677470
  0.3966134350442134  0.8491267219877368  0.0185316247236316
  0.3916016073438125  0.8611044922785308  0.2266086499182983
  0.3524575261519455  0.8965820205333921  0.5141062857197205
  0.3998010030087110  0.8467541500120006  0.7305350314095076
  0.8964323089200601  0.8512466917293847  0.0186854754166570
  0.8924629611679432  0.8590977387161968  0.2320931311639809
  0.8581823423019593  0.8921876907913413  0.5258288301012848
  0.9078703586700658  0.8414712931477951  0.7355978843891031
  0.8478630020051861  0.0966314715108682  0.9987532837801126
  0.8498196342450195  0.1057247593128933  0.2407865592774427
  0.8963662328575419  0.1464493807628101  0.5214444391914721
  0.8554320505615737  0.0993397857638291  0.7343111536374911
  0.3508873149319233  0.0989204369102747  0.9841310883531275
  0.3549473440930108  0.1105810685431986  0.2738575312201361
  0.3932072552757381  0.1454782367430570  0.4797452459324660
  0.3536209741255704  0.0964252248241970  0.7719787143300725
  0.1432515317617487  0.3901646449158799  0.0237610423771777
  0.1433795573684609  0.3989745540581876  0.2297672003759385
  0.1033972298405620  0.3554916765243203  0.5237126268924612
  0.1472245783346686  0.3892579394271593  0.7299141156461318
  0.8544866134521392  0.6023484571560388  0.9820122549671548
  0.8552241295382238  0.6108268791111926  0.2742327118155660
  0.8957377083357001  0.6475609949076895  0.4793288915100086
  0.8571626415461604  0.6006134126021355  0.7708351074732015
  0.6469044303672518  0.3966035734231041  0.9901307117043819
  0.6477491411752967  0.4031617512564398  0.2639872219315003
  0.6037192147369057  0.3533873086928790  0.4782056343065741
  0.6483680188582578  0.3932874318991507  0.7662373209867706
  0.3464366143115721  0.5950137421280196  0.0009203697046641
  0.3514116040607412  0.6048558508352704  0.2404098048492662
  0.3942328242542163  0.6433259374732728  0.5205845922632646
  0.3525050377614976  0.5963053990833123  0.7341011287692764
  0.1476406666747911  0.8965432746979247  0.0015847478182800
  0.1449439616803566  0.9003249114685121  0.2600582115212391
  0.1051426559188463  0.8546188508445818  0.4770380064845591
  0.1518299060238490  0.8953842134093900  0.7592854888240634
  0.6439646112187205  0.8912354582950166  0.0238775409522841
  0.6441717842028926  0.8990953770737294  0.2293951579225897
  0.6062918279908556  0.8576937935426219  0.5216453080322611
  0.6500227065612404  0.8936013006377221  0.7288381424969208
  0.0189317595225142  0.0190282599658558  0.1253901190481500
  0.9584005880738857  0.9971573160459632  0.3759266733342841
  0.0442376693756530  0.0001909111967156  0.6239292475179264
  0.9792055598295117  0.9781892829147040  0.8740581002418840
  0.4867732842729688  0.0334158060777375  0.1255185036889216
  0.5027200192210810  0.9613804951078435  0.3754570656881110
  0.4966030610186190  0.0376381985438735  0.6256339497605371
  0.5167259988462818  0.9612298383100910  0.8758285682042614
  0.2501731078169850  0.2116012241281221  0.1270814057851417
  0.2470366997133973  0.2937926789298048  0.3770611665668293
  0.2539130458398674  0.2089240943092560  0.6267372112663966
  0.2568070853198033  0.2892873514254481  0.8767594957638314
  0.9838563143651762  0.5364344756340490  0.1256215866421434
  0.0027071657089265  0.4613548699143971  0.3760813783769530
  0.9986198988119143  0.5388429938642901  0.6264077298515484
  0.0169463146734749  0.4637451618425571  0.8763651963276059
  0.7221482402983638  0.2470307312946593  0.1252426461314576
  0.7901034993861797  0.2547938622354685  0.3754798661981727
  0.7084287311152380  0.2501448793061213  0.6239210624835871
  0.7729829903682720  0.2438540578388889  0.8735397477602577
  0.5240774733072907  0.5139092870258247  0.1254243200083601
  0.4584293693313760  0.4973014897280780  0.3758919204111019
  0.5421952509508621  0.4951571658211523  0.6234478432710744
  0.4768474674032124  0.4968268262964010  0.8732799331354641
  0.2277292441490184  0.7396530780360179  0.1249200297346890
  0.2889909425868194  0.7532734693619122  0.3749252270312428
  0.2100418394368775  0.7479741257444538  0.6234993826245101
  0.2762773258155671  0.7539543030455019  0.8733710202016020
  0.7471381958146768  0.7071773337210826  0.1268109401496924
  0.7480852825754929  0.7934706488366082  0.3759877532770880
  0.7525092453552091  0.7076649250575666  0.6248350411065994
  0.7489281084001629  0.7821849130151615  0.8757828573548543
  0.9999732634409507  0.9999898698937313  0.9999610689776569
  0.0004287929256947  0.0061384124985357  0.2522817045820083
  0.9999594283836644  0.0007749638029485  0.5001892915583938
  0.0006366795962277  0.9939530125038302  0.7476422083199173
  0.4990572446085965  0.0005429697025790  0.9993856208502957
  0.4994525461952626  0.0003978279351473  0.2491672945382002
  0.5000074562038427  0.0000337871648822  0.4999900182768223
  0.5002119054120111  0.0003002651163601  0.7519146025020296
  0.2514229719146021  0.2507241586195927  0.0000841545721806
  0.2481030542799386  0.2487346407643392  0.2514779872855881
  0.2499840941718125  0.2507292333979203  0.5008758503536792
  0.2535112101779911  0.2496819141593608  0.7508411658597665
  0.0001266127478271  0.5002799395515229  0.9999359777179975
  0.9985899277405716  0.5006590726025286  0.2483849751350022
  0.9999690040148559  0.4999326264091889  0.5001242624307343
  0.0023973759813865  0.5006527807345451  0.7517011354651529
  0.7508999624079542  0.2482761405273062  0.0000415175886487
  0.7505026173183157  0.2530184045952465  0.2511272595884385
  0.7494645412851373  0.2523032400457067  0.4999662618502312
  0.7502366272619065  0.2479828292619559  0.7487317671908017
  0.5000443915711766  0.5008033044116028  0.0003420254544912
  0.5022171310801308  0.5061707934442536  0.2528733091576992
  0.5000274941857044  0.4999608731153012  0.4997318769433530
  0.4991079056702249  0.4942005777455669  0.7464495649281988
  0.2522688221715981  0.7485819481045426  0.0002570470117340
  0.2517203673273513  0.7516552436354526  0.2505195181145775
  0.2485292480797287  0.7503232533331631  0.4997219899411545
  0.2515691794220922  0.7483857366739266  0.7484824545082138
  0.7496031466921544  0.7512639111376506  0.0020644386577559
  0.7482463224547584  0.7485019069415907  0.2506841948664670
  0.7518190056705465  0.7517164176613832  0.4996510258257697
  0.7536352525550446  0.7529485043011441  0.7474368721947177
 
  0.00000000E+00  0.00000000E+00  0.00000000E+00
  0.00000000E+00  0.00000000E+00  0.00000000E+00
  0.00000000E+00  0.00000000E+00  0.00000000E+00
  0.00000000E+00  0.00000000E+00  0.00000000E+00
  0.00000000E+00  0.00000000E+00  0.00000000E+00
  0.00000000E+00  0.00000000E+00  0.00000000E+00
  0.00000000E+00  0.00000000E+00  0.00000000E+00
  0.00000000E+00  0.00000000E+00  0.00000000E+00
  0.00000000E+00  0.00000000E+00  0.00000000E+00
  0.00000000E+00  0.00000000E+00  0.00000000E+00
  0.00000000E+00  0.00000000E+00  0.00000000E+00
  0.00000000E+00  0.00000000E+00  0.00000000E+00
  0.00000000E+00  0.00000000E+00  0.00000000E+00
  0.00000000E+00  0.00000000E+00  0.00000000E+00
  0.00000000E+00  0.00000000E+00  0.00000000E+00
  0.00000000E+00  0.00000000E+00  0.00000000E+00
  0.00000000E+00  0.00000000E+00  0.00000000E+00
  0.00000000E+00  0.00000000E+00  0.00000000E+00
  0.00000000E+00  0.00000000E+00  0.00000000E+00
  0.00000000E+00  0.00000000E+00  0.00000000E+00
  0.00000000E+00  0.00000000E+00  0.00000000E+00
  0.00000000E+00  0.00000000E+00  0.00000000E+00
  0.00000000E+00  0.00000000E+00  0.00000000E+00
  0.00000000E+00  0.00000000E+00  0.00000000E+00
  0.00000000E+00  0.00000000E+00  0.00000000E+00
  0.00000000E+00  0.00000000E+00  0.00000000E+00
  0.00000000E+00  0.00000000E+00  0.00000000E+00
  0.00000000E+00  0.00000000E+00  0.00000000E+00
  0.00000000E+00  0.00000000E+00  0.00000000E+00
  0.00000000E+00  0.00000000E+00  0.00000000E+00
  0.00000000E+00  0.00000000E+00  0.00000000E+00
  0.00000000E+00  0.00000000E+00  0.00000000E+00
  0.00000000E+00  0.00000000E+00  0.00000000E+00
  0.00000000E+00  0.00000000E+00  0.00000000E+00
  0.00000000E+00  0.00000000E+00  0.00000000E+00
  0.00000000E+00  0.00000000E+00  0.00000000E+00
  0.00000000E+00  0.00000000E+00  0.00000000E+00
  0.00000000E+00  0.00000000E+00  0.00000000E+00
  0.00000000E+00  0.00000000E+00  0.00000000E+00
  0.00000000E+00  0.00000000E+00  0.00000000E+00
  0.00000000E+00  0.00000000E+00  0.00000000E+00
  0.00000000E+00  0.00000000E+00  0.00000000E+00
  0.00000000E+00  0.00000000E+00  0.00000000E+00
  0.00000000E+00  0.00000000E+00  0.00000000E+00
  0.00000000E+00  0.00000000E+00  0.00000000E+00
  0.00000000E+00  0.00000000E+00  0.00000000E+00
  0.00000000E+00  0.00000000E+00  0.00000000E+00
  0.00000000E+00  0.00000000E+00  0.00000000E+00
  0.00000000E+00  0.00000000E+00  0.00000000E+00
  0.00000000E+00  0.00000000E+00  0.00000000E+00
  0.00000000E+00  0.00000000E+00  0.00000000E+00
  0.00000000E+00  0.00000000E+00  0.00000000E+00
  0.00000000E+00  0.00000000E+00  0.00000000E+00
  0.00000000E+00  0.00000000E+00  0.00000000E+00
  0.00000000E+00  0.00000000E+00  0.00000000E+00
  0.00000000E+00  0.00000000E+00  0.00000000E+00
  0.00000000E+00  0.00000000E+00  0.00000000E+00
  0.00000000E+00  0.00000000E+00  0.00000000E+00
  0.00000000E+00  0.00000000E+00  0.00000000E+00
  0.00000000E+00  0.00000000E+00  0.00000000E+00
  0.00000000E+00  0.00000000E+00  0.00000000E+00
  0.00000000E+00  0.00000000E+00  0.00000000E+00
  0.00000000E+00  0.00000000E+00  0.00000000E+00
  0.00000000E+00  0.00000000E+00  0.00000000E+00
  0.00000000E+00  0.00000000E+00  0.00000000E+00
  0.00000000E+00  0.00000000E+00  0.00000000E+00
  0.00000000E+00  0.00000000E+00  0.00000000E+00
  0.00000000E+00  0.00000000E+00  0.00000000E+00
  0.00000000E+00  0.00000000E+00  0.00000000E+00
  0.00000000E+00  0.00000000E+00  0.00000000E+00
  0.00000000E+00  0.00000000E+00  0.00000000E+00
  0.00000000E+00  0.00000000E+00  0.00000000E+00
  0.00000000E+00  0.00000000E+00  0.00000000E+00
  0.00000000E+00  0.00000000E+00  0.00000000E+00
  0.00000000E+00  0.00000000E+00  0.00000000E+00
  0.00000000E+00  0.00000000E+00  0.00000000E+00
  0.00000000E+00  0.00000000E+00  0.00000000E+00
  0.00000000E+00  0.00000000E+00  0.00000000E+00
  0.00000000E+00  0.00000000E+00  0.00000000E+00
  0.00000000E+00  0.00000000E+00  0.00000000E+00
  0.00000000E+00  0.00000000E+00  0.00000000E+00
  0.00000000E+00  0.00000000E+00  0.00000000E+00
  0.00000000E+00  0.00000000E+00  0.00000000E+00
  0.00000000E+00  0.00000000E+00  0.00000000E+00
  0.00000000E+00  0.00000000E+00  0.00000000E+00
  0.00000000E+00  0.00000000E+00  0.00000000E+00
  0.00000000E+00  0.00000000E+00  0.00000000E+00
  0.00000000E+00  0.00000000E+00  0.00000000E+00
  0.00000000E+00  0.00000000E+00  0.00000000E+00
  0.00000000E+00  0.00000000E+00  0.00000000E+00
  0.00000000E+00  0.00000000E+00  0.00000000E+00
  0.00000000E+00  0.00000000E+00  0.00000000E+00
  0.00000000E+00  0.00000000E+00  0.00000000E+00
  0.00000000E+00  0.00000000E+00  0.00000000E+00
  0.00000000E+00  0.00000000E+00  0.00000000E+00
  0.00000000E+00  0.00000000E+00  0.00000000E+00
  0.00000000E+00  0.00000000E+00  0.00000000E+00
  0.00000000E+00  0.00000000E+00  0.00000000E+00
  0.00000000E+00  0.00000000E+00  0.00000000E+00
  0.00000000E+00  0.00000000E+00  0.00000000E+00
  0.00000000E+00  0.00000000E+00  0.00000000E+00
  0.00000000E+00  0.00000000E+00  0.00000000E+00
  0.00000000E+00  0.00000000E+00  0.00000000E+00
  0.00000000E+00  0.00000000E+00  0.00000000E+00
  0.00000000E+00  0.00000000E+00  0.00000000E+00
  0.00000000E+00  0.00000000E+00  0.00000000E+00
  0.00000000E+00  0.00000000E+00  0.00000000E+00
  0.00000000E+00  0.00000000E+00  0.00000000E+00
  0.00000000E+00  0.00000000E+00  0.00000000E+00
  0.00000000E+00  0.00000000E+00  0.00000000E+00
  0.00000000E+00  0.00000000E+00  0.00000000E+00
  0.00000000E+00  0.00000000E+00  0.00000000E+00
  0.00000000E+00  0.00000000E+00  0.00000000E+00
  0.00000000E+00  0.00000000E+00  0.00000000E+00
  0.00000000E+00  0.00000000E+00  0.00000000E+00
  0.00000000E+00  0.00000000E+00  0.00000000E+00
  0.00000000E+00  0.00000000E+00  0.00000000E+00
  0.00000000E+00  0.00000000E+00  0.00000000E+00
  0.00000000E+00  0.00000000E+00  0.00000000E+00
  0.00000000E+00  0.00000000E+00  0.00000000E+00
  0.00000000E+00  0.00000000E+00  0.00000000E+00
  0.00000000E+00  0.00000000E+00  0.00000000E+00
  0.00000000E+00  0.00000000E+00  0.00000000E+00
  0.00000000E+00  0.00000000E+00  0.00000000E+00
  0.00000000E+00  0.00000000E+00  0.00000000E+00
  0.00000000E+00  0.00000000E+00  0.00000000E+00
  0.00000000E+00  0.00000000E+00  0.00000000E+00
  0.00000000E+00  0.00000000E+00  0.00000000E+00
  0.00000000E+00  0.00000000E+00  0.00000000E+00
  0.00000000E+00  0.00000000E+00  0.00000000E+00
  0.00000000E+00  0.00000000E+00  0.00000000E+00
  0.00000000E+00  0.00000000E+00  0.00000000E+00
  0.00000000E+00  0.00000000E+00  0.00000000E+00
  0.00000000E+00  0.00000000E+00  0.00000000E+00
  0.00000000E+00  0.00000000E+00  0.00000000E+00
  0.00000000E+00  0.00000000E+00  0.00000000E+00
  0.00000000E+00  0.00000000E+00  0.00000000E+00
  0.00000000E+00  0.00000000E+00  0.00000000E+00
  0.00000000E+00  0.00000000E+00  0.00000000E+00
  0.00000000E+00  0.00000000E+00  0.00000000E+00
  0.00000000E+00  0.00000000E+00  0.00000000E+00
  0.00000000E+00  0.00000000E+00  0.00000000E+00
  0.00000000E+00  0.00000000E+00  0.00000000E+00
  0.00000000E+00  0.00000000E+00  0.00000000E+00
  0.00000000E+00  0.00000000E+00  0.00000000E+00
  0.00000000E+00  0.00000000E+00  0.00000000E+00
  0.00000000E+00  0.00000000E+00  0.00000000E+00
  0.00000000E+00  0.00000000E+00  0.00000000E+00
  0.00000000E+00  0.00000000E+00  0.00000000E+00
  0.00000000E+00  0.00000000E+00  0.00000000E+00
  0.00000000E+00  0.00000000E+00  0.00000000E+00
  0.00000000E+00  0.00000000E+00  0.00000000E+00
  0.00000000E+00  0.00000000E+00  0.00000000E+00
  0.00000000E+00  0.00000000E+00  0.00000000E+00
  0.00000000E+00  0.00000000E+00  0.00000000E+00
  0.00000000E+00  0.00000000E+00  0.00000000E+00
  0.00000000E+00  0.00000000E+00  0.00000000E+00
  0.00000000E+00  0.00000000E+00  0.00000000E+00
  0.00000000E+00  0.00000000E+00  0.00000000E+00
  0.00000000E+00  0.00000000E+00  0.00000000E+00
