Mg Tl Br                                
   1.00000000000000     
    11.5453709999999994  -11.5453709999999994    0.0000000000000000
    11.5453709999999994   11.5453709999999994    0.0000000000000000
     0.0000000000000000    0.0000000000000000   23.0907429999999998
   Mg   Tl   Br
    32    32    96
Direct
  0.8539134280590477  0.2077874467035198  0.9522830031080931
  0.9953725007664042  0.0455120915906621  0.1781779405775518
  0.0986334784403787  0.9271523561355854  0.6000469171206282
  0.0754967725550003  0.9417021775493826  0.7763259093870696
  0.4349084615402704  0.2276473282473294  0.0359383068216873
  0.4104513959610239  0.0938210303673096  0.2368096976740707
  0.5604691567828728  0.0138256949321367  0.5422823042560734
  0.6173901765046051  0.0586646925160937  0.6923677198681357
  0.0729477501568449  0.1787734364603559  0.0056628649533432
  0.3284243671194501  0.2696965292929165  0.1790693337535784
  0.1903704309115361  0.2447261976835530  0.4163525456658859
  0.3126421107705779  0.2881538451737992  0.7149686908193703
  0.0417092519580199  0.4076225512409701  0.0146175721347711
  0.0016902178740152  0.5812385466908486  0.2303919349099000
  0.0701892614897830  0.4136969057754310  0.4924930732047840
  0.8957053834107617  0.5562290413645419  0.7299268438774332
  0.6689723377553433  0.1916094926254495  0.0339344893479415
  0.6076057526602906  0.2000742180743982  0.1877891343051663
  0.7413586699150279  0.1265181110362467  0.4697090054805417
  0.7910873844044196  0.1911342247265939  0.6687288106679803
  0.4336530745379050  0.6686406997918840  0.9841830902858822
  0.6175669450693303  0.6223809860765814  0.2447448752997186
  0.5842735640984746  0.5460736731224443  0.5290917373548473
  0.5023045188170303  0.5506039264787338  0.8630839730559240
  0.0736344312923778  0.6677113148295508  0.0570054507322835
  0.1236269941383200  0.7651216916030912  0.2320212980798741
  0.3314915889159106  0.8788885614619761  0.5425440341709248
  0.2537943277288082  0.8082293535897331  0.8645776147771760
  0.6275990871047200  0.7007661821851274  0.0882586849095509
  0.7681518119372369  0.7989588921626832  0.3282215092906537
  0.7342393114911357  0.6323500978118290  0.5980693377501273
  0.8348459655507946  0.7609257163560776  0.7494077933812802
  0.0723850784718452  0.2849067949064334  0.2338058435578000
  0.9513031632535019  0.2178761294090075  0.3862799685205164
  0.0814522728467352  0.2228368518905436  0.6447320491412891
  0.0132764630913938  0.2614615121889497  0.8139285799874620
  0.4638274863755802  0.4687872990026786  0.1939349931737003
  0.5541513041167850  0.2766620362123267  0.3775990377753948
  0.4850938398871064  0.2786984932752315  0.5920317164792321
  0.5344698353893860  0.2215092938346362  0.8588705015375957
  0.2383728422683499  0.5145913417136989  0.1258853699327100
  0.2885938667194357  0.4679805454580739  0.3746264276592972
  0.2831968191252323  0.4455319028788076  0.5777005889383441
  0.2881097934733239  0.5230126916837478  0.7778529052234004
  0.8899528535055424  0.7932987844237165  0.1217421867686670
  0.1037810287443546  0.7294707231730886  0.4191557986300013
  0.0787186236008623  0.6244644211965158  0.6044591132383883
  0.0183690693014296  0.6341936019368760  0.8845927076138916
  0.7994247521317994  0.4948450266003183  0.0732426918941391
  0.7842378110274359  0.4700839526053147  0.3577709112034996
  0.7779940846320749  0.3774328269172714  0.5422621048260771
  0.7761774946076236  0.4330514642346086  0.8638390690884933
  0.4240121174718711  0.7762559466108812  0.1682380719174998
  0.4823594300803236  0.7403411452044090  0.4368679539897614
  0.4421557510043480  0.6548812240418705  0.6377180368554454
  0.5346188589726336  0.8182887233851314  0.8331697822019668
  0.2214752397949791  0.9879525144064486  0.1113391482588176
  0.2855207653754089  0.9784000229322969  0.3560653674902924
  0.3097786490003157  0.0158608818250402  0.6923595304002735
  0.2716716165933423  0.0822862822475958  0.8673742964823308
  0.7236598392470218  0.9681334966845185  0.1319457573212012
  0.6477635907323058  0.0154874543454152  0.3223212597740349
  0.8645514475742268  0.9175840558916613  0.5169950904488093
  0.7735315027551609  0.0091122512870505  0.8415527257911519
  0.9406174669388522  0.2673951461606791  0.0380931822131269
  0.9379116361363765  0.1422920705522189  0.2502905259417020
  0.0916691431273454  0.2557177639296592  0.5029290844516474
  0.8976608173268410  0.2925304119298384  0.6926029507856160
  0.5416193395242723  0.1180477023538945  0.9975633970882566
  0.4683280340135703  0.2591586094000255  0.2349531046254244
  0.5843361527156886  0.1611211232760041  0.4989388914939878
  0.3870686092781442  0.1791417510830450  0.7708869387165671
  0.1365008307066952  0.5535184578176362  0.9984082896694101
  0.2787519139574620  0.3973397720307211  0.2356852562618990
  0.1605144260107177  0.5415515960088531  0.4737485001336934
  0.4080255764066830  0.4060057555832060  0.6929921928383372
  0.9953044892765275  0.7668138166958760  0.9999306279731154
  0.9746620660406643  0.7314072805843336  0.2582996408401752
  0.0430071241746061  0.8124416368194589  0.5394746978695968
  0.9787023725548863  0.6879988722415701  0.7395884287668915
  0.7630188098297334  0.6884821321529631  0.0392507587040977
  0.6118468777175156  0.4733888018958234  0.2881139056100459
  0.7363740947993691  0.5689704751756068  0.4917446790473785
  0.9647773526815238  0.4649106760866962  0.8008773112327616
  0.5250097696545071  0.7936427732082106  0.0393730564609939
  0.4652314063685369  0.6437103005684252  0.2664189802931609
  0.5996902008441289  0.7124699099408315  0.5513795103950632
  0.4626867142964554  0.6440332001435363  0.7805465336281314
  0.1941949335026834  0.0830468078014205  0.9907797478301871
  0.2626959583283918  0.1661532714721750  0.2477341865455233
  0.2256117774653233  0.9921400159867969  0.5531267146769572
  0.1214611950823120  0.0890731947284165  0.7666172858142253
  0.7636757745662098  0.0863312881015097  0.9808485689027825
  0.8022480042241185  0.9096125497092977  0.2536402240226037
  0.6792345298267228  0.9763557137192207  0.4679032668246390
  0.7831955870050306  0.0492900153591338  0.7081638879035200
  0.0938320760787211  0.1436954163549460  0.1223556888993791
  0.1410331690284898  0.1118469919076219  0.3790806428548709
  0.9983019744916324  0.0367593708423370  0.6121283014289085
  0.9825492744150558  0.1187725354374011  0.9238022399477271
  0.5540914046024469  0.0512736148253082  0.1894261693152894
  0.6812371798584416  0.2184836642529324  0.2810960147503058
  0.6400657268674012  0.2217456308811505  0.6859359881369536
  0.5785364475861485  0.0253428065968599  0.7957089666135072
  0.3443170009918338  0.3488825741030429  0.0841359359412157
  0.3297972171012707  0.2996437360507035  0.4376514727747600
  0.2797341760350592  0.2272592505526675  0.6179147947861167
  0.3751129123214278  0.5424505037013670  0.9255245811002279
  0.1707247586239128  0.7473240166631971  0.1242335555156567
  0.1523927555636297  0.5958886018572633  0.2474746411559826
  0.2533197309977769  0.6000359972112943  0.6546259469132767
  0.1902004331929129  0.6809770383703159  0.8262881786929727
  0.7327916662810174  0.3174666611310916  0.9858080187117624
  0.9273448328918065  0.4337521988328061  0.4588022765795375
  0.0843312014641331  0.4274788099150924  0.6035560139910896
  0.9216844580455681  0.4819888377753128  0.9678494672720886
  0.6261703179807946  0.5581027563404346  0.1373065121766401
  0.7623193963527809  0.6502510134160653  0.2859881423141146
  0.6284017480396542  0.5279969226937216  0.6370763369827107
  0.5751630258112858  0.6501052432431899  0.9302875152130118
  0.3467343963033202  0.9511859429500306  0.2236498556338234
  0.4476465887899824  0.9405524021253967  0.4824904051485919
  0.3827036713568233  0.8427202991777907  0.6397556017681318
  0.3521476287979065  0.9008565000932537  0.8123287749747248
  0.9121400407933790  0.9866706430081542  0.0973923163597453
  0.8681610381327264  0.7915775929006829  0.4093211093707579
  0.7928519021470076  0.7653780017460858  0.6416605983641108
  0.9271773762996518  0.9006730809287348  0.7776608347936098
  0.7413462977260037  0.1647760767200916  0.1308109962472504
  0.8649266368896384  0.0594483462737613  0.4177072856386753
  0.8192525005451299  0.1690366952928007  0.5617795160685702
  0.8197137476546241  0.2429877456653539  0.8476032034976814
  0.3686568689039622  0.1334548444161227  0.1141840007678381
  0.4559308644933272  0.0847833743941603  0.3425902450190317
  0.4770932555135106  0.0824668631259099  0.6294637059212554
  0.3800626800987665  0.2527038717863379  0.9361284632123568
  0.0812555332345701  0.4002604576821767  0.1197808467096706
  0.1215939252509392  0.3678756617752003  0.3675888618108681
  0.1851953564394041  0.3432743672619432  0.7597347551728023
  0.1306429033115162  0.3120170518631836  0.9560015580317938
  0.9642975835908367  0.5993947726795287  0.1220769885986580
  0.9311240908337299  0.4558945837969267  0.2616921003976708
  0.8685767491394617  0.5411299779395397  0.6232061606309512
  0.7676674173287750  0.6116242564570200  0.7751744219827499
  0.5651679913102388  0.2917783799736876  0.0947464253108964
  0.7565746580960481  0.2694501095838329  0.4214036326903794
  0.5841363503864684  0.3946923411929957  0.4988819224696166
  0.5770774066665557  0.4223286885032279  0.8413217412525693
  0.4088576876650643  0.6109564535819537  0.0852728991546888
  0.2840784376674471  0.7689474061597092  0.4759908206459145
  0.4331761271209219  0.5676794830837036  0.5026092182592202
  0.3248576880135163  0.7801293616915330  0.9613535684189155
  0.0895422782928346  0.9314312234992267  0.2152259169704756
  0.2178726985942509  0.7937458437383449  0.3143089310577427
  0.1499542198366596  0.8654705712077102  0.6955891101173356
  0.1307931018990005  0.9040025015280653  0.8767000061054957
  0.6251257025591355  0.7720491163421114  0.1861314665014462
  0.6184973209298403  0.8209491151088927  0.3491766266781688
  0.6368500287534464  0.9380456018390944  0.6220495265908020
  0.7291911787390324  0.8231016013713980  0.8171267688816051
 
  0.00000000E+00  0.00000000E+00  0.00000000E+00
  0.00000000E+00  0.00000000E+00  0.00000000E+00
  0.00000000E+00  0.00000000E+00  0.00000000E+00
  0.00000000E+00  0.00000000E+00  0.00000000E+00
  0.00000000E+00  0.00000000E+00  0.00000000E+00
  0.00000000E+00  0.00000000E+00  0.00000000E+00
  0.00000000E+00  0.00000000E+00  0.00000000E+00
  0.00000000E+00  0.00000000E+00  0.00000000E+00
  0.00000000E+00  0.00000000E+00  0.00000000E+00
  0.00000000E+00  0.00000000E+00  0.00000000E+00
  0.00000000E+00  0.00000000E+00  0.00000000E+00
  0.00000000E+00  0.00000000E+00  0.00000000E+00
  0.00000000E+00  0.00000000E+00  0.00000000E+00
  0.00000000E+00  0.00000000E+00  0.00000000E+00
  0.00000000E+00  0.00000000E+00  0.00000000E+00
  0.00000000E+00  0.00000000E+00  0.00000000E+00
  0.00000000E+00  0.00000000E+00  0.00000000E+00
  0.00000000E+00  0.00000000E+00  0.00000000E+00
  0.00000000E+00  0.00000000E+00  0.00000000E+00
  0.00000000E+00  0.00000000E+00  0.00000000E+00
  0.00000000E+00  0.00000000E+00  0.00000000E+00
  0.00000000E+00  0.00000000E+00  0.00000000E+00
  0.00000000E+00  0.00000000E+00  0.00000000E+00
  0.00000000E+00  0.00000000E+00  0.00000000E+00
  0.00000000E+00  0.00000000E+00  0.00000000E+00
  0.00000000E+00  0.00000000E+00  0.00000000E+00
  0.00000000E+00  0.00000000E+00  0.00000000E+00
  0.00000000E+00  0.00000000E+00  0.00000000E+00
  0.00000000E+00  0.00000000E+00  0.00000000E+00
  0.00000000E+00  0.00000000E+00  0.00000000E+00
  0.00000000E+00  0.00000000E+00  0.00000000E+00
  0.00000000E+00  0.00000000E+00  0.00000000E+00
  0.00000000E+00  0.00000000E+00  0.00000000E+00
  0.00000000E+00  0.00000000E+00  0.00000000E+00
  0.00000000E+00  0.00000000E+00  0.00000000E+00
  0.00000000E+00  0.00000000E+00  0.00000000E+00
  0.00000000E+00  0.00000000E+00  0.00000000E+00
  0.00000000E+00  0.00000000E+00  0.00000000E+00
  0.00000000E+00  0.00000000E+00  0.00000000E+00
  0.00000000E+00  0.00000000E+00  0.00000000E+00
  0.00000000E+00  0.00000000E+00  0.00000000E+00
  0.00000000E+00  0.00000000E+00  0.00000000E+00
  0.00000000E+00  0.00000000E+00  0.00000000E+00
  0.00000000E+00  0.00000000E+00  0.00000000E+00
  0.00000000E+00  0.00000000E+00  0.00000000E+00
  0.00000000E+00  0.00000000E+00  0.00000000E+00
  0.00000000E+00  0.00000000E+00  0.00000000E+00
  0.00000000E+00  0.00000000E+00  0.00000000E+00
  0.00000000E+00  0.00000000E+00  0.00000000E+00
  0.00000000E+00  0.00000000E+00  0.00000000E+00
  0.00000000E+00  0.00000000E+00  0.00000000E+00
  0.00000000E+00  0.00000000E+00  0.00000000E+00
  0.00000000E+00  0.00000000E+00  0.00000000E+00
  0.00000000E+00  0.00000000E+00  0.00000000E+00
  0.00000000E+00  0.00000000E+00  0.00000000E+00
  0.00000000E+00  0.00000000E+00  0.00000000E+00
  0.00000000E+00  0.00000000E+00  0.00000000E+00
  0.00000000E+00  0.00000000E+00  0.00000000E+00
  0.00000000E+00  0.00000000E+00  0.00000000E+00
  0.00000000E+00  0.00000000E+00  0.00000000E+00
  0.00000000E+00  0.00000000E+00  0.00000000E+00
  0.00000000E+00  0.00000000E+00  0.00000000E+00
  0.00000000E+00  0.00000000E+00  0.00000000E+00
  0.00000000E+00  0.00000000E+00  0.00000000E+00
  0.00000000E+00  0.00000000E+00  0.00000000E+00
  0.00000000E+00  0.00000000E+00  0.00000000E+00
  0.00000000E+00  0.00000000E+00  0.00000000E+00
  0.00000000E+00  0.00000000E+00  0.00000000E+00
  0.00000000E+00  0.00000000E+00  0.00000000E+00
  0.00000000E+00  0.00000000E+00  0.00000000E+00
  0.00000000E+00  0.00000000E+00  0.00000000E+00
  0.00000000E+00  0.00000000E+00  0.00000000E+00
  0.00000000E+00  0.00000000E+00  0.00000000E+00
  0.00000000E+00  0.00000000E+00  0.00000000E+00
  0.00000000E+00  0.00000000E+00  0.00000000E+00
  0.00000000E+00  0.00000000E+00  0.00000000E+00
  0.00000000E+00  0.00000000E+00  0.00000000E+00
  0.00000000E+00  0.00000000E+00  0.00000000E+00
  0.00000000E+00  0.00000000E+00  0.00000000E+00
  0.00000000E+00  0.00000000E+00  0.00000000E+00
  0.00000000E+00  0.00000000E+00  0.00000000E+00
  0.00000000E+00  0.00000000E+00  0.00000000E+00
  0.00000000E+00  0.00000000E+00  0.00000000E+00
  0.00000000E+00  0.00000000E+00  0.00000000E+00
  0.00000000E+00  0.00000000E+00  0.00000000E+00
  0.00000000E+00  0.00000000E+00  0.00000000E+00
  0.00000000E+00  0.00000000E+00  0.00000000E+00
  0.00000000E+00  0.00000000E+00  0.00000000E+00
  0.00000000E+00  0.00000000E+00  0.00000000E+00
  0.00000000E+00  0.00000000E+00  0.00000000E+00
  0.00000000E+00  0.00000000E+00  0.00000000E+00
  0.00000000E+00  0.00000000E+00  0.00000000E+00
  0.00000000E+00  0.00000000E+00  0.00000000E+00
  0.00000000E+00  0.00000000E+00  0.00000000E+00
  0.00000000E+00  0.00000000E+00  0.00000000E+00
  0.00000000E+00  0.00000000E+00  0.00000000E+00
  0.00000000E+00  0.00000000E+00  0.00000000E+00
  0.00000000E+00  0.00000000E+00  0.00000000E+00
  0.00000000E+00  0.00000000E+00  0.00000000E+00
  0.00000000E+00  0.00000000E+00  0.00000000E+00
  0.00000000E+00  0.00000000E+00  0.00000000E+00
  0.00000000E+00  0.00000000E+00  0.00000000E+00
  0.00000000E+00  0.00000000E+00  0.00000000E+00
  0.00000000E+00  0.00000000E+00  0.00000000E+00
  0.00000000E+00  0.00000000E+00  0.00000000E+00
  0.00000000E+00  0.00000000E+00  0.00000000E+00
  0.00000000E+00  0.00000000E+00  0.00000000E+00
  0.00000000E+00  0.00000000E+00  0.00000000E+00
  0.00000000E+00  0.00000000E+00  0.00000000E+00
  0.00000000E+00  0.00000000E+00  0.00000000E+00
  0.00000000E+00  0.00000000E+00  0.00000000E+00
  0.00000000E+00  0.00000000E+00  0.00000000E+00
  0.00000000E+00  0.00000000E+00  0.00000000E+00
  0.00000000E+00  0.00000000E+00  0.00000000E+00
  0.00000000E+00  0.00000000E+00  0.00000000E+00
  0.00000000E+00  0.00000000E+00  0.00000000E+00
  0.00000000E+00  0.00000000E+00  0.00000000E+00
  0.00000000E+00  0.00000000E+00  0.00000000E+00
  0.00000000E+00  0.00000000E+00  0.00000000E+00
  0.00000000E+00  0.00000000E+00  0.00000000E+00
  0.00000000E+00  0.00000000E+00  0.00000000E+00
  0.00000000E+00  0.00000000E+00  0.00000000E+00
  0.00000000E+00  0.00000000E+00  0.00000000E+00
  0.00000000E+00  0.00000000E+00  0.00000000E+00
  0.00000000E+00  0.00000000E+00  0.00000000E+00
  0.00000000E+00  0.00000000E+00  0.00000000E+00
  0.00000000E+00  0.00000000E+00  0.00000000E+00
  0.00000000E+00  0.00000000E+00  0.00000000E+00
  0.00000000E+00  0.00000000E+00  0.00000000E+00
  0.00000000E+00  0.00000000E+00  0.00000000E+00
  0.00000000E+00  0.00000000E+00  0.00000000E+00
  0.00000000E+00  0.00000000E+00  0.00000000E+00
  0.00000000E+00  0.00000000E+00  0.00000000E+00
  0.00000000E+00  0.00000000E+00  0.00000000E+00
  0.00000000E+00  0.00000000E+00  0.00000000E+00
  0.00000000E+00  0.00000000E+00  0.00000000E+00
  0.00000000E+00  0.00000000E+00  0.00000000E+00
  0.00000000E+00  0.00000000E+00  0.00000000E+00
  0.00000000E+00  0.00000000E+00  0.00000000E+00
  0.00000000E+00  0.00000000E+00  0.00000000E+00
  0.00000000E+00  0.00000000E+00  0.00000000E+00
  0.00000000E+00  0.00000000E+00  0.00000000E+00
  0.00000000E+00  0.00000000E+00  0.00000000E+00
  0.00000000E+00  0.00000000E+00  0.00000000E+00
  0.00000000E+00  0.00000000E+00  0.00000000E+00
  0.00000000E+00  0.00000000E+00  0.00000000E+00
  0.00000000E+00  0.00000000E+00  0.00000000E+00
  0.00000000E+00  0.00000000E+00  0.00000000E+00
  0.00000000E+00  0.00000000E+00  0.00000000E+00
  0.00000000E+00  0.00000000E+00  0.00000000E+00
  0.00000000E+00  0.00000000E+00  0.00000000E+00
  0.00000000E+00  0.00000000E+00  0.00000000E+00
  0.00000000E+00  0.00000000E+00  0.00000000E+00
  0.00000000E+00  0.00000000E+00  0.00000000E+00
  0.00000000E+00  0.00000000E+00  0.00000000E+00
  0.00000000E+00  0.00000000E+00  0.00000000E+00
  0.00000000E+00  0.00000000E+00  0.00000000E+00
  0.00000000E+00  0.00000000E+00  0.00000000E+00
  0.00000000E+00  0.00000000E+00  0.00000000E+00
  0.00000000E+00  0.00000000E+00  0.00000000E+00
