Ca In F                                 
   1.00000000000000     
     9.0004919999999995   -9.0004919999999995    0.0000000000000000
     9.0004919999999995    9.0004919999999995    0.0000000000000000
     0.0000000000000000    0.0000000000000000   18.0009839999999990
   Ca   F    In
    32    96    32
Direct
  0.0018959350604400  0.0013632278973791  0.9978594284440937
  0.9999589221992804  0.9976475008126696  0.2490484458041586
  0.9999508026437983  0.9993260553788447  0.4955527753026626
  0.0037597763694557  0.9954167144140126  0.7514396901616367
  0.4978592810543017  0.9973969956143441  0.9990805149262308
  0.5019766573243104  0.0022979039977496  0.2491910406467841
  0.4989021798514216  0.0003626218594138  0.4992072795110319
  0.5010268674965787  0.9985695348050447  0.7499517937478321
  0.2483615090636825  0.2480516001492305  0.9992001223563522
  0.2506048774201441  0.2472654964124647  0.2500104027209386
  0.2491088175527355  0.2483611303982347  0.5011616722710515
  0.2504486090874984  0.2486213661350924  0.7474323660701517
  0.0038316873563789  0.4967014155227520  0.0004117827057547
  0.0002327571858037  0.4978587329663889  0.2474381371027055
  0.9932264407264099  0.4980263118035130  0.4999223021696441
  0.0021658547156540  0.4974098102416928  0.7467303514580468
  0.7526108026959207  0.2501692619644131  0.9967753528054241
  0.7482829563487726  0.2496046647041542  0.2496830759754664
  0.7515594035367928  0.2516457241057668  0.4992636581465708
  0.7500920781770475  0.2534147728654410  0.7480513319541218
  0.5003512464870352  0.4963722879528921  0.9975712495166592
  0.4999457620340981  0.4964397838539168  0.2491438317305016
  0.4968426163434586  0.5057614295653471  0.4996738881046646
  0.4955296191764937  0.5010799787427621  0.7499085057610432
  0.2481675300295449  0.7491989503186073  0.0006173977319785
  0.2481959764551238  0.7452809853802056  0.2485569670309019
  0.2507098191286764  0.7514271135055186  0.4979695777306584
  0.2478652059350115  0.7468307585685331  0.7489052942066103
  0.7467332641259343  0.7504934492890127  0.9967900177458568
  0.7498220472291608  0.7535161572704879  0.2490166170798356
  0.7491056360182650  0.7523194161916537  0.4974627204901786
  0.7511980718430457  0.7528992744531793  0.7505541754358714
  0.1157781103147669  0.1350369854142999  0.9763897214410390
  0.0998092029822906  0.1514046035687817  0.2475716548286244
  0.1021002471280681  0.1462450113080895  0.5068768781143270
  0.1135394132011352  0.1361343667254844  0.7697834364655073
  0.6196444075408293  0.1340738555649452  0.0176932919953298
  0.6381930476346550  0.1127820212587190  0.2722361257025124
  0.6310855566035878  0.1175355798602684  0.4728251262292664
  0.6255509171646615  0.1240231765499334  0.7601886858352523
  0.3652543974231343  0.3854800880836645  0.0189679164086112
  0.3653128253716700  0.3845815057231593  0.2326839617019947
  0.3811877998164293  0.3696492211945344  0.4897763943591659
  0.3565066896737545  0.3921957462660731  0.7527121270542834
  0.1152778612764811  0.6357036118418513  0.9800821677028085
  0.1062227309503165  0.6439863547680713  0.2598235355253167
  0.1236813157143822  0.6270939153366061  0.5244010966514238
  0.1333985034923843  0.6152448400024996  0.7488170116471536
  0.8619327334120385  0.3901219302277422  0.0051178179105418
  0.8985439563592607  0.3508834221655903  0.2519604506539125
  0.8863220553625000  0.3616255003105565  0.4975909930519689
  0.8629279558571780  0.3866768390640700  0.7611670739776758
  0.6154556776760547  0.6346150851472760  0.0143037462991126
  0.6325212982462596  0.6189866955041777  0.2643074206745506
  0.6420789695774546  0.6083922573250832  0.5068342326110035
  0.6425285161610903  0.6038175069677125  0.7405775389944064
  0.3675017618563431  0.8825429839427791  0.9975306176536890
  0.3710415564871949  0.8784686608445924  0.2603691015381365
  0.3512845891384520  0.8984297716444359  0.5082440825570350
  0.3557449761519822  0.8953153058542350  0.7484614706331103
  0.8777126360654784  0.8745194388412807  0.0194366187220848
  0.8908586271103102  0.8612346162852299  0.2429696581925461
  0.8697312663297679  0.8806621758772151  0.5246031803105919
  0.8640783004588176  0.8866013045170315  0.7375493407207313
  0.8579991568906944  0.1081287516485859  0.0163669064638822
  0.8794581013057788  0.1277980332987309  0.2280723248472039
  0.8655508664809797  0.1163567201369109  0.5175092612090406
  0.8622755949904403  0.1139231018670027  0.7489558318845445
  0.3910332323624666  0.1432699196568896  0.0150657663719228
  0.3608818773168457  0.1111036173009612  0.2541671988202988
  0.3913658548656171  0.1434640878891806  0.4903700705217520
  0.3954467904503421  0.1467678190539460  0.7564063868008186
  0.1310321884552003  0.3801927499689147  0.9768198823834706
  0.1409175197169674  0.3923688743953491  0.2622429226916607
  0.1462485125015145  0.3993999160990545  0.4938839807821438
  0.1237011619697942  0.3729907998698341  0.7791003779092101
  0.8919335603990330  0.6434133715519802  0.9994573240175677
  0.8798987408283407  0.6283521576897272  0.2639499532240012
  0.8921214273529141  0.6433619419191585  0.5145980920703064
  0.8658864844130630  0.6145630738403528  0.7509996109111577
  0.6331499200992934  0.3827687804426407  0.0135959129453339
  0.6427318615097954  0.3894481479862000  0.2605469649838006
  0.6050979317083601  0.3534803490866840  0.4912992986324441
  0.6013300154687926  0.3545791792476626  0.7493653346559752
  0.3903460419044199  0.6415943848978641  0.0074318966369569
  0.3918838955041188  0.6409273374258122  0.2540852067572642
  0.3667939893949705  0.6214372184503957  0.5086058369554874
  0.3984033624242491  0.6509030142632423  0.7572983044451562
  0.1298181588056490  0.8809987056924985  0.9777133753696966
  0.1501958357492860  0.9006959388430089  0.2477414101278312
  0.1042222479974106  0.8585279519148441  0.5092741620877170
  0.1321080485404957  0.8800095718266526  0.7745207273513545
  0.6406804272889042  0.8921238725965468  0.0112900281960661
  0.6072019140062559  0.8582208527288725  0.2590561448439355
  0.6121861104371201  0.8642213453180876  0.5158717012681785
  0.6061459429189698  0.8559244779072258  0.7353805547315834
  0.0344455810860724  0.0033009715712141  0.1229601641010146
  0.9836042603691234  0.0328606518147817  0.3728083244108296
  0.9920798826991682  0.0192601982031244  0.6258044371815794
  0.9634378682122370  0.0196406414173691  0.8743597198988418
  0.5054544639747207  0.0247200747557490  0.1256903317558626
  0.4799235159692121  0.9790410459870527  0.3752635957415340
  0.4750486228990288  0.9873364432927668  0.6249547635212238
  0.4955140204990394  0.0261122257891729  0.8753327166360604
  0.2323290088487173  0.2767422089182944  0.1246939827222919
  0.2491686645089653  0.2746077458220704  0.3752432987843095
  0.2143879443487085  0.2599554255216305  0.6248616863999059
  0.2713661420903787  0.2693345808502725  0.8745359593460640
  0.9974534797078062  0.5047788137477308  0.1241226837550107
  0.0144964675383524  0.5234975031442405  0.3762062779405792
  0.0299699059444642  0.4785893054316073  0.6238942478081749
  0.9756833284908131  0.5253174181095011  0.8739159837091098
  0.7571519722254781  0.2741235338942131  0.1250106800951911
  0.7849577947954662  0.2158183603084202  0.3737344910554603
  0.7160805256418832  0.2518079941416274  0.6234345848700157
  0.7569153922978099  0.2178563223137070  0.8738751811019837
  0.4948173405560575  0.5259439333106188  0.1248619021061672
  0.5216401358004507  0.5029781002788261  0.3749325695284347
  0.5231825392857558  0.4767826620723408  0.6244097764627687
  0.4952511355879980  0.5290797211711736  0.8749111499121086
  0.2438033202358418  0.7794090520357823  0.1248108854366813
  0.2547140007785466  0.7752570729461100  0.3738574423046422
  0.2494486169533718  0.7823588769606188  0.6256960243989748
  0.2792692482745921  0.7629299442594637  0.8744177264074169
  0.7727483784896831  0.7431085901712313  0.1241813742113122
  0.7546742851378517  0.7399819953004474  0.3747816583673918
  0.7297114850043248  0.7284665476391297  0.6249916798173283
  0.7563287847304797  0.7281017495869194  0.8737123718050692
  0.9868768530244730  0.2345046361646485  0.1438298990386187
  0.9921713277482009  0.2372306992675878  0.3673284694618693
  0.0116618147685280  0.2264899727896064  0.6135105496450572
  0.0188020143390379  0.2336847448091449  0.8710731212879540
  0.5022366268821270  0.2186067480306044  0.1084005039787335
  0.4880204820431132  0.2594330994225256  0.4009800099555476
  0.5234211459916487  0.2766727829645086  0.6297608723230662
  0.4968523570283619  0.2235043827851964  0.8576154675175927
  0.2676166480130038  0.4650988940982416  0.1263588029023807
  0.2309716831620635  0.4709632402851359  0.3734473685572077
  0.2237914075557663  0.5020467983775841  0.6071616705263073
  0.2446981017692424  0.4658240994271040  0.8657649627510843
  0.9653603935360100  0.7461727376406935  0.1164269662147088
  0.9894344122094262  0.7207695020437398  0.3549963257260884
  0.0043600389863889  0.7514318189144680  0.6002320090929667
  0.9992377965076019  0.7208369967651302  0.8883699699086708
  0.7522879092157472  0.4700478789689558  0.1066602938111538
  0.7186790742872551  0.5154983465490641  0.3613768643931238
  0.7321678633997225  0.5313134448342377  0.6260541497047113
  0.7735496252622334  0.5135544908415364  0.8533910078757402
  0.4992829061821872  0.7176275243640000  0.1089267668516558
  0.4976517316532708  0.7554191307175426  0.3483597372699872
  0.5243141654368876  0.7694552958631654  0.6241311559480933
  0.4772036890209767  0.7260751813233330  0.8705515923835973
  0.2358808418701610  0.9743772019378859  0.1323184402502761
  0.2749036175957302  0.9764786507178073  0.3603848517529111
  0.2754488142727225  0.9713851734320793  0.6252350255954259
  0.2498658829447437  0.9651722696785989  0.8732642907360427
  0.7494149136713797  0.9951590720293126  0.1008324576710164
  0.7365620559432855  0.0275332646220026  0.3749469344547349
  0.7850616571362540  0.0012832926197232  0.6222995762438847
  0.7664853482909875  0.0243940470060882  0.8554272206695488
 
  0.00000000E+00  0.00000000E+00  0.00000000E+00
  0.00000000E+00  0.00000000E+00  0.00000000E+00
  0.00000000E+00  0.00000000E+00  0.00000000E+00
  0.00000000E+00  0.00000000E+00  0.00000000E+00
  0.00000000E+00  0.00000000E+00  0.00000000E+00
  0.00000000E+00  0.00000000E+00  0.00000000E+00
  0.00000000E+00  0.00000000E+00  0.00000000E+00
  0.00000000E+00  0.00000000E+00  0.00000000E+00
  0.00000000E+00  0.00000000E+00  0.00000000E+00
  0.00000000E+00  0.00000000E+00  0.00000000E+00
  0.00000000E+00  0.00000000E+00  0.00000000E+00
  0.00000000E+00  0.00000000E+00  0.00000000E+00
  0.00000000E+00  0.00000000E+00  0.00000000E+00
  0.00000000E+00  0.00000000E+00  0.00000000E+00
  0.00000000E+00  0.00000000E+00  0.00000000E+00
  0.00000000E+00  0.00000000E+00  0.00000000E+00
  0.00000000E+00  0.00000000E+00  0.00000000E+00
  0.00000000E+00  0.00000000E+00  0.00000000E+00
  0.00000000E+00  0.00000000E+00  0.00000000E+00
  0.00000000E+00  0.00000000E+00  0.00000000E+00
  0.00000000E+00  0.00000000E+00  0.00000000E+00
  0.00000000E+00  0.00000000E+00  0.00000000E+00
  0.00000000E+00  0.00000000E+00  0.00000000E+00
  0.00000000E+00  0.00000000E+00  0.00000000E+00
  0.00000000E+00  0.00000000E+00  0.00000000E+00
  0.00000000E+00  0.00000000E+00  0.00000000E+00
  0.00000000E+00  0.00000000E+00  0.00000000E+00
  0.00000000E+00  0.00000000E+00  0.00000000E+00
  0.00000000E+00  0.00000000E+00  0.00000000E+00
  0.00000000E+00  0.00000000E+00  0.00000000E+00
  0.00000000E+00  0.00000000E+00  0.00000000E+00
  0.00000000E+00  0.00000000E+00  0.00000000E+00
  0.00000000E+00  0.00000000E+00  0.00000000E+00
  0.00000000E+00  0.00000000E+00  0.00000000E+00
  0.00000000E+00  0.00000000E+00  0.00000000E+00
  0.00000000E+00  0.00000000E+00  0.00000000E+00
  0.00000000E+00  0.00000000E+00  0.00000000E+00
  0.00000000E+00  0.00000000E+00  0.00000000E+00
  0.00000000E+00  0.00000000E+00  0.00000000E+00
  0.00000000E+00  0.00000000E+00  0.00000000E+00
  0.00000000E+00  0.00000000E+00  0.00000000E+00
  0.00000000E+00  0.00000000E+00  0.00000000E+00
  0.00000000E+00  0.00000000E+00  0.00000000E+00
  0.00000000E+00  0.00000000E+00  0.00000000E+00
  0.00000000E+00  0.00000000E+00  0.00000000E+00
  0.00000000E+00  0.00000000E+00  0.00000000E+00
  0.00000000E+00  0.00000000E+00  0.00000000E+00
  0.00000000E+00  0.00000000E+00  0.00000000E+00
  0.00000000E+00  0.00000000E+00  0.00000000E+00
  0.00000000E+00  0.00000000E+00  0.00000000E+00
  0.00000000E+00  0.00000000E+00  0.00000000E+00
  0.00000000E+00  0.00000000E+00  0.00000000E+00
  0.00000000E+00  0.00000000E+00  0.00000000E+00
  0.00000000E+00  0.00000000E+00  0.00000000E+00
  0.00000000E+00  0.00000000E+00  0.00000000E+00
  0.00000000E+00  0.00000000E+00  0.00000000E+00
  0.00000000E+00  0.00000000E+00  0.00000000E+00
  0.00000000E+00  0.00000000E+00  0.00000000E+00
  0.00000000E+00  0.00000000E+00  0.00000000E+00
  0.00000000E+00  0.00000000E+00  0.00000000E+00
  0.00000000E+00  0.00000000E+00  0.00000000E+00
  0.00000000E+00  0.00000000E+00  0.00000000E+00
  0.00000000E+00  0.00000000E+00  0.00000000E+00
  0.00000000E+00  0.00000000E+00  0.00000000E+00
  0.00000000E+00  0.00000000E+00  0.00000000E+00
  0.00000000E+00  0.00000000E+00  0.00000000E+00
  0.00000000E+00  0.00000000E+00  0.00000000E+00
  0.00000000E+00  0.00000000E+00  0.00000000E+00
  0.00000000E+00  0.00000000E+00  0.00000000E+00
  0.00000000E+00  0.00000000E+00  0.00000000E+00
  0.00000000E+00  0.00000000E+00  0.00000000E+00
  0.00000000E+00  0.00000000E+00  0.00000000E+00
  0.00000000E+00  0.00000000E+00  0.00000000E+00
  0.00000000E+00  0.00000000E+00  0.00000000E+00
  0.00000000E+00  0.00000000E+00  0.00000000E+00
  0.00000000E+00  0.00000000E+00  0.00000000E+00
  0.00000000E+00  0.00000000E+00  0.00000000E+00
  0.00000000E+00  0.00000000E+00  0.00000000E+00
  0.00000000E+00  0.00000000E+00  0.00000000E+00
  0.00000000E+00  0.00000000E+00  0.00000000E+00
  0.00000000E+00  0.00000000E+00  0.00000000E+00
  0.00000000E+00  0.00000000E+00  0.00000000E+00
  0.00000000E+00  0.00000000E+00  0.00000000E+00
  0.00000000E+00  0.00000000E+00  0.00000000E+00
  0.00000000E+00  0.00000000E+00  0.00000000E+00
  0.00000000E+00  0.00000000E+00  0.00000000E+00
  0.00000000E+00  0.00000000E+00  0.00000000E+00
  0.00000000E+00  0.00000000E+00  0.00000000E+00
  0.00000000E+00  0.00000000E+00  0.00000000E+00
  0.00000000E+00  0.00000000E+00  0.00000000E+00
  0.00000000E+00  0.00000000E+00  0.00000000E+00
  0.00000000E+00  0.00000000E+00  0.00000000E+00
  0.00000000E+00  0.00000000E+00  0.00000000E+00
  0.00000000E+00  0.00000000E+00  0.00000000E+00
  0.00000000E+00  0.00000000E+00  0.00000000E+00
  0.00000000E+00  0.00000000E+00  0.00000000E+00
  0.00000000E+00  0.00000000E+00  0.00000000E+00
  0.00000000E+00  0.00000000E+00  0.00000000E+00
  0.00000000E+00  0.00000000E+00  0.00000000E+00
  0.00000000E+00  0.00000000E+00  0.00000000E+00
  0.00000000E+00  0.00000000E+00  0.00000000E+00
  0.00000000E+00  0.00000000E+00  0.00000000E+00
  0.00000000E+00  0.00000000E+00  0.00000000E+00
  0.00000000E+00  0.00000000E+00  0.00000000E+00
  0.00000000E+00  0.00000000E+00  0.00000000E+00
  0.00000000E+00  0.00000000E+00  0.00000000E+00
  0.00000000E+00  0.00000000E+00  0.00000000E+00
  0.00000000E+00  0.00000000E+00  0.00000000E+00
  0.00000000E+00  0.00000000E+00  0.00000000E+00
  0.00000000E+00  0.00000000E+00  0.00000000E+00
  0.00000000E+00  0.00000000E+00  0.00000000E+00
  0.00000000E+00  0.00000000E+00  0.00000000E+00
  0.00000000E+00  0.00000000E+00  0.00000000E+00
  0.00000000E+00  0.00000000E+00  0.00000000E+00
  0.00000000E+00  0.00000000E+00  0.00000000E+00
  0.00000000E+00  0.00000000E+00  0.00000000E+00
  0.00000000E+00  0.00000000E+00  0.00000000E+00
  0.00000000E+00  0.00000000E+00  0.00000000E+00
  0.00000000E+00  0.00000000E+00  0.00000000E+00
  0.00000000E+00  0.00000000E+00  0.00000000E+00
  0.00000000E+00  0.00000000E+00  0.00000000E+00
  0.00000000E+00  0.00000000E+00  0.00000000E+00
  0.00000000E+00  0.00000000E+00  0.00000000E+00
  0.00000000E+00  0.00000000E+00  0.00000000E+00
  0.00000000E+00  0.00000000E+00  0.00000000E+00
  0.00000000E+00  0.00000000E+00  0.00000000E+00
  0.00000000E+00  0.00000000E+00  0.00000000E+00
  0.00000000E+00  0.00000000E+00  0.00000000E+00
  0.00000000E+00  0.00000000E+00  0.00000000E+00
  0.00000000E+00  0.00000000E+00  0.00000000E+00
  0.00000000E+00  0.00000000E+00  0.00000000E+00
  0.00000000E+00  0.00000000E+00  0.00000000E+00
  0.00000000E+00  0.00000000E+00  0.00000000E+00
  0.00000000E+00  0.00000000E+00  0.00000000E+00
  0.00000000E+00  0.00000000E+00  0.00000000E+00
  0.00000000E+00  0.00000000E+00  0.00000000E+00
  0.00000000E+00  0.00000000E+00  0.00000000E+00
  0.00000000E+00  0.00000000E+00  0.00000000E+00
  0.00000000E+00  0.00000000E+00  0.00000000E+00
  0.00000000E+00  0.00000000E+00  0.00000000E+00
  0.00000000E+00  0.00000000E+00  0.00000000E+00
  0.00000000E+00  0.00000000E+00  0.00000000E+00
  0.00000000E+00  0.00000000E+00  0.00000000E+00
  0.00000000E+00  0.00000000E+00  0.00000000E+00
  0.00000000E+00  0.00000000E+00  0.00000000E+00
  0.00000000E+00  0.00000000E+00  0.00000000E+00
  0.00000000E+00  0.00000000E+00  0.00000000E+00
  0.00000000E+00  0.00000000E+00  0.00000000E+00
  0.00000000E+00  0.00000000E+00  0.00000000E+00
  0.00000000E+00  0.00000000E+00  0.00000000E+00
  0.00000000E+00  0.00000000E+00  0.00000000E+00
  0.00000000E+00  0.00000000E+00  0.00000000E+00
  0.00000000E+00  0.00000000E+00  0.00000000E+00
  0.00000000E+00  0.00000000E+00  0.00000000E+00
  0.00000000E+00  0.00000000E+00  0.00000000E+00
  0.00000000E+00  0.00000000E+00  0.00000000E+00
  0.00000000E+00  0.00000000E+00  0.00000000E+00
  0.00000000E+00  0.00000000E+00  0.00000000E+00
  0.00000000E+00  0.00000000E+00  0.00000000E+00
  0.00000000E+00  0.00000000E+00  0.00000000E+00
