Cs Sr F                                 
   1.00000000000000     
     9.6596810000000009   -9.6596810000000009    0.0000000000000000
     9.6596810000000009    9.6596810000000009    0.0000000000000000
     0.0000000000000000    0.0000000000000000   19.3193629999999992
   Cs   F    Sr
    32    96    32
Direct
  0.0020414298347186  0.9942654309794440 -0.0001385276773740
  0.0017417056832850 -0.0009341230525103  0.2498946807118122
  0.9995123251011990  0.0057385943393404  0.4999489762950707
  0.0014489559250688 -0.0006822720485630  0.7497931361258725
  0.4988929111676555  0.9933897191198372  0.9997923249867754
  0.4986935071622564  0.0000061969111626  0.2485854607836118
  0.4985482408720990  0.0089648103743531  0.4998217408122458
  0.4985448864983888  0.0003527928922511  0.7510841822317846
  0.2503615065802371  0.2449826420775938 -0.0000978572881947
  0.2480828721975143  0.2518899651625899  0.2496609743588514
  0.2476352515801339  0.2569801169915792  0.4998862820957986
  0.2481409369885650  0.2520199318349385  0.7500754852707419
  0.9988765162273837  0.4934239374427964 -0.0002040367702037
 -0.0012734631558204  0.5000046607458131  0.2485779692892901
 -0.0014399985734294  0.5090556067890945  0.4998070637686779
 -0.0015396923380690  0.5004560943335985  0.7511114261704716
  0.7498330046900867  0.2423080475403308 -0.0000130047649470
  0.7503065050472773  0.2506999842213773  0.2513641152191146
  0.7502422003579901  0.2579557580066695  0.5000303277359269
  0.7503565668950385  0.2507118643503108  0.7483044866206893
  0.5019874027261840  0.4942816957851338 -0.0001413979670710
  0.5017484851101860  0.4989034220925753  0.2499091150136107
  0.4994055155206758  0.5056587802410080  0.4999514820341844
  0.5014820537146645  0.4992684308708689  0.7497550136755725
  0.2499808157819312  0.7423815633358537 -0.0000585421953728
  0.2502892217804067  0.7506368087788284  0.2514078088783592
  0.2502486095989368  0.7579374905658162  0.5000458121448437
  0.2503030780729105  0.7507813026772816  0.7482873046807467
  0.7505096083886470  0.7449178797860577 -0.0001412560228149
  0.7480704084502178  0.7518683294926757  0.2496225542833777
  0.7475961969018271  0.7569925365021936  0.4998991519199159
  0.7481140023741718  0.7519620382741630  0.7500888009179416
  0.9816525148253453  0.2441898254546074 -0.0001952005201844
  0.0160987170476025  0.2620816101240523  0.2498328485579639
  0.9841514429542386  0.2378977094182985  0.4997955008865581
  0.0169039142985655  0.2621798952690781  0.7498133459159878
  0.4768365680420449  0.2537570054524094 -0.0001014901865970
  0.5221617430222123  0.2509359949400544  0.2498233477272786
  0.4766410647820832  0.2486679614204683  0.4998809713337551
  0.5223213087752440  0.2509260655876437  0.7498393319195710
  0.2735307407758723  0.5054490462407633  0.9998348256918973
  0.2256857913329134  0.4995895904298090  0.2498383976810226
  0.2734264676603884  0.4971829918309201  0.4998496937533380
  0.2251667688857438  0.4990204949333481  0.7498982309603361
  0.9768516895583577  0.7537759399492679 -0.0001811927371441
  0.0221933271791578  0.7509068966558196  0.2498645549431158
  0.9766351783536725  0.7487659326432714  0.4998176118110452
  0.0223874146963740  0.7508424691571928  0.7499042491235436
  0.7639437919688824  0.5115197245513711 -0.0001991709164610
  0.7350143886479055  0.4912857189328405  0.2498900241720969
  0.7646428567606095  0.5073630805571878  0.4998230099878414
  0.7346527291165139  0.4912529928602431  0.7497728352724219
  0.4816491454253617  0.7439203144254616 -0.0001807172618089
  0.5161126507571216  0.7621380757013010  0.2498006318575027
  0.4841665183353261  0.7378299774059479  0.4998363259159116
  0.5168501528205975  0.7623807012329035  0.7498287506427043
  0.2639497398391633  0.0115740978030855  0.9997946267971108
  0.2350326689785796  0.9912143537314970  0.2498749518403617
  0.2646261101995820  0.0073701665923418  0.4998317846796236
  0.2346960578252236  0.9912861777355971  0.7497668671923816
  0.7735322351381797  0.0053575729878784 -0.0001260273587726
  0.7257124709714053 -0.0003613464821178  0.2498466713140954
  0.7733849301201376  0.9971528236673121  0.4998471424744716
  0.7251934884593840 -0.0009642069472552  0.7498930574793359
  0.1101155792708836  0.1101773644911144  0.1222229034281976
  0.1392716109968049  0.1415626603939960  0.3773119117216472
  0.1381748537968885  0.1407479627177282  0.6220140005826583
  0.1100475295349022  0.1100406176173916  0.8774833166639002
  0.6113060827197404  0.1111837420009443  0.1133352637228398
  0.6381453794669186  0.1404178831376030  0.3865256020456488
  0.6372277394328629  0.1397607739466058  0.6131807816751713
  0.6113212061424400  0.1111965062287257  0.8863004331729519
  0.3871974558015557  0.3872047110774168  0.1357184046000323
  0.3615804768010070  0.3637085134693784  0.3638001302937560
  0.3622858457186046  0.3647835374700500  0.6360926336949794
  0.3872327148865031  0.3872575840980776  0.8639042952702830
  0.1114311774174078  0.6112703440504502  0.1132907352826514
  0.1381859001233490  0.6404661916769240  0.3864634303196976
  0.1371842825364749  0.6397614625137049  0.6131669281217218
  0.1112339438002271  0.6111233301520872  0.8863153442628230
  0.8883595495211093  0.3883433247839984  0.1284605470667874
  0.8604224358514790  0.3625867447568845  0.3722329732704387
  0.8611006867157662  0.3635003020194998  0.6274646045152655
  0.8883620210735684  0.3882737707284468  0.8709265902276998
  0.6101994291577103  0.6101482570525066  0.1222520202633314
  0.6392974220737198  0.6416028478207849  0.3773150384517980
  0.6381359287106444  0.6406477144122831  0.6221521417872735
  0.6100808808636234  0.6100044458835759  0.8774675488804959
  0.3883404547503249  0.8883359787061829  0.1282460522548578
  0.3602996910723695  0.8626105544583488  0.3722711578256523
  0.3611238387004218  0.8635696085935576  0.6274239113999580
  0.3884120450097246  0.8883631305299760  0.8711170711124474
  0.8872736191232153  0.8872216016679668  0.1357250890612241
  0.8615296229734113  0.8637166514573976  0.3637625170544697
  0.8622890651555231  0.8647113066430965  0.6361170760356676
  0.8872425957593966  0.8872294277375820  0.8639155198747848
  0.8611585656263741  0.1379183288491594  0.1367966537147797
  0.8873898821310754  0.1140267717463988  0.3620565419760285
  0.8858448650530567  0.1156417845470580  0.6380446581915513
  0.8614422843017479  0.1376906691902525  0.8626599490346086
  0.3620641376170479  0.1369645590645735  0.1362317495388335
  0.3892021602527564  0.1124443291401346  0.3643710707736161
  0.3880874643073672  0.1136145546729363  0.6356579396182663
  0.3620973581442099  0.1369860492042738  0.8634901013883608
  0.1377558939581770  0.3615160592189680  0.1127406107517479
  0.1111884089237893  0.3904170048523717  0.3871944474215887
  0.1117600926364698  0.3898653221755221  0.6121098052780632
  0.1379480228496877  0.3613520693791000  0.8870477679735288
  0.8620938833412684  0.6369670702112178  0.1361815574296280
  0.8892507797086334  0.6123685450972510  0.3643685947541353
  0.8880848599706667  0.6135396062492309  0.6356394477429514
  0.8620768383105586  0.6369571906310305  0.8634984019687049
  0.6369768237587821  0.3619364484804121  0.1132125252574802
  0.6102307397456163  0.3912105565759236  0.3855307943010752
  0.6107851095140812  0.3906411272776770  0.6139911683525943
  0.6369979760968856  0.3618991929868686  0.8866917673322668
  0.3612043167474569  0.6378194880333707  0.1368563987559167
  0.3873846418023573  0.6140474713180393  0.3620254990649480
  0.3856914732783021  0.6157000396495957  0.6381239262176630
  0.3613831150911916  0.6377341577644516  0.8626063706392948
  0.1369956082399182  0.8619432252558404  0.1131361753790813
  0.1102176114396532  0.8912128688673305  0.3855666447627951
  0.1108201309168415  0.8905776348127986  0.6140240222111313
  0.1370895532064243  0.8618285817087179  0.8866741275154644
  0.6377638977770046  0.8614116563928133  0.1127529613979702
  0.6111501770811623  0.8903728960257787  0.3872786030388430
  0.6117718061946885  0.8897509539124479  0.6120617923253334
  0.6379552794739456  0.8612608261790603  0.8870764844699622
  0.9994320275658193  0.2493363735024918  0.1248910237193491
  0.9996728161387096  0.2520869102318584  0.3748660250753548
  0.9996000009434032  0.2522726026060345  0.6247975213726478
  0.9994940823093721  0.2493394946584395  0.8747174458376165
  0.4996101200669665  0.2492694328198649  0.1248337942440410
  0.4994745240493762  0.2518002515684491  0.3748448055527008
  0.4993511476097547  0.2520225743738983  0.6249054915557845
  0.4996124888159132  0.2493245547303095  0.8749066898637212
  0.2497033638667580  0.4996274819166482  0.1248559415183224
  0.2494912099928118  0.5020005543861318  0.3748695692240437
  0.2492769606301878  0.5020476486485645  0.6248813916656465
  0.2496856560095722  0.4995955109200836  0.8748288109135559
 -0.0003741030539943  0.7492574274497733  0.1248046907592963
  0.9994851326888063  0.7518709391709603  0.3748276459974311
  0.9993558370620826  0.7519470087959854  0.6248966047126907
 -0.0003376637425186  0.7492777441948020  0.8748778848131799
  0.7495521785939218  0.4991797410652643  0.1248223665059813
  0.7497632181523189  0.5021574812493949  0.3748057831442484
  0.7496349130861075  0.5022464488270357  0.6248552474842606
  0.7495437670730715  0.4991502865705205  0.8748247822274221
  0.4994041098881977  0.7492599315328798  0.1248852449028439
  0.4996608529875257  0.7520761365492371  0.3748615928850804
  0.4995527619985278  0.7522261495083113  0.6248213712759269
  0.4994995445404731  0.7493064304712048  0.8747416996513150
  0.2495416808471333  0.9991968763881011  0.1247908172479450
  0.2497289048591771  0.0021802107730596  0.3748184171806845
  0.2496518824240404  0.0023143320755631  0.6248634725177129
  0.2495194575301402 -0.0007982599713066  0.8748238333757060
  0.7496674382991737 -0.0004118164797024  0.1248707402474793
  0.7494838060765794  0.0019694835083999  0.3748820534602104
  0.7492616063356442  0.0020403357096215  0.6248551183662100
  0.7497202991830345  0.9995481388061809  0.8748507458927245
 
  0.00000000E+00  0.00000000E+00  0.00000000E+00
  0.00000000E+00  0.00000000E+00  0.00000000E+00
  0.00000000E+00  0.00000000E+00  0.00000000E+00
  0.00000000E+00  0.00000000E+00  0.00000000E+00
  0.00000000E+00  0.00000000E+00  0.00000000E+00
  0.00000000E+00  0.00000000E+00  0.00000000E+00
  0.00000000E+00  0.00000000E+00  0.00000000E+00
  0.00000000E+00  0.00000000E+00  0.00000000E+00
  0.00000000E+00  0.00000000E+00  0.00000000E+00
  0.00000000E+00  0.00000000E+00  0.00000000E+00
  0.00000000E+00  0.00000000E+00  0.00000000E+00
  0.00000000E+00  0.00000000E+00  0.00000000E+00
  0.00000000E+00  0.00000000E+00  0.00000000E+00
  0.00000000E+00  0.00000000E+00  0.00000000E+00
  0.00000000E+00  0.00000000E+00  0.00000000E+00
  0.00000000E+00  0.00000000E+00  0.00000000E+00
  0.00000000E+00  0.00000000E+00  0.00000000E+00
  0.00000000E+00  0.00000000E+00  0.00000000E+00
  0.00000000E+00  0.00000000E+00  0.00000000E+00
  0.00000000E+00  0.00000000E+00  0.00000000E+00
  0.00000000E+00  0.00000000E+00  0.00000000E+00
  0.00000000E+00  0.00000000E+00  0.00000000E+00
  0.00000000E+00  0.00000000E+00  0.00000000E+00
  0.00000000E+00  0.00000000E+00  0.00000000E+00
  0.00000000E+00  0.00000000E+00  0.00000000E+00
  0.00000000E+00  0.00000000E+00  0.00000000E+00
  0.00000000E+00  0.00000000E+00  0.00000000E+00
  0.00000000E+00  0.00000000E+00  0.00000000E+00
  0.00000000E+00  0.00000000E+00  0.00000000E+00
  0.00000000E+00  0.00000000E+00  0.00000000E+00
  0.00000000E+00  0.00000000E+00  0.00000000E+00
  0.00000000E+00  0.00000000E+00  0.00000000E+00
  0.00000000E+00  0.00000000E+00  0.00000000E+00
  0.00000000E+00  0.00000000E+00  0.00000000E+00
  0.00000000E+00  0.00000000E+00  0.00000000E+00
  0.00000000E+00  0.00000000E+00  0.00000000E+00
  0.00000000E+00  0.00000000E+00  0.00000000E+00
  0.00000000E+00  0.00000000E+00  0.00000000E+00
  0.00000000E+00  0.00000000E+00  0.00000000E+00
  0.00000000E+00  0.00000000E+00  0.00000000E+00
  0.00000000E+00  0.00000000E+00  0.00000000E+00
  0.00000000E+00  0.00000000E+00  0.00000000E+00
  0.00000000E+00  0.00000000E+00  0.00000000E+00
  0.00000000E+00  0.00000000E+00  0.00000000E+00
  0.00000000E+00  0.00000000E+00  0.00000000E+00
  0.00000000E+00  0.00000000E+00  0.00000000E+00
  0.00000000E+00  0.00000000E+00  0.00000000E+00
  0.00000000E+00  0.00000000E+00  0.00000000E+00
  0.00000000E+00  0.00000000E+00  0.00000000E+00
  0.00000000E+00  0.00000000E+00  0.00000000E+00
  0.00000000E+00  0.00000000E+00  0.00000000E+00
  0.00000000E+00  0.00000000E+00  0.00000000E+00
  0.00000000E+00  0.00000000E+00  0.00000000E+00
  0.00000000E+00  0.00000000E+00  0.00000000E+00
  0.00000000E+00  0.00000000E+00  0.00000000E+00
  0.00000000E+00  0.00000000E+00  0.00000000E+00
  0.00000000E+00  0.00000000E+00  0.00000000E+00
  0.00000000E+00  0.00000000E+00  0.00000000E+00
  0.00000000E+00  0.00000000E+00  0.00000000E+00
  0.00000000E+00  0.00000000E+00  0.00000000E+00
  0.00000000E+00  0.00000000E+00  0.00000000E+00
  0.00000000E+00  0.00000000E+00  0.00000000E+00
  0.00000000E+00  0.00000000E+00  0.00000000E+00
  0.00000000E+00  0.00000000E+00  0.00000000E+00
  0.00000000E+00  0.00000000E+00  0.00000000E+00
  0.00000000E+00  0.00000000E+00  0.00000000E+00
  0.00000000E+00  0.00000000E+00  0.00000000E+00
  0.00000000E+00  0.00000000E+00  0.00000000E+00
  0.00000000E+00  0.00000000E+00  0.00000000E+00
  0.00000000E+00  0.00000000E+00  0.00000000E+00
  0.00000000E+00  0.00000000E+00  0.00000000E+00
  0.00000000E+00  0.00000000E+00  0.00000000E+00
  0.00000000E+00  0.00000000E+00  0.00000000E+00
  0.00000000E+00  0.00000000E+00  0.00000000E+00
  0.00000000E+00  0.00000000E+00  0.00000000E+00
  0.00000000E+00  0.00000000E+00  0.00000000E+00
  0.00000000E+00  0.00000000E+00  0.00000000E+00
  0.00000000E+00  0.00000000E+00  0.00000000E+00
  0.00000000E+00  0.00000000E+00  0.00000000E+00
  0.00000000E+00  0.00000000E+00  0.00000000E+00
  0.00000000E+00  0.00000000E+00  0.00000000E+00
  0.00000000E+00  0.00000000E+00  0.00000000E+00
  0.00000000E+00  0.00000000E+00  0.00000000E+00
  0.00000000E+00  0.00000000E+00  0.00000000E+00
  0.00000000E+00  0.00000000E+00  0.00000000E+00
  0.00000000E+00  0.00000000E+00  0.00000000E+00
  0.00000000E+00  0.00000000E+00  0.00000000E+00
  0.00000000E+00  0.00000000E+00  0.00000000E+00
  0.00000000E+00  0.00000000E+00  0.00000000E+00
  0.00000000E+00  0.00000000E+00  0.00000000E+00
  0.00000000E+00  0.00000000E+00  0.00000000E+00
  0.00000000E+00  0.00000000E+00  0.00000000E+00
  0.00000000E+00  0.00000000E+00  0.00000000E+00
  0.00000000E+00  0.00000000E+00  0.00000000E+00
  0.00000000E+00  0.00000000E+00  0.00000000E+00
  0.00000000E+00  0.00000000E+00  0.00000000E+00
  0.00000000E+00  0.00000000E+00  0.00000000E+00
  0.00000000E+00  0.00000000E+00  0.00000000E+00
  0.00000000E+00  0.00000000E+00  0.00000000E+00
  0.00000000E+00  0.00000000E+00  0.00000000E+00
  0.00000000E+00  0.00000000E+00  0.00000000E+00
  0.00000000E+00  0.00000000E+00  0.00000000E+00
  0.00000000E+00  0.00000000E+00  0.00000000E+00
  0.00000000E+00  0.00000000E+00  0.00000000E+00
  0.00000000E+00  0.00000000E+00  0.00000000E+00
  0.00000000E+00  0.00000000E+00  0.00000000E+00
  0.00000000E+00  0.00000000E+00  0.00000000E+00
  0.00000000E+00  0.00000000E+00  0.00000000E+00
  0.00000000E+00  0.00000000E+00  0.00000000E+00
  0.00000000E+00  0.00000000E+00  0.00000000E+00
  0.00000000E+00  0.00000000E+00  0.00000000E+00
  0.00000000E+00  0.00000000E+00  0.00000000E+00
  0.00000000E+00  0.00000000E+00  0.00000000E+00
  0.00000000E+00  0.00000000E+00  0.00000000E+00
  0.00000000E+00  0.00000000E+00  0.00000000E+00
  0.00000000E+00  0.00000000E+00  0.00000000E+00
  0.00000000E+00  0.00000000E+00  0.00000000E+00
  0.00000000E+00  0.00000000E+00  0.00000000E+00
  0.00000000E+00  0.00000000E+00  0.00000000E+00
  0.00000000E+00  0.00000000E+00  0.00000000E+00
  0.00000000E+00  0.00000000E+00  0.00000000E+00
  0.00000000E+00  0.00000000E+00  0.00000000E+00
  0.00000000E+00  0.00000000E+00  0.00000000E+00
  0.00000000E+00  0.00000000E+00  0.00000000E+00
  0.00000000E+00  0.00000000E+00  0.00000000E+00
  0.00000000E+00  0.00000000E+00  0.00000000E+00
  0.00000000E+00  0.00000000E+00  0.00000000E+00
  0.00000000E+00  0.00000000E+00  0.00000000E+00
  0.00000000E+00  0.00000000E+00  0.00000000E+00
  0.00000000E+00  0.00000000E+00  0.00000000E+00
  0.00000000E+00  0.00000000E+00  0.00000000E+00
  0.00000000E+00  0.00000000E+00  0.00000000E+00
  0.00000000E+00  0.00000000E+00  0.00000000E+00
  0.00000000E+00  0.00000000E+00  0.00000000E+00
  0.00000000E+00  0.00000000E+00  0.00000000E+00
  0.00000000E+00  0.00000000E+00  0.00000000E+00
  0.00000000E+00  0.00000000E+00  0.00000000E+00
  0.00000000E+00  0.00000000E+00  0.00000000E+00
  0.00000000E+00  0.00000000E+00  0.00000000E+00
  0.00000000E+00  0.00000000E+00  0.00000000E+00
  0.00000000E+00  0.00000000E+00  0.00000000E+00
  0.00000000E+00  0.00000000E+00  0.00000000E+00
  0.00000000E+00  0.00000000E+00  0.00000000E+00
  0.00000000E+00  0.00000000E+00  0.00000000E+00
  0.00000000E+00  0.00000000E+00  0.00000000E+00
  0.00000000E+00  0.00000000E+00  0.00000000E+00
  0.00000000E+00  0.00000000E+00  0.00000000E+00
  0.00000000E+00  0.00000000E+00  0.00000000E+00
  0.00000000E+00  0.00000000E+00  0.00000000E+00
  0.00000000E+00  0.00000000E+00  0.00000000E+00
  0.00000000E+00  0.00000000E+00  0.00000000E+00
  0.00000000E+00  0.00000000E+00  0.00000000E+00
  0.00000000E+00  0.00000000E+00  0.00000000E+00
  0.00000000E+00  0.00000000E+00  0.00000000E+00
  0.00000000E+00  0.00000000E+00  0.00000000E+00
  0.00000000E+00  0.00000000E+00  0.00000000E+00
  0.00000000E+00  0.00000000E+00  0.00000000E+00
  0.00000000E+00  0.00000000E+00  0.00000000E+00
  0.00000000E+00  0.00000000E+00  0.00000000E+00
  0.00000000E+00  0.00000000E+00  0.00000000E+00
