Cs In Cl                                
   1.00000000000000     
    10.9624760000000006  -10.9624760000000006    0.0000000000000000
    10.9624760000000006   10.9624760000000006    0.0000000000000000
     0.0000000000000000    0.0000000000000000   21.9249510000000001
   Cs   In   Cl
    32    32    96
Direct
  0.0079768673009063  0.9816960994994283  0.9980672194863198
  0.9915847953865838  0.0030248004549538  0.2373046424630893
  0.0004983363204600  0.0157508640897802  0.4924770376853601
  0.0120980713843395  0.9952882243120773  0.7560617554634227
  0.4912834233036565  0.0015489400608700  0.9929027784054948
  0.4980559393398851  0.9884486313126091  0.2560783787216965
  0.5066711686140333  0.9985499460684201  0.5127655307878493
  0.4946103181334766  0.0145734277335353  0.7507963176421271
  0.2360137474119378  0.2521146369642870  0.9910201694642405
  0.2476411251678299  0.2617488155761586  0.2545341246298947
  0.2520511230792641  0.2510948866848128  0.5169276774698373
  0.2562099213230149  0.2452674413213230  0.7573946440667474
  0.0100400401083983  0.4997582842081776  0.0134434316916955
  0.9929995653809602  0.5205015448383729  0.2514253355819773
  0.9882238614161999  0.5017994474133723  0.4943495551391638
  0.9990732380246286  0.4819607134288870  0.7568209479858243
  0.7522134366943924  0.2398188515497981  0.9953883147204561
  0.7635741885676114  0.2501707180256745  0.2590979168129913
  0.7445843476360666  0.2541780317225678  0.4927485187035455
  0.7489784270129964  0.2439203229765057  0.7329419788925872
  0.5034515285989801  0.5136811454027335  0.9943749270798423
  0.5102855420815412  0.5014036931423829  0.2561466471139023
  0.5052588299110998  0.4827533850904792  0.4995808785437539
  0.4932185857272008  0.4989459588769838  0.7367895655665939
  0.2471626291778718  0.7533552617098785  0.9936122347675945
  0.2487991498156585  0.7496879348685467  0.2330585058085388
  0.2533809084289886  0.7412104113926939  0.4962392471981190
  0.2679335553387109  0.7454229961617715  0.7588033200555164
  0.7523469292574742  0.7559891084017534  0.0166422780220034
  0.7542082061777132  0.7494413402312705  0.2564901095331621
  0.7344522646256147  0.7539410458392358  0.4908927635477558
  0.7484064676530330  0.7590085480724102  0.7541966794608943
  0.9998767883504512  0.2518052454816930  0.1249991756058590
  0.0100386142924941  0.2513752194317643  0.3751265050287919
  0.0006294202456018  0.2474214616030627  0.6249494897567485
  0.9911114146905783  0.2502444969643641  0.8747707353262342
  0.4998616426082362  0.2517746319474219  0.1249981911099227
  0.4904404943157317  0.2451196182607923  0.3738057213328172
  0.5002763256586644  0.2482396077794292  0.6250186375267167
  0.5106121775362367  0.2574211702086726  0.8761256242202472
  0.2619474466738343  0.4953848114277795  0.1258037649295551
  0.2490635668499339  0.5024090358015793  0.3750857199121965
  0.2374317664300518  0.5043507764187443  0.6243937663082361
  0.2524215495203986  0.4989162809471056  0.8750104874158164
  0.0000519786013232  0.7518372134222495  0.1250021623621387
  0.0079434836323369  0.7591347415244813  0.3766104169972985
  0.0001691570209607  0.7482087048088842  0.6249980199507004
  0.9938953301621679  0.7405648546146256  0.8734548172862385
  0.7447971155970234  0.4893466858731196  0.1235415923490377
  0.7490800395015859  0.5023766519911204  0.3749826780671349
  0.7571537756497493  0.5106043973519532  0.6264652153056963
  0.7522986784346217  0.4989751706463279  0.8750186474956837
  0.5006085309669078  0.7521662258168740  0.1250372464909534
  0.4885787108947863  0.7527273834164954  0.3747722911769608
  0.5009032677231585  0.7476149386307125  0.6249843680726189
  0.5129807052806704  0.7469226858102789  0.8753727038085005
  0.2553875584797819  0.0138791526603035  0.1261778955812505
  0.2496350819534288  0.0019519236034869  0.3750201657964408
  0.2442597890739293  0.9860950384116710  0.6239357446417069
  0.2522912076538552  0.9989543491727902  0.8749875518420235
  0.7382275313337487  0.0088114119916801  0.1244924397240549
  0.7489902913040534  0.0024697547024233  0.3749900549515624
  0.7628068274600482  0.9922646887240018  0.6253272265992281
  0.7522848051497175  0.9989385428570130  0.8749603566340111
  0.9877562236522777  0.2691469561581292  0.0092027571323551
  0.0121851587297859  0.2343686735184880  0.2407718833075792
  0.0185075755696883  0.2680330476510663  0.5098242586280416
  0.9829356793314600  0.2277785283385935  0.7401270530036993
  0.5125298040927041  0.2503140038546772  0.0091381101058633
  0.4872295538327952  0.2527058464529573  0.2408748966868029
  0.5033450381843796  0.2397850020182275  0.5089442701337901
  0.4971362765200212  0.2572693908764493  0.7410942155196716
  0.2479899359643098  0.5027967257151222  0.9915193525277897
  0.2790436904317016  0.4998690060019633  0.2604275070047599
  0.2191332545043267  0.5047513168727665  0.4897561865626458
  0.2565185071621514  0.4949970543489525  0.7585353367986020
  0.0036857443469880  0.7413245114610097  0.0089612187189090
  0.9966446252414368  0.7618021113575184  0.2410815314155019
  0.0164342206421491  0.7447357345299033  0.5093547634082172
  0.9844064798212810  0.7518636138831100  0.7406755083450246
  0.7495108084007326  0.4739286893339010  0.9899877620179619
  0.7495826356121376  0.5041922745747340  0.2586676706284706
  0.7489351305572047  0.4992931493531084  0.4912456476013542
  0.7543820076715830  0.5246892992411243  0.7601062084382930
  0.5173164771163952  0.7688047104499466  0.0095387348791357
  0.4839027783626257  0.7351147516117641  0.2404909651732278
  0.4899906287431459  0.7658913811117493  0.5092176458401316
  0.5116779946409830  0.7299746443596318  0.7408183828209068
  0.2522011086099598  0.9971447210987463  0.9912149762479595
  0.2532559550094162  0.0258061198526442  0.2598707269339291
  0.2461983772994936  0.9775133650021600  0.4901485630057530
  0.2516000638527787  0.0011749377634615  0.7587300433496923
  0.7224097739304449  0.9993026358579620  0.9897541107033387
  0.7551128592264633  0.9989597365687237  0.2585336170826437
  0.7426520391694551  0.0053412578566753  0.4914417511245215
  0.7815611498360746  0.9991556859736561  0.7600787896769170
  0.0954997058310345  0.1184295465713271  0.1097346454800133
  0.1712806223390594  0.1463156440577381  0.3887361103790808
  0.1017564034319567  0.1173433398078096  0.6220842667063154
  0.1366755210805909  0.1178279106768507  0.8756407571326789
  0.5677242004218568  0.1005603682689938  0.1282103597022776
  0.6411025490737988  0.1272210030367740  0.3699323030314339
  0.6112719663654225  0.1248291435828013  0.6308295113120594
  0.6578024794567269  0.1329971302102199  0.8618913946421695
  0.4318968082952586  0.4027185902886514  0.1216631988466019
  0.3399110567093293  0.3658818023290945  0.3895107960130661
  0.3889217800462090  0.3715273917891472  0.6191723516625809
  0.3584706106544376  0.3725306548352932  0.8793126505327755
  0.1110317384533911  0.6282197181701799  0.1314759483822121
  0.1584853765922907  0.6388059624693535  0.3606256529139558
  0.0670706455503508  0.5969222868971485  0.6308477452420709
  0.1464200090643546  0.6254022359859106  0.8707879215933139
  0.9040253184770047  0.3848606883722880  0.1404421574347811
  0.8637563466876549  0.3826204317407569  0.3745698732705458
  0.8989728960074467  0.3775060066437412  0.6279122513376352
  0.8283775630310506  0.3536287142220365  0.8596617183916099
  0.6030435001626494  0.6227103223287729  0.1231125828981348
  0.6347332546105195  0.6219534158573227  0.3751643021041746
  0.5993208089791751  0.6166101005928915  0.6102764804818254
  0.6755427206346631  0.6442492568672690  0.8902559102716509
  0.3979729569779278  0.8813628664800736  0.1266542287749294
  0.3275770756669683  0.8572769480266812  0.3612145745949047
  0.4019416243607639  0.8786359828868389  0.6396892932672740
  0.3673343937011994  0.8797542306871537  0.8743330179679623
  0.8895310536627979  0.8756665872904104  0.1187109337911083
  0.8570980757809357  0.8776626376374869  0.3800397426110153
  0.9332580600481230  0.8996363549741628  0.6190903143353477
  0.8461929368928297  0.8646401524956484  0.8880266484308295
  0.8669883728344132  0.1538488034726545  0.1258658684109598
  0.8725045618581160  0.1128848687867754  0.3757569995853122
  0.8698427972098145  0.1500025474190239  0.6047667797692475
  0.8854800035751390  0.0935926152976753  0.8921214089784110
  0.3492315428828807  0.1832770573302480  0.1180486505654097
  0.3955596520745117  0.0778856527251318  0.3855688850311331
  0.3773242636876460  0.1367919864437866  0.6284722840567272
  0.3710063394698019  0.1149652848630126  0.8754016959071239
  0.1327512115778476  0.3498506661174422  0.1241721091148866
  0.1137364866196396  0.4103708574790477  0.3587464158694100
  0.1309734214068672  0.3457856189420000  0.6445933592916298
  0.1272536363159993  0.3903634681801118  0.8753631273412584
  0.8765417056374353  0.6411207684157865  0.1286471481515720
  0.8683802512708508  0.6177133901323757  0.3759792998139967
  0.8493573099590752  0.6807415464380693  0.6162892072934210
  0.8990834746647891  0.5734320198460445  0.8851631461464975
  0.6504327986980813  0.3201748060060952  0.1320338524129856
  0.6297713000164822  0.3867201342717139  0.3741350257327092
  0.6233064290921504  0.3597062644648157  0.6217786072679070
  0.6052144191723853  0.4246324066077331  0.8649585033896122
  0.3709384695782745  0.6521181742949901  0.1073585709198075
  0.3848116868236656  0.5937818351597628  0.3916704552986642
  0.3699674442980797  0.6467655706553529  0.6243110292767359
  0.3776468479828152  0.6071062084808310  0.8748168773828700
  0.1236797599053597  0.8624450097234374  0.1210897954062992
  0.1037314405655586  0.9256991707826355  0.3644352986416876
  0.1509464118833926  0.8161100236682564  0.6337807318448363
  0.1334630257156051  0.8828281212180523  0.8743638919236316
  0.6303099182053589  0.8517216466574330  0.1430017281816013
  0.6253812162319021  0.8920500375663162  0.3740541943269073
  0.6313297184589335  0.8489592647056373  0.6256339867186937
  0.6187188557663639  0.9043915349832642  0.8577171314699050
 
  0.00000000E+00  0.00000000E+00  0.00000000E+00
  0.00000000E+00  0.00000000E+00  0.00000000E+00
  0.00000000E+00  0.00000000E+00  0.00000000E+00
  0.00000000E+00  0.00000000E+00  0.00000000E+00
  0.00000000E+00  0.00000000E+00  0.00000000E+00
  0.00000000E+00  0.00000000E+00  0.00000000E+00
  0.00000000E+00  0.00000000E+00  0.00000000E+00
  0.00000000E+00  0.00000000E+00  0.00000000E+00
  0.00000000E+00  0.00000000E+00  0.00000000E+00
  0.00000000E+00  0.00000000E+00  0.00000000E+00
  0.00000000E+00  0.00000000E+00  0.00000000E+00
  0.00000000E+00  0.00000000E+00  0.00000000E+00
  0.00000000E+00  0.00000000E+00  0.00000000E+00
  0.00000000E+00  0.00000000E+00  0.00000000E+00
  0.00000000E+00  0.00000000E+00  0.00000000E+00
  0.00000000E+00  0.00000000E+00  0.00000000E+00
  0.00000000E+00  0.00000000E+00  0.00000000E+00
  0.00000000E+00  0.00000000E+00  0.00000000E+00
  0.00000000E+00  0.00000000E+00  0.00000000E+00
  0.00000000E+00  0.00000000E+00  0.00000000E+00
  0.00000000E+00  0.00000000E+00  0.00000000E+00
  0.00000000E+00  0.00000000E+00  0.00000000E+00
  0.00000000E+00  0.00000000E+00  0.00000000E+00
  0.00000000E+00  0.00000000E+00  0.00000000E+00
  0.00000000E+00  0.00000000E+00  0.00000000E+00
  0.00000000E+00  0.00000000E+00  0.00000000E+00
  0.00000000E+00  0.00000000E+00  0.00000000E+00
  0.00000000E+00  0.00000000E+00  0.00000000E+00
  0.00000000E+00  0.00000000E+00  0.00000000E+00
  0.00000000E+00  0.00000000E+00  0.00000000E+00
  0.00000000E+00  0.00000000E+00  0.00000000E+00
  0.00000000E+00  0.00000000E+00  0.00000000E+00
  0.00000000E+00  0.00000000E+00  0.00000000E+00
  0.00000000E+00  0.00000000E+00  0.00000000E+00
  0.00000000E+00  0.00000000E+00  0.00000000E+00
  0.00000000E+00  0.00000000E+00  0.00000000E+00
  0.00000000E+00  0.00000000E+00  0.00000000E+00
  0.00000000E+00  0.00000000E+00  0.00000000E+00
  0.00000000E+00  0.00000000E+00  0.00000000E+00
  0.00000000E+00  0.00000000E+00  0.00000000E+00
  0.00000000E+00  0.00000000E+00  0.00000000E+00
  0.00000000E+00  0.00000000E+00  0.00000000E+00
  0.00000000E+00  0.00000000E+00  0.00000000E+00
  0.00000000E+00  0.00000000E+00  0.00000000E+00
  0.00000000E+00  0.00000000E+00  0.00000000E+00
  0.00000000E+00  0.00000000E+00  0.00000000E+00
  0.00000000E+00  0.00000000E+00  0.00000000E+00
  0.00000000E+00  0.00000000E+00  0.00000000E+00
  0.00000000E+00  0.00000000E+00  0.00000000E+00
  0.00000000E+00  0.00000000E+00  0.00000000E+00
  0.00000000E+00  0.00000000E+00  0.00000000E+00
  0.00000000E+00  0.00000000E+00  0.00000000E+00
  0.00000000E+00  0.00000000E+00  0.00000000E+00
  0.00000000E+00  0.00000000E+00  0.00000000E+00
  0.00000000E+00  0.00000000E+00  0.00000000E+00
  0.00000000E+00  0.00000000E+00  0.00000000E+00
  0.00000000E+00  0.00000000E+00  0.00000000E+00
  0.00000000E+00  0.00000000E+00  0.00000000E+00
  0.00000000E+00  0.00000000E+00  0.00000000E+00
  0.00000000E+00  0.00000000E+00  0.00000000E+00
  0.00000000E+00  0.00000000E+00  0.00000000E+00
  0.00000000E+00  0.00000000E+00  0.00000000E+00
  0.00000000E+00  0.00000000E+00  0.00000000E+00
  0.00000000E+00  0.00000000E+00  0.00000000E+00
  0.00000000E+00  0.00000000E+00  0.00000000E+00
  0.00000000E+00  0.00000000E+00  0.00000000E+00
  0.00000000E+00  0.00000000E+00  0.00000000E+00
  0.00000000E+00  0.00000000E+00  0.00000000E+00
  0.00000000E+00  0.00000000E+00  0.00000000E+00
  0.00000000E+00  0.00000000E+00  0.00000000E+00
  0.00000000E+00  0.00000000E+00  0.00000000E+00
  0.00000000E+00  0.00000000E+00  0.00000000E+00
  0.00000000E+00  0.00000000E+00  0.00000000E+00
  0.00000000E+00  0.00000000E+00  0.00000000E+00
  0.00000000E+00  0.00000000E+00  0.00000000E+00
  0.00000000E+00  0.00000000E+00  0.00000000E+00
  0.00000000E+00  0.00000000E+00  0.00000000E+00
  0.00000000E+00  0.00000000E+00  0.00000000E+00
  0.00000000E+00  0.00000000E+00  0.00000000E+00
  0.00000000E+00  0.00000000E+00  0.00000000E+00
  0.00000000E+00  0.00000000E+00  0.00000000E+00
  0.00000000E+00  0.00000000E+00  0.00000000E+00
  0.00000000E+00  0.00000000E+00  0.00000000E+00
  0.00000000E+00  0.00000000E+00  0.00000000E+00
  0.00000000E+00  0.00000000E+00  0.00000000E+00
  0.00000000E+00  0.00000000E+00  0.00000000E+00
  0.00000000E+00  0.00000000E+00  0.00000000E+00
  0.00000000E+00  0.00000000E+00  0.00000000E+00
  0.00000000E+00  0.00000000E+00  0.00000000E+00
  0.00000000E+00  0.00000000E+00  0.00000000E+00
  0.00000000E+00  0.00000000E+00  0.00000000E+00
  0.00000000E+00  0.00000000E+00  0.00000000E+00
  0.00000000E+00  0.00000000E+00  0.00000000E+00
  0.00000000E+00  0.00000000E+00  0.00000000E+00
  0.00000000E+00  0.00000000E+00  0.00000000E+00
  0.00000000E+00  0.00000000E+00  0.00000000E+00
  0.00000000E+00  0.00000000E+00  0.00000000E+00
  0.00000000E+00  0.00000000E+00  0.00000000E+00
  0.00000000E+00  0.00000000E+00  0.00000000E+00
  0.00000000E+00  0.00000000E+00  0.00000000E+00
  0.00000000E+00  0.00000000E+00  0.00000000E+00
  0.00000000E+00  0.00000000E+00  0.00000000E+00
  0.00000000E+00  0.00000000E+00  0.00000000E+00
  0.00000000E+00  0.00000000E+00  0.00000000E+00
  0.00000000E+00  0.00000000E+00  0.00000000E+00
  0.00000000E+00  0.00000000E+00  0.00000000E+00
  0.00000000E+00  0.00000000E+00  0.00000000E+00
  0.00000000E+00  0.00000000E+00  0.00000000E+00
  0.00000000E+00  0.00000000E+00  0.00000000E+00
  0.00000000E+00  0.00000000E+00  0.00000000E+00
  0.00000000E+00  0.00000000E+00  0.00000000E+00
  0.00000000E+00  0.00000000E+00  0.00000000E+00
  0.00000000E+00  0.00000000E+00  0.00000000E+00
  0.00000000E+00  0.00000000E+00  0.00000000E+00
  0.00000000E+00  0.00000000E+00  0.00000000E+00
  0.00000000E+00  0.00000000E+00  0.00000000E+00
  0.00000000E+00  0.00000000E+00  0.00000000E+00
  0.00000000E+00  0.00000000E+00  0.00000000E+00
  0.00000000E+00  0.00000000E+00  0.00000000E+00
  0.00000000E+00  0.00000000E+00  0.00000000E+00
  0.00000000E+00  0.00000000E+00  0.00000000E+00
  0.00000000E+00  0.00000000E+00  0.00000000E+00
  0.00000000E+00  0.00000000E+00  0.00000000E+00
  0.00000000E+00  0.00000000E+00  0.00000000E+00
  0.00000000E+00  0.00000000E+00  0.00000000E+00
  0.00000000E+00  0.00000000E+00  0.00000000E+00
  0.00000000E+00  0.00000000E+00  0.00000000E+00
  0.00000000E+00  0.00000000E+00  0.00000000E+00
  0.00000000E+00  0.00000000E+00  0.00000000E+00
  0.00000000E+00  0.00000000E+00  0.00000000E+00
  0.00000000E+00  0.00000000E+00  0.00000000E+00
  0.00000000E+00  0.00000000E+00  0.00000000E+00
  0.00000000E+00  0.00000000E+00  0.00000000E+00
  0.00000000E+00  0.00000000E+00  0.00000000E+00
  0.00000000E+00  0.00000000E+00  0.00000000E+00
  0.00000000E+00  0.00000000E+00  0.00000000E+00
  0.00000000E+00  0.00000000E+00  0.00000000E+00
  0.00000000E+00  0.00000000E+00  0.00000000E+00
  0.00000000E+00  0.00000000E+00  0.00000000E+00
  0.00000000E+00  0.00000000E+00  0.00000000E+00
  0.00000000E+00  0.00000000E+00  0.00000000E+00
  0.00000000E+00  0.00000000E+00  0.00000000E+00
  0.00000000E+00  0.00000000E+00  0.00000000E+00
  0.00000000E+00  0.00000000E+00  0.00000000E+00
  0.00000000E+00  0.00000000E+00  0.00000000E+00
  0.00000000E+00  0.00000000E+00  0.00000000E+00
  0.00000000E+00  0.00000000E+00  0.00000000E+00
  0.00000000E+00  0.00000000E+00  0.00000000E+00
  0.00000000E+00  0.00000000E+00  0.00000000E+00
  0.00000000E+00  0.00000000E+00  0.00000000E+00
  0.00000000E+00  0.00000000E+00  0.00000000E+00
  0.00000000E+00  0.00000000E+00  0.00000000E+00
  0.00000000E+00  0.00000000E+00  0.00000000E+00
  0.00000000E+00  0.00000000E+00  0.00000000E+00
  0.00000000E+00  0.00000000E+00  0.00000000E+00
  0.00000000E+00  0.00000000E+00  0.00000000E+00
  0.00000000E+00  0.00000000E+00  0.00000000E+00
  0.00000000E+00  0.00000000E+00  0.00000000E+00
  0.00000000E+00  0.00000000E+00  0.00000000E+00
  0.00000000E+00  0.00000000E+00  0.00000000E+00
