Zn In F                                 
   1.00000000000000     
     8.3563530000000004   -8.3563530000000004    0.0000000000000000
     8.3563530000000004    8.3563530000000004    0.0000000000000000
     0.0000000000000000    0.0000000000000000   16.7127060000000007
   F    In   Zn
    96    32    32
Direct
  0.0064317538448784  0.2503525930013059  0.0000176629030727
  0.0071010811313797  0.2501274393630427  0.2500732378240489
  0.0064476608234102  0.2504732132394525  0.5000490919825116
  0.0067765474647842  0.2484059213259225  0.7500537142885221
  0.5072337084322397  0.2499362533676464 -0.0000254659292511
  0.5062726680092616  0.2503529164418969  0.2499918263854947
  0.5072453145615341  0.2506815523765590  0.5000559824799808
  0.5060157717483730  0.2486915093500274  0.7500852110749516
  0.2562788457544908  0.4994648096977422  0.0000498283387625
  0.2570730080217427  0.5004446101144219  0.2499672639961605
  0.2566541071209190  0.5003765009536656  0.5000744198417851
  0.2566222910972212  0.4987688078375139  0.7500719033362309
  0.0072473349797106  0.7500173913698033  0.0000741689846236
  0.0062367792390694  0.7500884569990660  0.2499435349046984
  0.0072175927553874  0.7502528918862962  0.5000310656189157
  0.0060495083282322  0.7484735617989339  0.7500747125988942
  0.7564604438880272  0.4982126048852183 -0.0000088987836085
  0.7568258943460106  0.5016077685250339  0.2500193918451773
  0.7567717414034072  0.4989147933948939  0.5000653329029957
  0.7565596514931971  0.5002673070218185  0.7500126136363399
  0.5063904483375283  0.7499965147362480 -0.0000228091874527
  0.5070185323590094  0.7504018631231281  0.2500245326122792
  0.5064132185279002  0.7507729418811423  0.5000676098183672
  0.5067710877962142  0.7486716410993256  0.7500697748857825
  0.2564311773856595  0.9984885864413393  0.0000343841050993
  0.2570109129076917  0.0014167167431801  0.2500353567010827
  0.2567235627950922  0.9991234568066331  0.5000616717076043
  0.2567396270999041 -0.0000188915958451  0.7500892368009958
  0.7564908806866368 -0.0004412014345679 -0.0000307269866583
  0.7569661260030464  0.0004557838990984  0.2499579363113652
  0.7567241269574979  0.0001963169848099  0.5000667079585261
  0.7567529779069432  0.9989618187081171  0.7500876785639340
  0.1285358919648808  0.1279056842476292  0.1250750966155294
  0.1286284769858304  0.1280162621138719  0.3754523512097224
  0.1282768427060657  0.1278396347723028  0.6246773917182293
  0.1281605823295993  0.1277625055800146  0.8755111023649558
  0.6285164095777377  0.1279231605663049  0.1254435566125521
  0.6287287028870951  0.1281867676498218  0.3749939608425144
  0.6283735110740147  0.1279107619894048  0.6250320776525160
  0.6283090663444146  0.1278276593780201  0.8751157521097870
  0.3785835915368305  0.3779305084738386  0.1251167295102311
  0.3785549122295043  0.3781173841658515  0.3755362841170033
  0.3782673697274395  0.3778669562731271  0.6249051688699684
  0.3781532498556003  0.3775899169843037  0.8755847294614881
  0.1284506637941065  0.6278106670599952  0.1254616376502934
  0.1286770851204214  0.6280950796220133  0.3750648429246091
  0.1282626351374135  0.6278347928275217  0.6251046641333788
  0.1281938093822456  0.6276696590189507  0.8752114138672936
  0.8785976145178265  0.3779587242577189  0.1260164011240947
  0.8786159149390562  0.3780630312856813  0.3744696325472163
  0.8781976773587009  0.3776349795630868  0.6256051527282371
  0.8780799195899410  0.3776029439062339  0.8745948318663673
  0.6283137211393144  0.6278339130115901  0.1250071231195702
  0.6285569740649363  0.6280554238254903  0.3755565181344399
  0.6282503822989802  0.6278425338426064  0.6248219508038004
  0.6281126995328322  0.6276222068360853  0.8757185955983388
  0.3785733495748341  0.8779695193174356  0.1258304877148114
  0.3787532608163746  0.8782276280495774  0.3746204012766221
  0.3782093962992202  0.8778857221042272  0.6255055081430426
  0.3779507766820004  0.8775764655478763  0.8746775749259902
  0.8785981566225536  0.8780624327602565  0.1250727657131268
  0.8785857236386611  0.8779248746794417  0.3752970402426848
  0.8782106799515189  0.8776311098161023  0.6247709685449656
  0.8782319563200541  0.8777630863387977  0.8754370480618091
  0.8787286186347238  0.1223432579851453  0.1249345444426225
  0.8786181947119160  0.1222124741186800  0.3752758234046829
  0.8789026597386222  0.1220512118506986  0.6252441620408543
  0.8788599531121861  0.1222624904726077  0.8751194568814169
  0.3787465740818901  0.1222823218124391  0.1241908531482476
  0.3786417848512924  0.1223665614604702  0.3761360217462333
  0.3788893930896589  0.1221393671923463  0.6245992064465147
  0.3789026417143553  0.1220419446560734  0.8759300828780240
  0.1287169569127302  0.3722432298821405  0.1254408653189786
  0.1288001838875663  0.3722893942127438  0.3749739136289738
  0.1287309136449863  0.3723338875399662  0.6256061066163394
  0.1288666346853628  0.3722115243569822  0.8747442347756718
  0.8786349894460429  0.6223121894653090  0.1242834590288029
  0.8784609207419557  0.6224860456610867  0.3760527507801926
  0.8789072988472511  0.6220582318296648  0.6245801741451116
  0.8789154470926929  0.6221856865899497  0.8759860690068387
  0.6286370194722328  0.3724200303946817  0.1255619794839073
  0.6285787097579930  0.3723711980894691  0.3747851289393586
  0.6287024007492465  0.3723007253804064  0.6259541087119485
  0.6289516134671390  0.3722330792493141  0.8746418759912474
  0.3787328246172374  0.6223331018859959  0.1250705777401743
  0.3786366512488437  0.6224123225108753  0.3753985859726886
  0.3788299564188336  0.6222471185366130  0.6254697132015439
  0.3788155976790166  0.6221128638884190  0.8751411202858009
  0.1287910112223264  0.8722602469444815  0.1255371519866716
  0.1286682770754562  0.8722622955959454  0.3747353973544198
  0.1286562715003964  0.8723023425950255  0.6258838402169161
  0.1288429840904184  0.8721645104296774  0.8745517915994335
  0.6287630815170405  0.8722975184849430  0.1252648351776822
  0.6288871447844062  0.8722846121844878  0.3750518249209505
  0.6287356371411379  0.8722501813527096  0.6255665697518967
  0.6288853119065665  0.8721282242686982  0.8749824231675637
 -0.0121257430227726  0.0012582966458236 -0.0000228774298967
 -0.0122555497407971 -0.0000062932399144  0.2499136345511513
 -0.0125217483407551  0.0003294079488889  0.4999947110543025
  0.9886079168708691  0.0030578813219103  0.7499204905209712
  0.4880178132723558  0.0019867720594766 -0.0003471300519840
  0.4878095642792896  0.9990928433882031  0.2496382617520883
  0.4873768206466137  0.0004140822666998  0.4997321268771626
  0.4882508698340745  0.0024809872672458  0.7496062644782583
  0.2381870229236746  0.2516957780076084 -0.0003667526592921
  0.2377260214514095  0.2498677894155425  0.2497215709601164
  0.2377299796946192  0.2503348785479334  0.4997250514565779
  0.2384423553154173  0.2531071218116395  0.7497012441221752
  0.9883659948620021  0.5019136730767582 -0.0004144093540255
  0.9877448825930651  0.4993877978717656  0.2494822316265025
  0.9873132326690754  0.5006064146274850  0.4996453305491120
  0.9887315229323230  0.5028843904050438  0.7496351819250803
  0.7383538847359984  0.2516834523013875 -0.0006825474694243
  0.7374768803802444  0.2497901276390155  0.2496235435256140
  0.7375876962764122  0.2503634693993747  0.4997699097252544
  0.7386539050312989  0.2529356229925811  0.7495873077215425
  0.4882957452992374  0.5013204413197010 -0.0007873772314319
  0.4879808787022651  0.4997990798804011  0.2492147850370080
  0.4878388851345354  0.5003061512571646  0.4993811967938354
  0.4885658408756253  0.5027728091155588  0.7491125510196435
  0.2382842470663193  0.7515584971924065 -0.0003760500807101
  0.2376686086018911  0.7496861633158421  0.2495957158721447
  0.2377272157054702  0.7502257171254710  0.4995513563245536
  0.2384656211024938  0.7529762158664061  0.7497631503293589
  0.7379372761900357  0.7516670273450895  0.9995072016550964
  0.7379939762099995  0.7499360161847782  0.2496141135567364
  0.7380354733198567  0.7507907321105266  0.4994552265568216
  0.7382244911232896  0.7527849096148493  0.7494307574531399
 -0.0019955175053607  0.2502472878038448  0.1249288757671793
 -0.0020941769387967  0.2501420025603134  0.3750123671649841
  0.9979968141599418  0.2505938933787458  0.6249639175931568
 -0.0019738755028127  0.2507182909762450  0.8749908559580809
  0.4980569160111814  0.2502514199576776  0.1248987507500703
  0.4978442586725991  0.2501730973427169  0.3749073194451629
  0.4979004034810488  0.2505554935082710  0.6249952085233661
  0.4980819938562630  0.2506583757847141  0.8748664478796984
  0.2480800163418213  0.5002663001821663  0.1249574222686057
  0.2479627995263623  0.5002114191623036  0.3749026421097189
  0.2479426400167746  0.5006288217044489  0.6249117853142655
  0.2481183972535050  0.5006850705665614  0.8749517731071208
  0.9980020890415142  0.7502898390832390  0.1249475301672904
 -0.0020063092257946  0.7501390265157210  0.3748886262123586
 -0.0019995687271946  0.7505022769686267  0.6250026387140744
 -0.0020067970567260  0.7507570213772979  0.8749676762135307
  0.7479932607524487  0.5002931889052681  0.1248939157534244
  0.7478527757214217  0.5001373379429797  0.3749146969917937
  0.7479578986294422  0.5006291661152140  0.6249631293052019
  0.7480688238567638  0.5007592284175428  0.8749181682546091
  0.4980000745644278  0.7502623842833798  0.1248864375413329
  0.4979748525916909  0.7501681004774913  0.3749508809938283
  0.4978952564456671  0.7505704314895142  0.6248880084704241
  0.4979481583362724  0.7507164353370478  0.8749547065460656
  0.2479795062956812  0.0003188235838056  0.1249583370165097
  0.2478843124700851  0.0001783879018493  0.3749367573000602
  0.2478054428047419  0.0005617894644574  0.6250055986933500
  0.2479048856055916  0.0007567535810397  0.8750300898096341
  0.7479741910976370  0.0003678317940677  0.1249050001114552
  0.7479272770791232  0.0002563181661401  0.3749401141953296
  0.7479249030370784  0.0005600067989105  0.6250480340714248
  0.7479606702641961  0.0007122876996546  0.8749221560712718
 
  0.00000000E+00  0.00000000E+00  0.00000000E+00
  0.00000000E+00  0.00000000E+00  0.00000000E+00
  0.00000000E+00  0.00000000E+00  0.00000000E+00
  0.00000000E+00  0.00000000E+00  0.00000000E+00
  0.00000000E+00  0.00000000E+00  0.00000000E+00
  0.00000000E+00  0.00000000E+00  0.00000000E+00
  0.00000000E+00  0.00000000E+00  0.00000000E+00
  0.00000000E+00  0.00000000E+00  0.00000000E+00
  0.00000000E+00  0.00000000E+00  0.00000000E+00
  0.00000000E+00  0.00000000E+00  0.00000000E+00
  0.00000000E+00  0.00000000E+00  0.00000000E+00
  0.00000000E+00  0.00000000E+00  0.00000000E+00
  0.00000000E+00  0.00000000E+00  0.00000000E+00
  0.00000000E+00  0.00000000E+00  0.00000000E+00
  0.00000000E+00  0.00000000E+00  0.00000000E+00
  0.00000000E+00  0.00000000E+00  0.00000000E+00
  0.00000000E+00  0.00000000E+00  0.00000000E+00
  0.00000000E+00  0.00000000E+00  0.00000000E+00
  0.00000000E+00  0.00000000E+00  0.00000000E+00
  0.00000000E+00  0.00000000E+00  0.00000000E+00
  0.00000000E+00  0.00000000E+00  0.00000000E+00
  0.00000000E+00  0.00000000E+00  0.00000000E+00
  0.00000000E+00  0.00000000E+00  0.00000000E+00
  0.00000000E+00  0.00000000E+00  0.00000000E+00
  0.00000000E+00  0.00000000E+00  0.00000000E+00
  0.00000000E+00  0.00000000E+00  0.00000000E+00
  0.00000000E+00  0.00000000E+00  0.00000000E+00
  0.00000000E+00  0.00000000E+00  0.00000000E+00
  0.00000000E+00  0.00000000E+00  0.00000000E+00
  0.00000000E+00  0.00000000E+00  0.00000000E+00
  0.00000000E+00  0.00000000E+00  0.00000000E+00
  0.00000000E+00  0.00000000E+00  0.00000000E+00
  0.00000000E+00  0.00000000E+00  0.00000000E+00
  0.00000000E+00  0.00000000E+00  0.00000000E+00
  0.00000000E+00  0.00000000E+00  0.00000000E+00
  0.00000000E+00  0.00000000E+00  0.00000000E+00
  0.00000000E+00  0.00000000E+00  0.00000000E+00
  0.00000000E+00  0.00000000E+00  0.00000000E+00
  0.00000000E+00  0.00000000E+00  0.00000000E+00
  0.00000000E+00  0.00000000E+00  0.00000000E+00
  0.00000000E+00  0.00000000E+00  0.00000000E+00
  0.00000000E+00  0.00000000E+00  0.00000000E+00
  0.00000000E+00  0.00000000E+00  0.00000000E+00
  0.00000000E+00  0.00000000E+00  0.00000000E+00
  0.00000000E+00  0.00000000E+00  0.00000000E+00
  0.00000000E+00  0.00000000E+00  0.00000000E+00
  0.00000000E+00  0.00000000E+00  0.00000000E+00
  0.00000000E+00  0.00000000E+00  0.00000000E+00
  0.00000000E+00  0.00000000E+00  0.00000000E+00
  0.00000000E+00  0.00000000E+00  0.00000000E+00
  0.00000000E+00  0.00000000E+00  0.00000000E+00
  0.00000000E+00  0.00000000E+00  0.00000000E+00
  0.00000000E+00  0.00000000E+00  0.00000000E+00
  0.00000000E+00  0.00000000E+00  0.00000000E+00
  0.00000000E+00  0.00000000E+00  0.00000000E+00
  0.00000000E+00  0.00000000E+00  0.00000000E+00
  0.00000000E+00  0.00000000E+00  0.00000000E+00
  0.00000000E+00  0.00000000E+00  0.00000000E+00
  0.00000000E+00  0.00000000E+00  0.00000000E+00
  0.00000000E+00  0.00000000E+00  0.00000000E+00
  0.00000000E+00  0.00000000E+00  0.00000000E+00
  0.00000000E+00  0.00000000E+00  0.00000000E+00
  0.00000000E+00  0.00000000E+00  0.00000000E+00
  0.00000000E+00  0.00000000E+00  0.00000000E+00
  0.00000000E+00  0.00000000E+00  0.00000000E+00
  0.00000000E+00  0.00000000E+00  0.00000000E+00
  0.00000000E+00  0.00000000E+00  0.00000000E+00
  0.00000000E+00  0.00000000E+00  0.00000000E+00
  0.00000000E+00  0.00000000E+00  0.00000000E+00
  0.00000000E+00  0.00000000E+00  0.00000000E+00
  0.00000000E+00  0.00000000E+00  0.00000000E+00
  0.00000000E+00  0.00000000E+00  0.00000000E+00
  0.00000000E+00  0.00000000E+00  0.00000000E+00
  0.00000000E+00  0.00000000E+00  0.00000000E+00
  0.00000000E+00  0.00000000E+00  0.00000000E+00
  0.00000000E+00  0.00000000E+00  0.00000000E+00
  0.00000000E+00  0.00000000E+00  0.00000000E+00
  0.00000000E+00  0.00000000E+00  0.00000000E+00
  0.00000000E+00  0.00000000E+00  0.00000000E+00
  0.00000000E+00  0.00000000E+00  0.00000000E+00
  0.00000000E+00  0.00000000E+00  0.00000000E+00
  0.00000000E+00  0.00000000E+00  0.00000000E+00
  0.00000000E+00  0.00000000E+00  0.00000000E+00
  0.00000000E+00  0.00000000E+00  0.00000000E+00
  0.00000000E+00  0.00000000E+00  0.00000000E+00
  0.00000000E+00  0.00000000E+00  0.00000000E+00
  0.00000000E+00  0.00000000E+00  0.00000000E+00
  0.00000000E+00  0.00000000E+00  0.00000000E+00
  0.00000000E+00  0.00000000E+00  0.00000000E+00
  0.00000000E+00  0.00000000E+00  0.00000000E+00
  0.00000000E+00  0.00000000E+00  0.00000000E+00
  0.00000000E+00  0.00000000E+00  0.00000000E+00
  0.00000000E+00  0.00000000E+00  0.00000000E+00
  0.00000000E+00  0.00000000E+00  0.00000000E+00
  0.00000000E+00  0.00000000E+00  0.00000000E+00
  0.00000000E+00  0.00000000E+00  0.00000000E+00
  0.00000000E+00  0.00000000E+00  0.00000000E+00
  0.00000000E+00  0.00000000E+00  0.00000000E+00
  0.00000000E+00  0.00000000E+00  0.00000000E+00
  0.00000000E+00  0.00000000E+00  0.00000000E+00
  0.00000000E+00  0.00000000E+00  0.00000000E+00
  0.00000000E+00  0.00000000E+00  0.00000000E+00
  0.00000000E+00  0.00000000E+00  0.00000000E+00
  0.00000000E+00  0.00000000E+00  0.00000000E+00
  0.00000000E+00  0.00000000E+00  0.00000000E+00
  0.00000000E+00  0.00000000E+00  0.00000000E+00
  0.00000000E+00  0.00000000E+00  0.00000000E+00
  0.00000000E+00  0.00000000E+00  0.00000000E+00
  0.00000000E+00  0.00000000E+00  0.00000000E+00
  0.00000000E+00  0.00000000E+00  0.00000000E+00
  0.00000000E+00  0.00000000E+00  0.00000000E+00
  0.00000000E+00  0.00000000E+00  0.00000000E+00
  0.00000000E+00  0.00000000E+00  0.00000000E+00
  0.00000000E+00  0.00000000E+00  0.00000000E+00
  0.00000000E+00  0.00000000E+00  0.00000000E+00
  0.00000000E+00  0.00000000E+00  0.00000000E+00
  0.00000000E+00  0.00000000E+00  0.00000000E+00
  0.00000000E+00  0.00000000E+00  0.00000000E+00
  0.00000000E+00  0.00000000E+00  0.00000000E+00
  0.00000000E+00  0.00000000E+00  0.00000000E+00
  0.00000000E+00  0.00000000E+00  0.00000000E+00
  0.00000000E+00  0.00000000E+00  0.00000000E+00
  0.00000000E+00  0.00000000E+00  0.00000000E+00
  0.00000000E+00  0.00000000E+00  0.00000000E+00
  0.00000000E+00  0.00000000E+00  0.00000000E+00
  0.00000000E+00  0.00000000E+00  0.00000000E+00
  0.00000000E+00  0.00000000E+00  0.00000000E+00
  0.00000000E+00  0.00000000E+00  0.00000000E+00
  0.00000000E+00  0.00000000E+00  0.00000000E+00
  0.00000000E+00  0.00000000E+00  0.00000000E+00
  0.00000000E+00  0.00000000E+00  0.00000000E+00
  0.00000000E+00  0.00000000E+00  0.00000000E+00
  0.00000000E+00  0.00000000E+00  0.00000000E+00
  0.00000000E+00  0.00000000E+00  0.00000000E+00
  0.00000000E+00  0.00000000E+00  0.00000000E+00
  0.00000000E+00  0.00000000E+00  0.00000000E+00
  0.00000000E+00  0.00000000E+00  0.00000000E+00
  0.00000000E+00  0.00000000E+00  0.00000000E+00
  0.00000000E+00  0.00000000E+00  0.00000000E+00
  0.00000000E+00  0.00000000E+00  0.00000000E+00
  0.00000000E+00  0.00000000E+00  0.00000000E+00
  0.00000000E+00  0.00000000E+00  0.00000000E+00
  0.00000000E+00  0.00000000E+00  0.00000000E+00
  0.00000000E+00  0.00000000E+00  0.00000000E+00
  0.00000000E+00  0.00000000E+00  0.00000000E+00
  0.00000000E+00  0.00000000E+00  0.00000000E+00
  0.00000000E+00  0.00000000E+00  0.00000000E+00
  0.00000000E+00  0.00000000E+00  0.00000000E+00
  0.00000000E+00  0.00000000E+00  0.00000000E+00
  0.00000000E+00  0.00000000E+00  0.00000000E+00
  0.00000000E+00  0.00000000E+00  0.00000000E+00
  0.00000000E+00  0.00000000E+00  0.00000000E+00
  0.00000000E+00  0.00000000E+00  0.00000000E+00
  0.00000000E+00  0.00000000E+00  0.00000000E+00
  0.00000000E+00  0.00000000E+00  0.00000000E+00
  0.00000000E+00  0.00000000E+00  0.00000000E+00
  0.00000000E+00  0.00000000E+00  0.00000000E+00
  0.00000000E+00  0.00000000E+00  0.00000000E+00
  0.00000000E+00  0.00000000E+00  0.00000000E+00
  0.00000000E+00  0.00000000E+00  0.00000000E+00
