Sr Tl F                                 
   1.00000000000000     
     9.5352669999999993   -9.5352669999999993    0.0000000000000000
     9.5352669999999993    9.5352669999999993    0.0000000000000000
     0.0000000000000000    0.0000000000000000   19.0705330000000011
   F    Sr   Tl
    96    32    32
Direct
  0.1538645698034108  0.1018751116377352  0.9905303117943262
  0.1126640429070049  0.1327551209297763  0.2860539550211965
  0.1499842937793709  0.0968856574420189  0.4930929030518425
  0.1328151413016936  0.1186028570827065  0.7377747485680374
  0.6111766937117781  0.1456738252621614  0.0125152207234865
  0.6270358839233238  0.1149743917874555  0.2405770697020184
  0.6518636635807882  0.0926856183850217  0.5143135921560194
  0.6223779875482717  0.1320703230304830  0.7244757658032200
  0.4007531828026059  0.3523684908417902  0.0049715479596128
  0.3731372773699608  0.3729896239791262  0.2721738769857884
  0.3620014752908543  0.3844366528827405  0.4694208201368538
  0.4121677848242427  0.3404131509163522  0.7567929763506993
  0.1519033576235576  0.6003759161314689  0.0147983184777886
  0.1225153754317013  0.6266579090896376  0.2306700615776518
  0.1355877592957957  0.6168324577915851  0.4712925744338727
  0.1206883854030390  0.6255685135538175  0.7650607194876304
  0.8713959893821804  0.3835691901389120  0.0225359637427423
  0.9000382161270130  0.3462477412503218  0.2461433879391069
  0.8571859180028256  0.3885839006915990  0.5170801628694504
  0.9100823765681945  0.3403124910015862  0.7412769051930472
  0.6183917713856801  0.6376946600133583  0.9776167109932700
  0.5897435806651202  0.6563957662590029  0.2446170682744311
  0.6532581904898330  0.5913165535693906  0.5110914244037423
  0.6151758813727182  0.6329772551051418  0.7768465351767336
  0.3802646620537591  0.8740032109576217  0.9808739773849605
  0.4101036114645780  0.8377604892924894  0.2423499616226838
  0.3611156285682601  0.8874857941198581  0.5347221917421284
  0.3684143036763073  0.8814789020074768  0.7271699004164227
  0.8814645791979713  0.8767764771483293  0.9921607963312198
  0.8868985233452299  0.8589988059741028  0.2336407457011437
  0.8719724129310764  0.8725305554359606  0.4799463987454149
  0.9063509233571753  0.8441413031822013  0.7546484026854291
  0.8962784831470882  0.1475273751359834  0.9793693479901555
  0.8477425308829513  0.0975758732921872  0.2644834496354148
  0.9013165390783855  0.1579775520424080  0.4953226032164948
  0.8712066397480561  0.1208262930620724  0.7803397617872282
  0.3784387294836835  0.1269032064885647  0.0326850911982867
  0.3433929805120512  0.0953432293555791  0.2346084352334026
  0.4062504444296833  0.1560331883695209  0.5111619495898734
  0.3740317104622136  0.1200409352725135  0.7176451844733499
  0.1031097741829857  0.3488405619073585  0.0023339909972881
  0.1314704372317385  0.3789943344528452  0.2869382580650062
  0.1003966067999641  0.3486300483316113  0.4832737938972820
  0.1619575093597939  0.4061880438487977  0.7520010741731018
  0.8896828689721771  0.6371907044207871  0.0005146460179623
  0.8796562394489399  0.6275333658763566  0.2262373355782850
  0.8687249412917413  0.6184278271798832  0.4979397106219283
  0.8470439783327430  0.5924101897419346  0.7572395470155494
  0.6292818073077909  0.3819900071913524  0.0274404564408072
  0.6429333114557559  0.3935598263598596  0.2299823726040348
  0.5930491231925021  0.3470503851410836  0.4988653791252726
  0.6562584839378477  0.4049962704399737  0.7467132916407899
  0.3889422628803269  0.6364207652300685  0.9665324011147757
  0.3586627212472992  0.6103572016436328  0.2770893257010295
  0.4013112419805007  0.6539850973021256  0.4958686611321126
  0.3444868106101265  0.5925111814679899  0.7554548802972905
  0.1407809197735458  0.8859377869460326  0.0041447303010602
  0.1179857161621646  0.8681073527825082  0.2296987513553946
  0.0929752066978859  0.8486717279375977  0.5083326660314724
  0.1297954007789580  0.8791171221332003  0.7153821687798004
  0.6266779758553293  0.8754566713748858  0.9738112930826105
  0.6515108896048356  0.9008591613486637  0.2607912712215585
  0.5867121756541365  0.8412180954334417  0.4997918783828898
  0.6485456373572945  0.8941402320499156  0.7640446418625881
  0.0259181561517633  0.0361588452150115  0.1266387826337526
  0.0243010783807763  0.9653077796111851  0.3761052486923897
  0.9719780927495970  0.9784269933252911  0.6249655036707117
  0.0311816235426842  0.9688740768620397  0.8753303961277535
  0.5332097030847730  0.9713037320084562  0.1256046662275955
  0.5094787598810339  0.0250150284012264  0.3752611777958156
  0.5344015551161995  0.9708710777521393  0.6251446716783327
  0.5231133201736656  0.0230698830670467  0.8744688056840033
  0.2131823833209034  0.2310836325529312  0.1280317590709712
  0.2787740468084373  0.2130616236816930  0.3786346408208659
  0.2774656634164760  0.2814335812325273  0.6249060924542990
  0.2864165983757712  0.2512928530782729  0.8753754584778521
  0.0319868725598126  0.4697841352602937  0.1275309520864938
  0.9551974312478092  0.4807187594539661  0.3743316638003832
  0.9924699457353293  0.4934777848719378  0.6212430515723529
  0.0205152446337593  0.4808638473209566  0.8741566878822645
  0.7615132127630537  0.2636309596642687  0.1232406689952701
  0.7258459961448077  0.2288730939414649  0.3739273706864483
  0.7800245057586633  0.2247215365206798  0.6239315678929969
  0.7749497933275914  0.2904897825538462  0.8731429061313195
  0.4787810078668407  0.5331844298900492  0.1244436184329309
  0.5107344914731030  0.5225079354338312  0.3757483328480366
  0.4578202986379884  0.4875232085282559  0.6270337950708235
  0.5203861217242615  0.4599783722558687  0.8758918539451942
  0.2783946334160863  0.7172452772075574  0.1257987703135217
  0.2702019222226155  0.7818578756488939  0.3758060767580012
  0.2496381359355937  0.7083333169647738  0.6244787459060533
  0.2298648820012985  0.7753078707907762  0.8738961535673662
  0.7143340100697614  0.7782271126950872  0.1271087471931009
  0.7525817639196896  0.7080144013121791  0.3755993087043186
  0.7636147048283348  0.7335169453682613  0.6245092442376793
  0.7754776096055926  0.7746368594527414  0.8761538507631556
  0.0012860249853347  0.0059537623078399  0.0027051340894828
  0.9967482423188406  0.0016192416905718  0.2497994086927453
  0.9938018080097543  0.0062124848685690  0.5005462595221298
  0.9986900809449759  0.0018348852273013  0.7510392307576002
  0.5013177121629759  0.0019582488297877  0.0008951277178433
  0.4902218319637690  0.9972203171992921  0.2498329338181816
  0.4979122980560343  0.0000391728029637  0.5002447266653771
  0.5020443083488481  0.0003824707739800  0.7502016788963713
  0.2500411575718074  0.2510487368913600  0.0006471203405706
  0.2484500510487691  0.2453971550525289  0.2531262424968903
  0.2470392004339447  0.2491010838726044  0.5022878432741517
  0.2518881754677335  0.2497836368540639  0.7499663284847493
  0.0031374295514909  0.5010850735858403  0.9995959229188681
  0.9973437639858483  0.4965165380903261  0.2513050772254569
  0.0073028100962466  0.5012596299392121  0.4947303442275239
  0.9983126484383483  0.4963079460404446  0.7483278392171523
  0.7532800061609022  0.2522384768967431  0.9967769295640531
  0.7481997921216297  0.2489898289591057  0.2488983633306168
  0.7423269399768785  0.2473002950747426  0.4983471317795082
  0.7521540803376268  0.2527078340311130  0.7483138037665995
  0.4996661296872285  0.5050177303744207  0.0001959272408951
  0.5000940456413900  0.4980957812551996  0.2483580897533426
  0.4970898409545661  0.4998034710998374  0.5022937167384928
  0.5007061385892685  0.4989742455284181  0.7506281277281474
  0.2549040923027973  0.7465305024949763  0.9998414673465327
  0.2520780312077069  0.7538261267339122  0.2513107446776248
  0.2470023888819438  0.7506248426316273  0.4994309341105805
  0.2478799554586655  0.7501050708710469  0.7493219911786132
  0.7541317055354423  0.7505808946511220  0.0049111809974224
  0.7466430827813236  0.7452600420934558  0.2511608808926264
  0.7412567250665246  0.7528123926471516  0.4993456690354969
  0.7513066097763921  0.7468309595714739  0.7504659346143479
  0.0003572247227469  0.2749211121792949  0.1083643511606837
  0.0005620160896646  0.2741892624224384  0.3645818601950486
  0.9650225207915774  0.2760455597149657  0.6045531447457821
  0.9654887274129725  0.2491562983721174  0.8661425463283634
  0.5080857147268771  0.2499517345889068  0.0974696481248433
  0.4769324503345103  0.2550257349952437  0.3981624680010333
  0.4719285538535089  0.2521458003737700  0.6335577983989832
  0.4767915983557217  0.2711791266726036  0.8766662562805051
  0.2272015365920671  0.5310083779142462  0.1301414497198960
  0.2686601308480608  0.4852770963121287  0.3641227068843956
  0.2611408746870281  0.5121838276470965  0.6423762787594643
  0.2161117287098518  0.5168465977287015  0.8570901676398058
  0.9991792210895597  0.7494129262430418  0.1555359911797096
  0.9948295633721798  0.7764332013947258  0.4019357211283234
  0.9997898745599313  0.7884919688519884  0.6332114723203403
  0.9719325532217918  0.7759789357752241  0.8849402757742019
  0.7495402007227998  0.4573232537842145  0.1204990820121292
  0.7584008318798442  0.5193133214803686  0.4017253867488680
  0.7831598897602211  0.5294355960410213  0.6113346850507738
  0.7260586647089018  0.5053133295951536  0.8541032579515045
  0.5027648223721287  0.7438364471962915  0.1381304917755111
  0.4751635839192758  0.7195716301410631  0.3660515172338630
  0.4786248098960717  0.7768411020009601  0.6050475380628814
  0.5087258084366592  0.7514334585507060  0.8979576625527410
  0.2301373282379859  0.0323353254775384  0.1154972418543767
  0.2195024641567995  0.0247737798496473  0.3745680629991928
  0.2533037222247882  0.9979346737796071  0.6459241711284190
  0.2274491040084549  0.9715750793807829  0.8971501343070000
  0.7224571072464778  0.9850113446297613  0.1506108944129564
  0.7180373937184120  0.0299177277088599  0.3588814056951180
  0.7220970097869667  0.0256892000284692  0.6313340697017571
  0.7255297557712637  0.9693153478525439  0.8762592366334349
 
  0.00000000E+00  0.00000000E+00  0.00000000E+00
  0.00000000E+00  0.00000000E+00  0.00000000E+00
  0.00000000E+00  0.00000000E+00  0.00000000E+00
  0.00000000E+00  0.00000000E+00  0.00000000E+00
  0.00000000E+00  0.00000000E+00  0.00000000E+00
  0.00000000E+00  0.00000000E+00  0.00000000E+00
  0.00000000E+00  0.00000000E+00  0.00000000E+00
  0.00000000E+00  0.00000000E+00  0.00000000E+00
  0.00000000E+00  0.00000000E+00  0.00000000E+00
  0.00000000E+00  0.00000000E+00  0.00000000E+00
  0.00000000E+00  0.00000000E+00  0.00000000E+00
  0.00000000E+00  0.00000000E+00  0.00000000E+00
  0.00000000E+00  0.00000000E+00  0.00000000E+00
  0.00000000E+00  0.00000000E+00  0.00000000E+00
  0.00000000E+00  0.00000000E+00  0.00000000E+00
  0.00000000E+00  0.00000000E+00  0.00000000E+00
  0.00000000E+00  0.00000000E+00  0.00000000E+00
  0.00000000E+00  0.00000000E+00  0.00000000E+00
  0.00000000E+00  0.00000000E+00  0.00000000E+00
  0.00000000E+00  0.00000000E+00  0.00000000E+00
  0.00000000E+00  0.00000000E+00  0.00000000E+00
  0.00000000E+00  0.00000000E+00  0.00000000E+00
  0.00000000E+00  0.00000000E+00  0.00000000E+00
  0.00000000E+00  0.00000000E+00  0.00000000E+00
  0.00000000E+00  0.00000000E+00  0.00000000E+00
  0.00000000E+00  0.00000000E+00  0.00000000E+00
  0.00000000E+00  0.00000000E+00  0.00000000E+00
  0.00000000E+00  0.00000000E+00  0.00000000E+00
  0.00000000E+00  0.00000000E+00  0.00000000E+00
  0.00000000E+00  0.00000000E+00  0.00000000E+00
  0.00000000E+00  0.00000000E+00  0.00000000E+00
  0.00000000E+00  0.00000000E+00  0.00000000E+00
  0.00000000E+00  0.00000000E+00  0.00000000E+00
  0.00000000E+00  0.00000000E+00  0.00000000E+00
  0.00000000E+00  0.00000000E+00  0.00000000E+00
  0.00000000E+00  0.00000000E+00  0.00000000E+00
  0.00000000E+00  0.00000000E+00  0.00000000E+00
  0.00000000E+00  0.00000000E+00  0.00000000E+00
  0.00000000E+00  0.00000000E+00  0.00000000E+00
  0.00000000E+00  0.00000000E+00  0.00000000E+00
  0.00000000E+00  0.00000000E+00  0.00000000E+00
  0.00000000E+00  0.00000000E+00  0.00000000E+00
  0.00000000E+00  0.00000000E+00  0.00000000E+00
  0.00000000E+00  0.00000000E+00  0.00000000E+00
  0.00000000E+00  0.00000000E+00  0.00000000E+00
  0.00000000E+00  0.00000000E+00  0.00000000E+00
  0.00000000E+00  0.00000000E+00  0.00000000E+00
  0.00000000E+00  0.00000000E+00  0.00000000E+00
  0.00000000E+00  0.00000000E+00  0.00000000E+00
  0.00000000E+00  0.00000000E+00  0.00000000E+00
  0.00000000E+00  0.00000000E+00  0.00000000E+00
  0.00000000E+00  0.00000000E+00  0.00000000E+00
  0.00000000E+00  0.00000000E+00  0.00000000E+00
  0.00000000E+00  0.00000000E+00  0.00000000E+00
  0.00000000E+00  0.00000000E+00  0.00000000E+00
  0.00000000E+00  0.00000000E+00  0.00000000E+00
  0.00000000E+00  0.00000000E+00  0.00000000E+00
  0.00000000E+00  0.00000000E+00  0.00000000E+00
  0.00000000E+00  0.00000000E+00  0.00000000E+00
  0.00000000E+00  0.00000000E+00  0.00000000E+00
  0.00000000E+00  0.00000000E+00  0.00000000E+00
  0.00000000E+00  0.00000000E+00  0.00000000E+00
  0.00000000E+00  0.00000000E+00  0.00000000E+00
  0.00000000E+00  0.00000000E+00  0.00000000E+00
  0.00000000E+00  0.00000000E+00  0.00000000E+00
  0.00000000E+00  0.00000000E+00  0.00000000E+00
  0.00000000E+00  0.00000000E+00  0.00000000E+00
  0.00000000E+00  0.00000000E+00  0.00000000E+00
  0.00000000E+00  0.00000000E+00  0.00000000E+00
  0.00000000E+00  0.00000000E+00  0.00000000E+00
  0.00000000E+00  0.00000000E+00  0.00000000E+00
  0.00000000E+00  0.00000000E+00  0.00000000E+00
  0.00000000E+00  0.00000000E+00  0.00000000E+00
  0.00000000E+00  0.00000000E+00  0.00000000E+00
  0.00000000E+00  0.00000000E+00  0.00000000E+00
  0.00000000E+00  0.00000000E+00  0.00000000E+00
  0.00000000E+00  0.00000000E+00  0.00000000E+00
  0.00000000E+00  0.00000000E+00  0.00000000E+00
  0.00000000E+00  0.00000000E+00  0.00000000E+00
  0.00000000E+00  0.00000000E+00  0.00000000E+00
  0.00000000E+00  0.00000000E+00  0.00000000E+00
  0.00000000E+00  0.00000000E+00  0.00000000E+00
  0.00000000E+00  0.00000000E+00  0.00000000E+00
  0.00000000E+00  0.00000000E+00  0.00000000E+00
  0.00000000E+00  0.00000000E+00  0.00000000E+00
  0.00000000E+00  0.00000000E+00  0.00000000E+00
  0.00000000E+00  0.00000000E+00  0.00000000E+00
  0.00000000E+00  0.00000000E+00  0.00000000E+00
  0.00000000E+00  0.00000000E+00  0.00000000E+00
  0.00000000E+00  0.00000000E+00  0.00000000E+00
  0.00000000E+00  0.00000000E+00  0.00000000E+00
  0.00000000E+00  0.00000000E+00  0.00000000E+00
  0.00000000E+00  0.00000000E+00  0.00000000E+00
  0.00000000E+00  0.00000000E+00  0.00000000E+00
  0.00000000E+00  0.00000000E+00  0.00000000E+00
  0.00000000E+00  0.00000000E+00  0.00000000E+00
  0.00000000E+00  0.00000000E+00  0.00000000E+00
  0.00000000E+00  0.00000000E+00  0.00000000E+00
  0.00000000E+00  0.00000000E+00  0.00000000E+00
  0.00000000E+00  0.00000000E+00  0.00000000E+00
  0.00000000E+00  0.00000000E+00  0.00000000E+00
  0.00000000E+00  0.00000000E+00  0.00000000E+00
  0.00000000E+00  0.00000000E+00  0.00000000E+00
  0.00000000E+00  0.00000000E+00  0.00000000E+00
  0.00000000E+00  0.00000000E+00  0.00000000E+00
  0.00000000E+00  0.00000000E+00  0.00000000E+00
  0.00000000E+00  0.00000000E+00  0.00000000E+00
  0.00000000E+00  0.00000000E+00  0.00000000E+00
  0.00000000E+00  0.00000000E+00  0.00000000E+00
  0.00000000E+00  0.00000000E+00  0.00000000E+00
  0.00000000E+00  0.00000000E+00  0.00000000E+00
  0.00000000E+00  0.00000000E+00  0.00000000E+00
  0.00000000E+00  0.00000000E+00  0.00000000E+00
  0.00000000E+00  0.00000000E+00  0.00000000E+00
  0.00000000E+00  0.00000000E+00  0.00000000E+00
  0.00000000E+00  0.00000000E+00  0.00000000E+00
  0.00000000E+00  0.00000000E+00  0.00000000E+00
  0.00000000E+00  0.00000000E+00  0.00000000E+00
  0.00000000E+00  0.00000000E+00  0.00000000E+00
  0.00000000E+00  0.00000000E+00  0.00000000E+00
  0.00000000E+00  0.00000000E+00  0.00000000E+00
  0.00000000E+00  0.00000000E+00  0.00000000E+00
  0.00000000E+00  0.00000000E+00  0.00000000E+00
  0.00000000E+00  0.00000000E+00  0.00000000E+00
  0.00000000E+00  0.00000000E+00  0.00000000E+00
  0.00000000E+00  0.00000000E+00  0.00000000E+00
  0.00000000E+00  0.00000000E+00  0.00000000E+00
  0.00000000E+00  0.00000000E+00  0.00000000E+00
  0.00000000E+00  0.00000000E+00  0.00000000E+00
  0.00000000E+00  0.00000000E+00  0.00000000E+00
  0.00000000E+00  0.00000000E+00  0.00000000E+00
  0.00000000E+00  0.00000000E+00  0.00000000E+00
  0.00000000E+00  0.00000000E+00  0.00000000E+00
  0.00000000E+00  0.00000000E+00  0.00000000E+00
  0.00000000E+00  0.00000000E+00  0.00000000E+00
  0.00000000E+00  0.00000000E+00  0.00000000E+00
  0.00000000E+00  0.00000000E+00  0.00000000E+00
  0.00000000E+00  0.00000000E+00  0.00000000E+00
  0.00000000E+00  0.00000000E+00  0.00000000E+00
  0.00000000E+00  0.00000000E+00  0.00000000E+00
  0.00000000E+00  0.00000000E+00  0.00000000E+00
  0.00000000E+00  0.00000000E+00  0.00000000E+00
  0.00000000E+00  0.00000000E+00  0.00000000E+00
  0.00000000E+00  0.00000000E+00  0.00000000E+00
  0.00000000E+00  0.00000000E+00  0.00000000E+00
  0.00000000E+00  0.00000000E+00  0.00000000E+00
  0.00000000E+00  0.00000000E+00  0.00000000E+00
  0.00000000E+00  0.00000000E+00  0.00000000E+00
  0.00000000E+00  0.00000000E+00  0.00000000E+00
  0.00000000E+00  0.00000000E+00  0.00000000E+00
  0.00000000E+00  0.00000000E+00  0.00000000E+00
  0.00000000E+00  0.00000000E+00  0.00000000E+00
  0.00000000E+00  0.00000000E+00  0.00000000E+00
  0.00000000E+00  0.00000000E+00  0.00000000E+00
  0.00000000E+00  0.00000000E+00  0.00000000E+00
  0.00000000E+00  0.00000000E+00  0.00000000E+00
  0.00000000E+00  0.00000000E+00  0.00000000E+00
  0.00000000E+00  0.00000000E+00  0.00000000E+00
  0.00000000E+00  0.00000000E+00  0.00000000E+00
  0.00000000E+00  0.00000000E+00  0.00000000E+00
