Na F Cd                                 
   1.00000000000000     
     8.8592809999999993   -8.8592809999999993    0.0000000000000000
     8.8592809999999993    8.8592809999999993    0.0000000000000000
     0.0000000000000000    0.0000000000000000   17.7185610000000011
   Cd   F    Na
    32    96    32
Direct
  0.9839524469373750  0.9938597242127715  0.9985477682949317
  0.9977423706904884  0.9953283064700187  0.2568200814623802
  0.9979069005758824  0.0059983371774455  0.4959938778117547
  0.0067936488981998  0.9939605133262182  0.7465238837690213
  0.4927299259182575  0.9934137955466418  0.0087200900351509
  0.5012177130872973  0.9859139892818678  0.2569298481559990
  0.4969308276994227  0.0025483920722326  0.4976779254622560
  0.4940037206759434  0.0051213169754308  0.7473823847466377
  0.2530035057530949  0.2443229100909213  0.0010154051284946
  0.2611980359594930  0.2446836047917474  0.2435105163729957
  0.2443392880647471  0.2589216824056532  0.4941248249347674
  0.2557456029670525  0.2607376304385620  0.7470026110855236
  0.0144359751133614  0.4897411256551477  0.0071595662570471
  0.9987060747432283  0.5050525696566460  0.2499338386593201
  0.0075228055449455  0.5038878492141476  0.4959315889626658
  0.9962442780358493  0.5091340946137060  0.7549778093554800
  0.7410403297141005  0.2451179515529213  0.0055930334183193
  0.7461221585976640  0.2473728824546355  0.2524687968765688
  0.7355932373452024  0.2432005905299551  0.4918687188444965
  0.7573155312691079  0.2747984821856677  0.7588046845355518
  0.4886114248653391  0.4937386598938019  0.9951403204273788
  0.4986926388380413  0.5034681825613246  0.2477822854050640
  0.5040278714182734  0.5072447471368844  0.4912446941637563
  0.5015325079868470  0.5005415508209562  0.7392667189816744
  0.2446008447524190  0.7437946030714659  0.0018701548743207
  0.2418071552742225  0.7393089678781622  0.2527780344644410
  0.2606389193543966  0.7452730377876597  0.4960073696672977
  0.2509719473745921  0.7597337942907466  0.7602310557516299
  0.7336497355337738  0.7556556292381832  0.0026339585121647
  0.7441262110043818  0.7439713919130484  0.2467871446406397
  0.7622533864999474  0.7494045274383975  0.4928643773581728
  0.7603649606446101  0.7593375454154264  0.7457178764278771
  0.1224270601468876  0.1185883033131728  0.0187741951109355
  0.1286338299309862  0.1261384931193258  0.2170943515117920
  0.0850386999020969  0.1669441688961233  0.5044607131002642
  0.1311019653946529  0.1226970845515088  0.7302417578526843
  0.5850081530463268  0.1551549994409566  0.9958380370890877
  0.6402314741388515  0.1083063391875932  0.2870031682077418
  0.5841449085579794  0.1547375170210750  0.4640757630467488
  0.6549601462137473  0.1198253987546882  0.7529521815097902
  0.4052067362914233  0.3346952422066320  0.9681178255692715
  0.4188008861142515  0.3383627176649784  0.2615173285643219
  0.3988650271209817  0.3632814646403189  0.4668624812562782
  0.3330205871735138  0.4263137955043638  0.7446832425313603
  0.0896217987529066  0.6502911436574187  0.9808099523313297
  0.0889682675681715  0.6519774256206382  0.2884651288046322
  0.0925126415891960  0.6660849885782253  0.4853562456274631
  0.1614868086956067  0.5976692852946586  0.7732473281934141
  0.8746427844704121  0.3783138247578989  0.0294955813447124
  0.8815657070611812  0.3705792963934795  0.2134416832841566
  0.8983748310365458  0.3524470366765987  0.5166476076407540
  0.8478429492138049  0.4179287237427570  0.7149438923515579
  0.5890516728424945  0.6497829972348784  0.9890748330812349
  0.5839654741396645  0.6525637369422356  0.2092732161548369
  0.5924180245055073  0.6712996248127743  0.4995516396698105
  0.6239861165162417  0.6358598683446950  0.7389104665678828
  0.3975499757800787  0.8434735599015106  0.0300544658936987
  0.3885991536137351  0.8432027113958407  0.2301931667288461
  0.3798243401706957  0.8698695982948427  0.5354788026499347
  0.3474088186120580  0.9073512500967673  0.7268998409485307
  0.9013411783707010  0.8355872059941261  0.9790723836339328
  0.8647439736503377  0.8833556443696158  0.2877551002318634
  0.9110498167261686  0.8460215959352403  0.4775652370904617
  0.8441250899019699  0.9227446203299904  0.7555277948469143
  0.8333645673813601  0.0901405991524038  0.9917220663188268
  0.9066938854355514  0.1542809238006621  0.2769689611600116
  0.8521972496107603  0.1104495590930084  0.4538557495021255
  0.9000958023608462  0.1634711751432186  0.7546420471334060
  0.3492337532482871  0.0897979403666289  0.9713610585603119
  0.3693067756759175  0.1039645716190938  0.2865963067087113
  0.3450031900046796  0.1119771027557386  0.4671782288308148
  0.4144742919622559  0.1736572344587807  0.7594122330363851
  0.1613314631760409  0.3952202228460641  0.0270123261189884
  0.1327482033791791  0.3768688617251185  0.2178771849606050
  0.1640324395204160  0.4230247259767674  0.4891651972842271
  0.0880267295499398  0.3522139683813930  0.7505867766500870
  0.8497083979730756  0.6122509302282522  0.0072451114430522
  0.8506853133905917  0.6081438847076993  0.2088217976971869
  0.8432358306865827  0.5821719561683641  0.5059608351741007
  0.9092709851590283  0.6682996633632474  0.7753102625284294
  0.6504366858214657  0.4088121623300479  0.0232896551093909
  0.6340507780121641  0.3811711637474917  0.2067529112059298
  0.6607772123171507  0.4124202389537764  0.5115149739859497
  0.6041333470913323  0.3574081387160409  0.7222853978124834
  0.3390844333378197  0.5955775654644689  0.9666175041804945
  0.3340425100206930  0.5785975133404179  0.2743410915191457
  0.3540660346137597  0.6037166500794132  0.4614324332504620
  0.3943041452275504  0.6540186764368251  0.7799744218067031
  0.1436112748686359  0.8958090918347769  0.0209292142796595
  0.1338328672040138  0.8822140761056141  0.2221790396215541
  0.1342435675883450  0.8860984494688646  0.5341874397701731
  0.1106922576919213  0.8575456401731494  0.7093729482384610
  0.6562318769892287  0.9169207191406097  0.9940957596686921
  0.6324955179537831  0.8694895152578498  0.2899015621095646
  0.6524310383102488  0.8977399097522883  0.4672398669076049
  0.6141666632182916  0.8735537616162539  0.7534729380984709
  0.9703517556546285  0.0032009817093429  0.1278075728000770
  0.0631882766765302  0.9783691077662736  0.3769527120424003
  0.9580070255911528  0.0376675811933795  0.6213756688791156
  0.0406590901513418  0.0236795217590346  0.8725148573190902
  0.5451909263728953  0.9972754314600150  0.1330319589436104
  0.4580171633067651  0.9388278435468191  0.3818109455248161
  0.5103755361279496  0.0471767175173292  0.6213236085433067
  0.5159882509160103  0.0102130675095215  0.8741272262852681
  0.3179925537921355  0.2407626870735695  0.1221285587295004
  0.2431690289261346  0.2852819116885887  0.3659807565354480
  0.2295509376795437  0.2689731376702992  0.6208984307452363
  0.2141201246596683  0.2391223466294367  0.8715495981861922
  0.0393736817904111  0.5502273578170219  0.1267092601710147
  0.9726505012496311  0.4545887199823577  0.3713593836620232
  0.0379428464343047  0.5474695285933314  0.6284369243727030
  0.9564018407365336  0.4990996918954165  0.8843399466217609
  0.7443105481542849  0.1943903216694974  0.1291958660168525
  0.7652281624568905  0.3105739579781835  0.3729193081324969
  0.7312501608040068  0.2162854092962410  0.6174265291354823
  0.7569377580423633  0.3065707145880525  0.8835904219759042
  0.4375647784882222  0.4795633662659312  0.1189544511279292
  0.5599541103391531  0.5067448654700331  0.3677111977493292
  0.4797634073016367  0.5422620560798072  0.6170457433609138
  0.5107874008027266  0.5059492854002429  0.8664989474303592
  0.2689779783563075  0.6861569546732028  0.1263797276696730
  0.2332246946207936  0.8046214670632668  0.3768858547562223
  0.2408216301949237  0.7089560230222807  0.6265523079772031
  0.2380986958336703  0.8149495342803027  0.8804031302830958
  0.7748749618688447  0.7939868560416854  0.1239542713726033
  0.7365793836832002  0.6894706129216055  0.3705966750476660
  0.7413453797016945  0.7562235664366460  0.6197682480772786
  0.7200010637827829  0.7618976813081649  0.8729872834124011
  0.0029112271518686  0.2459015391070837  0.1847449336032663
  0.9444408995696530  0.2656699361236748  0.3988884383994140
  0.0480243191223641  0.2098185381368348  0.6302236778746182
  0.0425306988222259  0.2101781048584365  0.8313040603981344
  0.4879627022963809  0.3044095885358874  0.1375028548273808
  0.4455819994639574  0.2272632648202678  0.3801984275311267
  0.5553835920915792  0.2114873142280849  0.6599717048432936
  0.4688646302349140  0.1908333810334906  0.8965635824160652
  0.2341935862589301  0.5002107060436437  0.1294675140281093
  0.2801659964653970  0.4711911874994344  0.3875296941713209
  0.2234974336660866  0.5266927786370135  0.6568483354630035
  0.3012392621213359  0.5318916399341952  0.8512422205753531
  0.9373681017736760  0.7013417758905345  0.1081259431914548
  0.0452926002330764  0.7855226378947303  0.3879605209578619
  0.0614662465480683  0.7399406367206589  0.6051561088937785
  0.9539278890617753  0.6953781024427412  0.9024339957662456
  0.7672851285074872  0.4570056883133737  0.1322748348611330
  0.7403229622811439  0.4987375447438645  0.4021593309397529
  0.7921668184822421  0.4521755715168877  0.5955970215544576
  0.7815526245871756  0.4705967122097746  0.9360300304778518
  0.4513783904236621  0.7444412867450877  0.1344726014742176
  0.5582420287023514  0.7796691871438181  0.3899571881659760
  0.5643682624753986  0.7043065894408450  0.6241072890461359
  0.5482941592781705  0.6864108785982785  0.8577436250080638
  0.1602421720281521  0.0011734566278065  0.1243471595967708
  0.2775763178502131  0.9863909763269975  0.3733352113012935
  0.2550561657946868  0.9262379701195517  0.6219098305472203
  0.2131456861830508  0.9907412081514412  0.9213829113219772
  0.7289193531693119  0.0155264689182513  0.0958165879533723
  0.7410990087325361  0.9876861506549709  0.3635232298230570
  0.7864528249488789  0.0573116915867034  0.6726396397536866
  0.6895562900095218  0.9517375397110954  0.8647141644056532
 
  0.00000000E+00  0.00000000E+00  0.00000000E+00
  0.00000000E+00  0.00000000E+00  0.00000000E+00
  0.00000000E+00  0.00000000E+00  0.00000000E+00
  0.00000000E+00  0.00000000E+00  0.00000000E+00
  0.00000000E+00  0.00000000E+00  0.00000000E+00
  0.00000000E+00  0.00000000E+00  0.00000000E+00
  0.00000000E+00  0.00000000E+00  0.00000000E+00
  0.00000000E+00  0.00000000E+00  0.00000000E+00
  0.00000000E+00  0.00000000E+00  0.00000000E+00
  0.00000000E+00  0.00000000E+00  0.00000000E+00
  0.00000000E+00  0.00000000E+00  0.00000000E+00
  0.00000000E+00  0.00000000E+00  0.00000000E+00
  0.00000000E+00  0.00000000E+00  0.00000000E+00
  0.00000000E+00  0.00000000E+00  0.00000000E+00
  0.00000000E+00  0.00000000E+00  0.00000000E+00
  0.00000000E+00  0.00000000E+00  0.00000000E+00
  0.00000000E+00  0.00000000E+00  0.00000000E+00
  0.00000000E+00  0.00000000E+00  0.00000000E+00
  0.00000000E+00  0.00000000E+00  0.00000000E+00
  0.00000000E+00  0.00000000E+00  0.00000000E+00
  0.00000000E+00  0.00000000E+00  0.00000000E+00
  0.00000000E+00  0.00000000E+00  0.00000000E+00
  0.00000000E+00  0.00000000E+00  0.00000000E+00
  0.00000000E+00  0.00000000E+00  0.00000000E+00
  0.00000000E+00  0.00000000E+00  0.00000000E+00
  0.00000000E+00  0.00000000E+00  0.00000000E+00
  0.00000000E+00  0.00000000E+00  0.00000000E+00
  0.00000000E+00  0.00000000E+00  0.00000000E+00
  0.00000000E+00  0.00000000E+00  0.00000000E+00
  0.00000000E+00  0.00000000E+00  0.00000000E+00
  0.00000000E+00  0.00000000E+00  0.00000000E+00
  0.00000000E+00  0.00000000E+00  0.00000000E+00
  0.00000000E+00  0.00000000E+00  0.00000000E+00
  0.00000000E+00  0.00000000E+00  0.00000000E+00
  0.00000000E+00  0.00000000E+00  0.00000000E+00
  0.00000000E+00  0.00000000E+00  0.00000000E+00
  0.00000000E+00  0.00000000E+00  0.00000000E+00
  0.00000000E+00  0.00000000E+00  0.00000000E+00
  0.00000000E+00  0.00000000E+00  0.00000000E+00
  0.00000000E+00  0.00000000E+00  0.00000000E+00
  0.00000000E+00  0.00000000E+00  0.00000000E+00
  0.00000000E+00  0.00000000E+00  0.00000000E+00
  0.00000000E+00  0.00000000E+00  0.00000000E+00
  0.00000000E+00  0.00000000E+00  0.00000000E+00
  0.00000000E+00  0.00000000E+00  0.00000000E+00
  0.00000000E+00  0.00000000E+00  0.00000000E+00
  0.00000000E+00  0.00000000E+00  0.00000000E+00
  0.00000000E+00  0.00000000E+00  0.00000000E+00
  0.00000000E+00  0.00000000E+00  0.00000000E+00
  0.00000000E+00  0.00000000E+00  0.00000000E+00
  0.00000000E+00  0.00000000E+00  0.00000000E+00
  0.00000000E+00  0.00000000E+00  0.00000000E+00
  0.00000000E+00  0.00000000E+00  0.00000000E+00
  0.00000000E+00  0.00000000E+00  0.00000000E+00
  0.00000000E+00  0.00000000E+00  0.00000000E+00
  0.00000000E+00  0.00000000E+00  0.00000000E+00
  0.00000000E+00  0.00000000E+00  0.00000000E+00
  0.00000000E+00  0.00000000E+00  0.00000000E+00
  0.00000000E+00  0.00000000E+00  0.00000000E+00
  0.00000000E+00  0.00000000E+00  0.00000000E+00
  0.00000000E+00  0.00000000E+00  0.00000000E+00
  0.00000000E+00  0.00000000E+00  0.00000000E+00
  0.00000000E+00  0.00000000E+00  0.00000000E+00
  0.00000000E+00  0.00000000E+00  0.00000000E+00
  0.00000000E+00  0.00000000E+00  0.00000000E+00
  0.00000000E+00  0.00000000E+00  0.00000000E+00
  0.00000000E+00  0.00000000E+00  0.00000000E+00
  0.00000000E+00  0.00000000E+00  0.00000000E+00
  0.00000000E+00  0.00000000E+00  0.00000000E+00
  0.00000000E+00  0.00000000E+00  0.00000000E+00
  0.00000000E+00  0.00000000E+00  0.00000000E+00
  0.00000000E+00  0.00000000E+00  0.00000000E+00
  0.00000000E+00  0.00000000E+00  0.00000000E+00
  0.00000000E+00  0.00000000E+00  0.00000000E+00
  0.00000000E+00  0.00000000E+00  0.00000000E+00
  0.00000000E+00  0.00000000E+00  0.00000000E+00
  0.00000000E+00  0.00000000E+00  0.00000000E+00
  0.00000000E+00  0.00000000E+00  0.00000000E+00
  0.00000000E+00  0.00000000E+00  0.00000000E+00
  0.00000000E+00  0.00000000E+00  0.00000000E+00
  0.00000000E+00  0.00000000E+00  0.00000000E+00
  0.00000000E+00  0.00000000E+00  0.00000000E+00
  0.00000000E+00  0.00000000E+00  0.00000000E+00
  0.00000000E+00  0.00000000E+00  0.00000000E+00
  0.00000000E+00  0.00000000E+00  0.00000000E+00
  0.00000000E+00  0.00000000E+00  0.00000000E+00
  0.00000000E+00  0.00000000E+00  0.00000000E+00
  0.00000000E+00  0.00000000E+00  0.00000000E+00
  0.00000000E+00  0.00000000E+00  0.00000000E+00
  0.00000000E+00  0.00000000E+00  0.00000000E+00
  0.00000000E+00  0.00000000E+00  0.00000000E+00
  0.00000000E+00  0.00000000E+00  0.00000000E+00
  0.00000000E+00  0.00000000E+00  0.00000000E+00
  0.00000000E+00  0.00000000E+00  0.00000000E+00
  0.00000000E+00  0.00000000E+00  0.00000000E+00
  0.00000000E+00  0.00000000E+00  0.00000000E+00
  0.00000000E+00  0.00000000E+00  0.00000000E+00
  0.00000000E+00  0.00000000E+00  0.00000000E+00
  0.00000000E+00  0.00000000E+00  0.00000000E+00
  0.00000000E+00  0.00000000E+00  0.00000000E+00
  0.00000000E+00  0.00000000E+00  0.00000000E+00
  0.00000000E+00  0.00000000E+00  0.00000000E+00
  0.00000000E+00  0.00000000E+00  0.00000000E+00
  0.00000000E+00  0.00000000E+00  0.00000000E+00
  0.00000000E+00  0.00000000E+00  0.00000000E+00
  0.00000000E+00  0.00000000E+00  0.00000000E+00
  0.00000000E+00  0.00000000E+00  0.00000000E+00
  0.00000000E+00  0.00000000E+00  0.00000000E+00
  0.00000000E+00  0.00000000E+00  0.00000000E+00
  0.00000000E+00  0.00000000E+00  0.00000000E+00
  0.00000000E+00  0.00000000E+00  0.00000000E+00
  0.00000000E+00  0.00000000E+00  0.00000000E+00
  0.00000000E+00  0.00000000E+00  0.00000000E+00
  0.00000000E+00  0.00000000E+00  0.00000000E+00
  0.00000000E+00  0.00000000E+00  0.00000000E+00
  0.00000000E+00  0.00000000E+00  0.00000000E+00
  0.00000000E+00  0.00000000E+00  0.00000000E+00
  0.00000000E+00  0.00000000E+00  0.00000000E+00
  0.00000000E+00  0.00000000E+00  0.00000000E+00
  0.00000000E+00  0.00000000E+00  0.00000000E+00
  0.00000000E+00  0.00000000E+00  0.00000000E+00
  0.00000000E+00  0.00000000E+00  0.00000000E+00
  0.00000000E+00  0.00000000E+00  0.00000000E+00
  0.00000000E+00  0.00000000E+00  0.00000000E+00
  0.00000000E+00  0.00000000E+00  0.00000000E+00
  0.00000000E+00  0.00000000E+00  0.00000000E+00
  0.00000000E+00  0.00000000E+00  0.00000000E+00
  0.00000000E+00  0.00000000E+00  0.00000000E+00
  0.00000000E+00  0.00000000E+00  0.00000000E+00
  0.00000000E+00  0.00000000E+00  0.00000000E+00
  0.00000000E+00  0.00000000E+00  0.00000000E+00
  0.00000000E+00  0.00000000E+00  0.00000000E+00
  0.00000000E+00  0.00000000E+00  0.00000000E+00
  0.00000000E+00  0.00000000E+00  0.00000000E+00
  0.00000000E+00  0.00000000E+00  0.00000000E+00
  0.00000000E+00  0.00000000E+00  0.00000000E+00
  0.00000000E+00  0.00000000E+00  0.00000000E+00
  0.00000000E+00  0.00000000E+00  0.00000000E+00
  0.00000000E+00  0.00000000E+00  0.00000000E+00
  0.00000000E+00  0.00000000E+00  0.00000000E+00
  0.00000000E+00  0.00000000E+00  0.00000000E+00
  0.00000000E+00  0.00000000E+00  0.00000000E+00
  0.00000000E+00  0.00000000E+00  0.00000000E+00
  0.00000000E+00  0.00000000E+00  0.00000000E+00
  0.00000000E+00  0.00000000E+00  0.00000000E+00
  0.00000000E+00  0.00000000E+00  0.00000000E+00
  0.00000000E+00  0.00000000E+00  0.00000000E+00
  0.00000000E+00  0.00000000E+00  0.00000000E+00
  0.00000000E+00  0.00000000E+00  0.00000000E+00
  0.00000000E+00  0.00000000E+00  0.00000000E+00
  0.00000000E+00  0.00000000E+00  0.00000000E+00
  0.00000000E+00  0.00000000E+00  0.00000000E+00
  0.00000000E+00  0.00000000E+00  0.00000000E+00
  0.00000000E+00  0.00000000E+00  0.00000000E+00
  0.00000000E+00  0.00000000E+00  0.00000000E+00
  0.00000000E+00  0.00000000E+00  0.00000000E+00
  0.00000000E+00  0.00000000E+00  0.00000000E+00
  0.00000000E+00  0.00000000E+00  0.00000000E+00
  0.00000000E+00  0.00000000E+00  0.00000000E+00
  0.00000000E+00  0.00000000E+00  0.00000000E+00
