Cs Sn Br                                
   1.00000000000000     
    11.7708410000000008  -11.7708410000000008    0.0000000000000000
    11.7708410000000008   11.7708410000000008    0.0000000000000000
     0.0000000000000000    0.0000000000000000   23.5416810000000005
   Br   Cs   Sn
    96    32    32
Direct
  0.0007283060421202  0.2125381438600343  0.0033601489151831
  0.9955629910001373  0.2798099523003585  0.2525769145376055
  0.0096130512915493  0.2239082727028340  0.5037444042757432
  0.0021009432255530  0.2879345780860799  0.7535035699266910
  0.5368637537045637  0.2511342137716505  0.0042150393463436
  0.4693959712793581  0.2465297185186688  0.2531863083777311
  0.5249768796612710  0.2628902734426929  0.5033063324400207
  0.4677278786234580  0.2461073091129958  0.7545728792177109
  0.2512840211463322  0.5344863719921685  0.0037119838270948
  0.2510156377220777  0.4770501645280017  0.2534123682245771
  0.2594262386836296  0.5258616597325179  0.5036051986389438
  0.2491182945025368  0.4658398710439675  0.7547841373644057
  0.0367455477450315  0.7510628290192480  0.0040106374506839
  0.9724903076965736  0.7481817010594384  0.2530982553850685
  0.0217302874494235  0.7618245238245439  0.5037593924335987
  0.9676396895364923  0.7455547687527739  0.7549073687620379
  0.7129579774760177  0.4979681862354291  0.0031696243822680
  0.7850780136869248  0.4928993604966561  0.2525441385068096
  0.7202700077912148  0.5055306335447444  0.5032154573041970
  0.7895321235645220  0.5004614020101837  0.7533174582676032
  0.5007792901731215  0.7128593990662735  0.0034685104773570
  0.4939906026785592  0.7798144279845395  0.2526147233891011
  0.5112224570634888  0.7237521854709690  0.5038719417962620
  0.5020808538335427  0.7878447648602802  0.7537208958551845
  0.2130260066719422 -0.0015233989649390  0.0031704587557603
  0.2821482335138492  0.9909181361574729  0.2530517520871311
  0.2215553635119652  0.0038273977688003  0.5037951258471872
  0.2899914630561781  0.0009350301164198  0.7534958181052505
  0.7514037779445508  0.0348011948099712  0.0038527107203952
  0.7499660278177711  0.9757893509472925  0.2532025092194019
  0.7599653208888718  0.0225788900929012  0.5036484835960939
  0.7479317685433036  0.9662930685767411  0.7549747867143494
  0.1310063878579386  0.1375280656170611  0.1408251194255098
  0.1408395815283587  0.1481783728436610  0.3576417987652258
  0.1458348557274083  0.1529879458067452  0.6372599845099728
  0.1049079288503389  0.1145773792782567  0.8512157355381283
  0.6288866089771984  0.1343359288800189  0.1447035692272217
  0.6401473556127043  0.1496526554292882  0.3581900962689851
  0.6409020446041429  0.1497631404229931  0.6353026810276575
  0.5997293462004269  0.1087735937419580  0.8641931888146402
  0.3567490325563157  0.3640119284311090  0.1092687614583374
  0.3486077683841020  0.3585299824291743  0.3879513886252400
  0.3520074857375879  0.3602154493873564  0.6084596797714756
  0.3894308636965855  0.3974799798823976  0.8897455382740727
  0.1293886795710903  0.6353502007055657  0.1434933542401769
  0.1403134289706436  0.6499530928054625  0.3586511306352736
  0.1410519481359335  0.6494913169571347  0.6355357921281037
  0.1003948022523458  0.6090129485573929  0.8641976328599726
  0.8509531414228072  0.3572952029747846  0.1073261378592250
  0.8508053705907856  0.3585721543284405  0.3882517797833893
  0.8507943681777259  0.3612566630856951  0.6072297456000397
  0.8860202881958910  0.3945558146090929  0.8930800116486221
  0.6300768012664603  0.6370819373146844  0.1411135007142298
  0.6409293750750700  0.6485409670458305  0.3572725805834258
  0.6473830748865701  0.6541247179355729  0.6383922697299912
  0.6051460927844851  0.6152202657420374  0.8526012192490702
  0.3514085532876984  0.8583062252149523  0.1071086898540208
  0.3495562524563161  0.8574993466941463  0.3884628376423694
  0.3519516773447839  0.8611945052553488  0.6081926929197280
  0.3854574743375265  0.8946629033883848  0.8933847781161167
  0.8562936320544261  0.8632116459725586  0.1086336360749525
  0.8482302952591910  0.8576773536494635  0.3867735294248418
  0.8529355276120326  0.8610326970803855  0.6108714056104347
  0.8891819239801423  0.8977549374002228  0.8892804507559710
  0.8913997781946197  0.1136316004771827  0.1410643766941068
  0.8992771224593983  0.1112260804253907  0.3643073540520445
  0.9037704577182876  0.1090826224636873  0.6386962460173511
  0.8623540379548635  0.1471154402449344  0.8540234174812577
  0.3908457666487595  0.1151265432436865  0.1061230727109998
  0.4022151575179513  0.1086936273155467  0.3871982941019823
  0.4015260216569450  0.1115480789484972  0.6070396104510579
  0.3623339699014202  0.1474482791643067  0.8941764616283778
  0.1165101766935645  0.3886523935498989  0.1081385805235751
  0.1097797551236332  0.3997105801035911  0.3834188315670252
  0.1124891495273399  0.3997598816004037  0.6098505839730353
  0.1488616797309363  0.3604096159894486  0.8941496940861153
  0.8914086122543153  0.6143705991650172  0.1068796293629854
  0.9018580617364642  0.6084989208367211  0.3861347130270031
  0.9010561467105894  0.6111008300706650  0.6080711392242117
  0.8630706513977412  0.6468475494690682  0.8944656221846488
  0.6170533816683180  0.3881396600554441  0.1427157080365638
  0.6142444903429372  0.3961208680515398  0.3592410519298174
  0.6115493094145003  0.4004434792240144  0.6411071535034266
  0.6498772824946936  0.3614847773359127  0.8544445998698572
  0.3889545988678186  0.6160475792694223  0.1407734679501493
  0.4004844227086019  0.6097294237225277  0.3647213354526241
  0.4050913067731037  0.6081001008682815  0.6386837970090203
  0.3631793728889854  0.6460931362968111  0.8551498726225579
  0.1165503127369542  0.8887315097112046  0.1419297507210608
  0.1122762782703883  0.8976856846094733  0.3641652599621311
  0.1132227969318639  0.8988567811608709  0.6407892677376378
  0.1498861739389419  0.8614624394557460  0.8542986364946710
  0.6168060426493022  0.8885844081536902  0.1075396459199712
  0.6093254139276908  0.8995644095428567  0.3829129818770775
  0.6127004803693705  0.8993155442001916  0.6100971261474366
  0.6489038643328064  0.8606808992959740  0.8944894610812852
  0.9903744657658125  0.9893875898036573  0.0147072308238187
  0.0053431898516489  0.0041939957348109  0.2501565068097680
  0.9892912447083361  0.9906735648494204  0.5006462815259489
  0.9841101633560071  0.9824712503840310  0.7572588998346205
  0.5131947578887125  0.0113582584110335 -0.0051090083582157
  0.5119316155095042  0.0120172499209684  0.2539826953856607
  0.4795264518950150  0.9737673115632477  0.4980032611899073
  0.5132464960416389  0.0127201008968391  0.7358655307328543
  0.2357485548297594  0.2343131972549404  0.0103697317879940
  0.2489636334066626  0.2563040981244593  0.2456093453482025
  0.2430177011047954  0.2348982252439373  0.4991980915476812
  0.2438744265095604  0.2430640824838763  0.7633422471462767
  0.0132626347762746  0.5114186012212767 -0.0051422922159261
  0.0134238199084166  0.5123379748719489  0.2539163975580346
  0.9791130659319009  0.4752705407999089  0.4978805053266566
  0.0130813234037240  0.5125056419412781  0.7361617139406974
  0.7585332696555310  0.2572817116302870  0.9824907060060937
  0.7614893885040913  0.2601255283186456  0.2461438019603116
  0.7440083400158563  0.2428162659388274  0.4970893883386023
  0.7663136285782794  0.2658275959736471  0.7385051321386228
  0.4904725435740143  0.4897817398868173  0.0146685022911282
  0.4997997018341967  0.5011484826436282  0.2489953549269978
  0.4884547610339260  0.4904136180828235  0.4999005289506166
  0.4846880829697963  0.4832262166385007  0.7581994023815229
  0.2586660899799161  0.7571439330228182  0.9831114305586196
  0.2609496034065121  0.7592391602342209  0.2456199822168960
  0.2407902153381929  0.7461145078938692  0.4982501658578598
  0.2670258194686728  0.7648035735321368  0.7392068988236503
  0.7350382329358029  0.7329647533274751  0.0101891775674929
  0.7506421021698292  0.7550577499379167  0.2453102053556794
  0.7436596396363859  0.7372085480905675  0.5002675498824192
  0.7442611794847741  0.7434092068414455  0.7653242761247493
 -0.0017934431163611  0.2441468719579483  0.1222181316216899
  0.0024981115731815  0.2463817713749525  0.3708487251369604
  0.0050159103570072  0.2441186985499135  0.6240539629140510
  0.9995344410274589  0.2456020576588439  0.8699915853194161
  0.5015923851799849  0.2435750823096115  0.1224295487686139
  0.5007418056816629  0.2456302451995409  0.3719643577421962
  0.5017392868726630  0.2478047361084718  0.6217168608828810
  0.4977174418513741  0.2448951535791388  0.8738115288648168
  0.2473780527709023  0.4974847685540078  0.1215485184191084
  0.2496108995212344  0.4952157176815883  0.3740995059196128
  0.2513717093978309  0.4955571728807405  0.6216118228081732
  0.2506194925274559  0.4936433272348895  0.8745337976446379
  0.0013249670473572  0.7439742975433263  0.1223030261441326
  0.0004503649624573  0.7456733049617498  0.3721174828326952
  0.0014477135044395  0.7471234369437997  0.6224875448558687
  0.9981515225039235  0.7449240836686424  0.8740465331665161
  0.7486959480182408  0.4921058092862276  0.1213874906007899
  0.7507260450287847  0.4954939446931933  0.3704258686171815
  0.7472002456597834  0.4983643047404090  0.6224201740676010
  0.7530397873927035  0.4949754283988443  0.8711480027507361
  0.4982602933200251  0.7447172731518311  0.1224280205305942
  0.5025668235521650  0.7457744973808446  0.3708530667660063
  0.5057605282076412  0.7435765276930514  0.6242227065009135
  0.4993981117660125  0.7461506832029674  0.8704040234989855
  0.2486698025283779  0.9924816472745089  0.1212443558114521
  0.2507469973517711  0.9950533655450069  0.3714174566204993
  0.2482868570151176  0.9980169104858126  0.6230960630975398
  0.2525859552717039  0.9953252390242254  0.8713137291598105
  0.7475699488285971 -0.0028288075398618  0.1216671586572094
  0.7493197161530305  0.9945446679830962  0.3734212280063547
  0.7511139163562696  0.9956689145083425  0.6220821351310760
  0.7504300899495508  0.9941565486542012  0.8747431506913725
 
  0.00000000E+00  0.00000000E+00  0.00000000E+00
  0.00000000E+00  0.00000000E+00  0.00000000E+00
  0.00000000E+00  0.00000000E+00  0.00000000E+00
  0.00000000E+00  0.00000000E+00  0.00000000E+00
  0.00000000E+00  0.00000000E+00  0.00000000E+00
  0.00000000E+00  0.00000000E+00  0.00000000E+00
  0.00000000E+00  0.00000000E+00  0.00000000E+00
  0.00000000E+00  0.00000000E+00  0.00000000E+00
  0.00000000E+00  0.00000000E+00  0.00000000E+00
  0.00000000E+00  0.00000000E+00  0.00000000E+00
  0.00000000E+00  0.00000000E+00  0.00000000E+00
  0.00000000E+00  0.00000000E+00  0.00000000E+00
  0.00000000E+00  0.00000000E+00  0.00000000E+00
  0.00000000E+00  0.00000000E+00  0.00000000E+00
  0.00000000E+00  0.00000000E+00  0.00000000E+00
  0.00000000E+00  0.00000000E+00  0.00000000E+00
  0.00000000E+00  0.00000000E+00  0.00000000E+00
  0.00000000E+00  0.00000000E+00  0.00000000E+00
  0.00000000E+00  0.00000000E+00  0.00000000E+00
  0.00000000E+00  0.00000000E+00  0.00000000E+00
  0.00000000E+00  0.00000000E+00  0.00000000E+00
  0.00000000E+00  0.00000000E+00  0.00000000E+00
  0.00000000E+00  0.00000000E+00  0.00000000E+00
  0.00000000E+00  0.00000000E+00  0.00000000E+00
  0.00000000E+00  0.00000000E+00  0.00000000E+00
  0.00000000E+00  0.00000000E+00  0.00000000E+00
  0.00000000E+00  0.00000000E+00  0.00000000E+00
  0.00000000E+00  0.00000000E+00  0.00000000E+00
  0.00000000E+00  0.00000000E+00  0.00000000E+00
  0.00000000E+00  0.00000000E+00  0.00000000E+00
  0.00000000E+00  0.00000000E+00  0.00000000E+00
  0.00000000E+00  0.00000000E+00  0.00000000E+00
  0.00000000E+00  0.00000000E+00  0.00000000E+00
  0.00000000E+00  0.00000000E+00  0.00000000E+00
  0.00000000E+00  0.00000000E+00  0.00000000E+00
  0.00000000E+00  0.00000000E+00  0.00000000E+00
  0.00000000E+00  0.00000000E+00  0.00000000E+00
  0.00000000E+00  0.00000000E+00  0.00000000E+00
  0.00000000E+00  0.00000000E+00  0.00000000E+00
  0.00000000E+00  0.00000000E+00  0.00000000E+00
  0.00000000E+00  0.00000000E+00  0.00000000E+00
  0.00000000E+00  0.00000000E+00  0.00000000E+00
  0.00000000E+00  0.00000000E+00  0.00000000E+00
  0.00000000E+00  0.00000000E+00  0.00000000E+00
  0.00000000E+00  0.00000000E+00  0.00000000E+00
  0.00000000E+00  0.00000000E+00  0.00000000E+00
  0.00000000E+00  0.00000000E+00  0.00000000E+00
  0.00000000E+00  0.00000000E+00  0.00000000E+00
  0.00000000E+00  0.00000000E+00  0.00000000E+00
  0.00000000E+00  0.00000000E+00  0.00000000E+00
  0.00000000E+00  0.00000000E+00  0.00000000E+00
  0.00000000E+00  0.00000000E+00  0.00000000E+00
  0.00000000E+00  0.00000000E+00  0.00000000E+00
  0.00000000E+00  0.00000000E+00  0.00000000E+00
  0.00000000E+00  0.00000000E+00  0.00000000E+00
  0.00000000E+00  0.00000000E+00  0.00000000E+00
  0.00000000E+00  0.00000000E+00  0.00000000E+00
  0.00000000E+00  0.00000000E+00  0.00000000E+00
  0.00000000E+00  0.00000000E+00  0.00000000E+00
  0.00000000E+00  0.00000000E+00  0.00000000E+00
  0.00000000E+00  0.00000000E+00  0.00000000E+00
  0.00000000E+00  0.00000000E+00  0.00000000E+00
  0.00000000E+00  0.00000000E+00  0.00000000E+00
  0.00000000E+00  0.00000000E+00  0.00000000E+00
  0.00000000E+00  0.00000000E+00  0.00000000E+00
  0.00000000E+00  0.00000000E+00  0.00000000E+00
  0.00000000E+00  0.00000000E+00  0.00000000E+00
  0.00000000E+00  0.00000000E+00  0.00000000E+00
  0.00000000E+00  0.00000000E+00  0.00000000E+00
  0.00000000E+00  0.00000000E+00  0.00000000E+00
  0.00000000E+00  0.00000000E+00  0.00000000E+00
  0.00000000E+00  0.00000000E+00  0.00000000E+00
  0.00000000E+00  0.00000000E+00  0.00000000E+00
  0.00000000E+00  0.00000000E+00  0.00000000E+00
  0.00000000E+00  0.00000000E+00  0.00000000E+00
  0.00000000E+00  0.00000000E+00  0.00000000E+00
  0.00000000E+00  0.00000000E+00  0.00000000E+00
  0.00000000E+00  0.00000000E+00  0.00000000E+00
  0.00000000E+00  0.00000000E+00  0.00000000E+00
  0.00000000E+00  0.00000000E+00  0.00000000E+00
  0.00000000E+00  0.00000000E+00  0.00000000E+00
  0.00000000E+00  0.00000000E+00  0.00000000E+00
  0.00000000E+00  0.00000000E+00  0.00000000E+00
  0.00000000E+00  0.00000000E+00  0.00000000E+00
  0.00000000E+00  0.00000000E+00  0.00000000E+00
  0.00000000E+00  0.00000000E+00  0.00000000E+00
  0.00000000E+00  0.00000000E+00  0.00000000E+00
  0.00000000E+00  0.00000000E+00  0.00000000E+00
  0.00000000E+00  0.00000000E+00  0.00000000E+00
  0.00000000E+00  0.00000000E+00  0.00000000E+00
  0.00000000E+00  0.00000000E+00  0.00000000E+00
  0.00000000E+00  0.00000000E+00  0.00000000E+00
  0.00000000E+00  0.00000000E+00  0.00000000E+00
  0.00000000E+00  0.00000000E+00  0.00000000E+00
  0.00000000E+00  0.00000000E+00  0.00000000E+00
  0.00000000E+00  0.00000000E+00  0.00000000E+00
  0.00000000E+00  0.00000000E+00  0.00000000E+00
  0.00000000E+00  0.00000000E+00  0.00000000E+00
  0.00000000E+00  0.00000000E+00  0.00000000E+00
  0.00000000E+00  0.00000000E+00  0.00000000E+00
  0.00000000E+00  0.00000000E+00  0.00000000E+00
  0.00000000E+00  0.00000000E+00  0.00000000E+00
  0.00000000E+00  0.00000000E+00  0.00000000E+00
  0.00000000E+00  0.00000000E+00  0.00000000E+00
  0.00000000E+00  0.00000000E+00  0.00000000E+00
  0.00000000E+00  0.00000000E+00  0.00000000E+00
  0.00000000E+00  0.00000000E+00  0.00000000E+00
  0.00000000E+00  0.00000000E+00  0.00000000E+00
  0.00000000E+00  0.00000000E+00  0.00000000E+00
  0.00000000E+00  0.00000000E+00  0.00000000E+00
  0.00000000E+00  0.00000000E+00  0.00000000E+00
  0.00000000E+00  0.00000000E+00  0.00000000E+00
  0.00000000E+00  0.00000000E+00  0.00000000E+00
  0.00000000E+00  0.00000000E+00  0.00000000E+00
  0.00000000E+00  0.00000000E+00  0.00000000E+00
  0.00000000E+00  0.00000000E+00  0.00000000E+00
  0.00000000E+00  0.00000000E+00  0.00000000E+00
  0.00000000E+00  0.00000000E+00  0.00000000E+00
  0.00000000E+00  0.00000000E+00  0.00000000E+00
  0.00000000E+00  0.00000000E+00  0.00000000E+00
  0.00000000E+00  0.00000000E+00  0.00000000E+00
  0.00000000E+00  0.00000000E+00  0.00000000E+00
  0.00000000E+00  0.00000000E+00  0.00000000E+00
  0.00000000E+00  0.00000000E+00  0.00000000E+00
  0.00000000E+00  0.00000000E+00  0.00000000E+00
  0.00000000E+00  0.00000000E+00  0.00000000E+00
  0.00000000E+00  0.00000000E+00  0.00000000E+00
  0.00000000E+00  0.00000000E+00  0.00000000E+00
  0.00000000E+00  0.00000000E+00  0.00000000E+00
  0.00000000E+00  0.00000000E+00  0.00000000E+00
  0.00000000E+00  0.00000000E+00  0.00000000E+00
  0.00000000E+00  0.00000000E+00  0.00000000E+00
  0.00000000E+00  0.00000000E+00  0.00000000E+00
  0.00000000E+00  0.00000000E+00  0.00000000E+00
  0.00000000E+00  0.00000000E+00  0.00000000E+00
  0.00000000E+00  0.00000000E+00  0.00000000E+00
  0.00000000E+00  0.00000000E+00  0.00000000E+00
  0.00000000E+00  0.00000000E+00  0.00000000E+00
  0.00000000E+00  0.00000000E+00  0.00000000E+00
  0.00000000E+00  0.00000000E+00  0.00000000E+00
  0.00000000E+00  0.00000000E+00  0.00000000E+00
  0.00000000E+00  0.00000000E+00  0.00000000E+00
  0.00000000E+00  0.00000000E+00  0.00000000E+00
  0.00000000E+00  0.00000000E+00  0.00000000E+00
  0.00000000E+00  0.00000000E+00  0.00000000E+00
  0.00000000E+00  0.00000000E+00  0.00000000E+00
  0.00000000E+00  0.00000000E+00  0.00000000E+00
  0.00000000E+00  0.00000000E+00  0.00000000E+00
  0.00000000E+00  0.00000000E+00  0.00000000E+00
  0.00000000E+00  0.00000000E+00  0.00000000E+00
  0.00000000E+00  0.00000000E+00  0.00000000E+00
  0.00000000E+00  0.00000000E+00  0.00000000E+00
  0.00000000E+00  0.00000000E+00  0.00000000E+00
  0.00000000E+00  0.00000000E+00  0.00000000E+00
  0.00000000E+00  0.00000000E+00  0.00000000E+00
  0.00000000E+00  0.00000000E+00  0.00000000E+00
  0.00000000E+00  0.00000000E+00  0.00000000E+00
  0.00000000E+00  0.00000000E+00  0.00000000E+00
  0.00000000E+00  0.00000000E+00  0.00000000E+00
  0.00000000E+00  0.00000000E+00  0.00000000E+00
