Na Ca Cl                                
   1.00000000000000     
    10.7236239999999992  -10.7236239999999992    0.0000000000000000
    10.7236239999999992   10.7236239999999992    0.0000000000000000
     0.0000000000000000    0.0000000000000000   21.4472489999999993
   Na   Ca   Cl
    32    32    96
Direct
  0.0097070962616016  0.0068959536733940 -0.0027608887353077
  0.0144258344276854  0.0504238611432358  0.2196531471562436
  0.9553521722202810  0.9519627514722903  0.4506603148679970
  0.9646080409846833  0.9505946605313461  0.7259115639099726
  0.5975697472859430  0.9839365893049471  0.0024875776865103
  0.5300333044178419  0.0238062661865548  0.2114606433319085
  0.4519569297881174  0.9634419630397559  0.4960668170259286
  0.5137194134632134  0.9408026930595579  0.7314242446767930
  0.2421544864559965  0.2402964233045848  0.9937901949994894
  0.2172978065890446  0.2202644595835413  0.2929347797609765
  0.1524750991189506  0.2751150960188276  0.5042084848062917
  0.2212992221406498  0.2207060541147162  0.7106642217011258
  0.1090453372447021  0.4931458593644535  0.0039068724065973
  0.0295377139943929  0.5283624768083283  0.2138114464089176
  0.0231033021555638  0.5268532146935223  0.5001646131685569
  0.9334422716237101  0.5126818566897139  0.7367456471272886
  0.7689649154963195  0.2698685755942147  0.9466161687958512
  0.7906676661671062  0.2969215367239882  0.2264595609405012
  0.6869188042125203  0.2549848336154971  0.4998139372785519
  0.6960442046358566  0.2747570873046933  0.7331491838601463
  0.5590030857783773  0.4929446655477254  0.0003120424947265
  0.5563745484808176  0.4731180385205755  0.2281505913321639
  0.4595409936146634  0.4493914163042446  0.5435713495292708
  0.4301512444205274  0.4509838662922972  0.7300904119192698
  0.2728376509855838  0.7731159466231469  0.9571231709600683
  0.2936270882316707  0.7987397894860984  0.2259968603738890
  0.2665548873233459  0.7473047578553905  0.4506714924063052
  0.2928363539604836  0.7992662115751790  0.7790256487319168
  0.7999158997055995  0.7895562551187084  0.0010704896964626
  0.7231858814390769  0.7226139637482661  0.2882751775091964
  0.7485212132671627  0.7834365193651598  0.4727182718990071
  0.7237210732713982  0.7270869483511621  0.7104587223948851
  0.0048677634566503  0.2622809040372696  0.1206178336305525
  0.9822655972210418  0.2398789120739157  0.3792771329858929
  0.9835902154780465  0.2408330218163273  0.6330497388624128
  0.0095427123347482  0.2673977642725275  0.8764503659547737
  0.5007422061190666  0.2548973664106592  0.1237912949596013
  0.4894998069652817  0.2393587390253640  0.3709989557598813
  0.4939535006800272  0.2277241241916138  0.6275370585787730
  0.5118312469470231  0.2573031921760626  0.8803936442794972
  0.2682988695398253  0.5078099246930635  0.1338385121713872
  0.2436077932242941  0.4845899180380487  0.3775648263495998
  0.2354447918246239  0.4933143615258831  0.6236963208766216
  0.2685819440435635  0.5112813238855440  0.8779975638474727
  0.0062445274390804  0.7610571657486906  0.1282760132743954
  0.9887324907067236  0.7294303324156246  0.3772927342877971
  0.9951151027936137  0.7355971992416580  0.6263783795710619
  0.0074339854118774  0.7536494407794219  0.8760314894677744
  0.7595475195278099  0.5143735192524469  0.1219431509762080
  0.7392112659281271  0.4871852781595820  0.3785062334706065
  0.7391982794103272  0.4935184940982512  0.6224589183039144
  0.7600284280845148  0.5168797397902176  0.8772687627086663
  0.5086202168153713  0.7556701459729519  0.1244028444176946
  0.4950237668431530  0.7442312747095565  0.3763835485273143
  0.4939448262931106  0.7405537019309245  0.6230315002507841
  0.5169473528314503  0.7599696103576540  0.8812577002030386
  0.2542982607440314  0.0088694334113425  0.1219529755631498
  0.2396616621880804  0.9944961166945945  0.3796381228274452
  0.2438228363745752  0.9891731059219782  0.6265021480769262
  0.2597540868921165  0.0179969261054684  0.8782574727794727
  0.7657889712604949  0.0054162402809496  0.1311288984213448
  0.7348761585325054  0.9988115877496918  0.3750543528232091
  0.7437412461761084  0.9956894384686559  0.6287404889718933
  0.7654143793622861  0.0117380015335902  0.8720591134104316
  0.9460621178340498  0.2741490857617777  0.9997744417964595
  0.0441177899648344  0.2347766254643892  0.2519815290564894
  0.9535338278733535  0.2322366593084166  0.5060918903475643
  0.0563159281487403  0.2578362153272279  0.7516955689098549
  0.5196800021409526  0.3163422768959264  0.0029339323114192
  0.4929738194163462  0.1915029366786274  0.2458209115100195
  0.5014722491906541  0.2837875687635290  0.5032531599914564
  0.5224698951708325  0.2107205088923485  0.7538741468466873
  0.3000574874455412  0.5180063042704002  0.0064648521373985
  0.1960130759780574  0.4900836261874143  0.2525777841472023
  0.2856291991981564  0.4510290443835872  0.5038541809526883
  0.2414163450875347  0.5027940215031473  0.7505740740075029
  0.9971879786932875  0.8194899777383422  0.0020094785950473
  0.9912505253571460  0.6959601479513768  0.2510255974392729
  0.9515727408449588  0.7781426340045301  0.5023651148748599
 -0.0004750799150117  0.6892084175501968  0.7529596753430502
  0.7470059403025973  0.4543207131459395 -0.0001488519337811
  0.7341290077562250  0.5475665301707295  0.2518862791337196
  0.7234237911382383  0.4323800539550657  0.5020656457158903
  0.7542585276442613  0.5559919430039050  0.7479367612951512
  0.4548916491589280  0.7773430188126903  0.0016726602730352
  0.5518923808897358  0.7519684451106923  0.2530029900525157
  0.4389172372156750  0.7647681193004722  0.5015580535300516
  0.5527592734989293  0.7566653803517409  0.7500193507210360
  0.2589281522675643  0.9526477863449000  0.9993312671567304
  0.2199618511587952  0.0451234687279353  0.2527638104903042
  0.2589844264870852  0.9330683229750534  0.5023667338399302
  0.2478150968371950  0.0501726955310493  0.7500865825825898
  0.8159569280389029 -0.0002379421913428  0.0032533323448249
  0.6971526989939402  0.9898347322127046  0.2502446449954504
  0.7857076363126460  0.9691454413373465  0.5015786331109796
  0.6916127201621012  0.9986545449587168  0.7536426684187316
  0.0910837053903660  0.0992133148156632  0.1009234556357557
  0.1426268778505678  0.1479360116687406  0.4033870694259844
  0.1474281609934497  0.1474639728604487  0.6043474767101270
  0.1127178011869339  0.1195633716511180  0.9161587645067196
  0.6075889559857960  0.0998948044412298  0.1041603007349848
  0.6479464930033397  0.1523257007888839  0.3991411004375216
  0.6629844790415836  0.1612831312441466  0.6106238286850099
  0.6319151799648849  0.1228323912738069  0.9179680381362245
  0.4139743803493737  0.4068274435179047  0.1602362144172214
  0.3319854772700603  0.3281725023831446  0.3524233323676765
  0.3439265426578534  0.3324160291768918  0.6507339195985054
  0.4177778155180052  0.4111479010851651  0.8529780034539164
  0.1062005624102642  0.6035596569671335  0.1084288634780181
  0.1355983109933594  0.6311871239389243  0.4119635104278208
  0.1360016239055467  0.6334882489395737  0.5879500190400198
  0.1282260071256569  0.6250668298763401  0.9136065067811403
  0.9075013895881672  0.4122113931538097  0.1592716668069631
  0.8373834004125921  0.3380295754286048  0.3449880200674709
  0.8390855952312294  0.3507289102507733  0.6672357818465506
  0.9139358333703937  0.4238586401619205  0.8511624182172977
  0.5951562264214250  0.5936761087235846  0.1073413750306404
  0.6520975829352144  0.6522506392156272  0.4007569116380631
  0.6520655230941599  0.6531509952447120  0.6008381392059409
  0.6033091735267391  0.6041604370851814  0.9027786543170278
  0.4073804316989929  0.9120716610750706  0.1584171771420020
  0.3378766708093349  0.8426287741991610  0.3472790690527860
  0.3566739757751430  0.8480368284918323  0.6667414745492793
  0.4115058518463404  0.9098806000250804  0.8447755624207326
  0.9159776802710301  0.9147659858177000  0.1613081251293645
  0.8306888068830364  0.8321371871794574  0.3607293151410221
  0.8437832144748505  0.8411656658579055  0.6590507230039329
  0.9144467191361640  0.9101926905052395  0.8445492017705565
  0.8609535663871978  0.1579731361056292  0.1592597920981483
  0.9016741508466983  0.0761035445766170  0.3599195485729765
  0.8949818293943311  0.0870030922355354  0.6595451315086804
  0.8585666502190923  0.1662701503617122  0.8578268680816388
  0.3445962067328373  0.1626738896686105  0.0950462031122275
  0.3957372314360675  0.0837610009696664  0.3991872696612164
  0.4046818094526082  0.0755170256473466  0.6054864923420953
  0.3578011936620125  0.1652661067616626  0.9041370972655868
  0.1531880612791564  0.3610731534919622  0.0935686125096488
  0.0895285034244315  0.3868231961294152  0.4092174584074248
  0.0896290779064236  0.3885660843762567  0.6003313146697475
  0.1575669586846015  0.3690283064735240  0.9118241645183787
  0.8507927001700419  0.6683304967708902  0.1001969521534916
  0.8928833399262383  0.5798327779018549  0.4054868018080418
  0.9014161333487987  0.5770164001846887  0.6095874641290172
  0.8520624322468229  0.6698134933459472  0.9050871636201824
  0.6567384169475756  0.3599829939945265  0.1544004408918269
  0.5860023783494325  0.3960447993752813  0.3457533407040089
  0.5830562593721477  0.3967969376328384  0.6500429583095320
  0.6696664998710953  0.3534452190676864  0.8525300456521154
  0.3589183824210205  0.6623848041858911  0.1583851472944449
  0.3778455968576381  0.6068802524893707  0.3758236169528463
  0.4055816883014355  0.5766804940864401  0.6308566697812424
  0.3567009157579993  0.6733296658912141  0.8594949771825098
  0.1597217848107764  0.8564104521593402  0.1514479893561292
  0.0891235062518757  0.8850154728209152  0.3772497668192303
  0.0961286939097936  0.8851902498385518  0.6515881327350069
  0.1656998192383460  0.8563677957028627  0.8587043322441461
  0.6579143864468970  0.8613774437389614  0.0936586569945060
  0.5940327573322793  0.8919316496057428  0.4099327035712872
  0.5886298228070307  0.8990160146033013  0.6105216220874026
  0.6605024761807766  0.8679661725474692  0.9113184887837087
 
  0.00000000E+00  0.00000000E+00  0.00000000E+00
  0.00000000E+00  0.00000000E+00  0.00000000E+00
  0.00000000E+00  0.00000000E+00  0.00000000E+00
  0.00000000E+00  0.00000000E+00  0.00000000E+00
  0.00000000E+00  0.00000000E+00  0.00000000E+00
  0.00000000E+00  0.00000000E+00  0.00000000E+00
  0.00000000E+00  0.00000000E+00  0.00000000E+00
  0.00000000E+00  0.00000000E+00  0.00000000E+00
  0.00000000E+00  0.00000000E+00  0.00000000E+00
  0.00000000E+00  0.00000000E+00  0.00000000E+00
  0.00000000E+00  0.00000000E+00  0.00000000E+00
  0.00000000E+00  0.00000000E+00  0.00000000E+00
  0.00000000E+00  0.00000000E+00  0.00000000E+00
  0.00000000E+00  0.00000000E+00  0.00000000E+00
  0.00000000E+00  0.00000000E+00  0.00000000E+00
  0.00000000E+00  0.00000000E+00  0.00000000E+00
  0.00000000E+00  0.00000000E+00  0.00000000E+00
  0.00000000E+00  0.00000000E+00  0.00000000E+00
  0.00000000E+00  0.00000000E+00  0.00000000E+00
  0.00000000E+00  0.00000000E+00  0.00000000E+00
  0.00000000E+00  0.00000000E+00  0.00000000E+00
  0.00000000E+00  0.00000000E+00  0.00000000E+00
  0.00000000E+00  0.00000000E+00  0.00000000E+00
  0.00000000E+00  0.00000000E+00  0.00000000E+00
  0.00000000E+00  0.00000000E+00  0.00000000E+00
  0.00000000E+00  0.00000000E+00  0.00000000E+00
  0.00000000E+00  0.00000000E+00  0.00000000E+00
  0.00000000E+00  0.00000000E+00  0.00000000E+00
  0.00000000E+00  0.00000000E+00  0.00000000E+00
  0.00000000E+00  0.00000000E+00  0.00000000E+00
  0.00000000E+00  0.00000000E+00  0.00000000E+00
  0.00000000E+00  0.00000000E+00  0.00000000E+00
  0.00000000E+00  0.00000000E+00  0.00000000E+00
  0.00000000E+00  0.00000000E+00  0.00000000E+00
  0.00000000E+00  0.00000000E+00  0.00000000E+00
  0.00000000E+00  0.00000000E+00  0.00000000E+00
  0.00000000E+00  0.00000000E+00  0.00000000E+00
  0.00000000E+00  0.00000000E+00  0.00000000E+00
  0.00000000E+00  0.00000000E+00  0.00000000E+00
  0.00000000E+00  0.00000000E+00  0.00000000E+00
  0.00000000E+00  0.00000000E+00  0.00000000E+00
  0.00000000E+00  0.00000000E+00  0.00000000E+00
  0.00000000E+00  0.00000000E+00  0.00000000E+00
  0.00000000E+00  0.00000000E+00  0.00000000E+00
  0.00000000E+00  0.00000000E+00  0.00000000E+00
  0.00000000E+00  0.00000000E+00  0.00000000E+00
  0.00000000E+00  0.00000000E+00  0.00000000E+00
  0.00000000E+00  0.00000000E+00  0.00000000E+00
  0.00000000E+00  0.00000000E+00  0.00000000E+00
  0.00000000E+00  0.00000000E+00  0.00000000E+00
  0.00000000E+00  0.00000000E+00  0.00000000E+00
  0.00000000E+00  0.00000000E+00  0.00000000E+00
  0.00000000E+00  0.00000000E+00  0.00000000E+00
  0.00000000E+00  0.00000000E+00  0.00000000E+00
  0.00000000E+00  0.00000000E+00  0.00000000E+00
  0.00000000E+00  0.00000000E+00  0.00000000E+00
  0.00000000E+00  0.00000000E+00  0.00000000E+00
  0.00000000E+00  0.00000000E+00  0.00000000E+00
  0.00000000E+00  0.00000000E+00  0.00000000E+00
  0.00000000E+00  0.00000000E+00  0.00000000E+00
  0.00000000E+00  0.00000000E+00  0.00000000E+00
  0.00000000E+00  0.00000000E+00  0.00000000E+00
  0.00000000E+00  0.00000000E+00  0.00000000E+00
  0.00000000E+00  0.00000000E+00  0.00000000E+00
  0.00000000E+00  0.00000000E+00  0.00000000E+00
  0.00000000E+00  0.00000000E+00  0.00000000E+00
  0.00000000E+00  0.00000000E+00  0.00000000E+00
  0.00000000E+00  0.00000000E+00  0.00000000E+00
  0.00000000E+00  0.00000000E+00  0.00000000E+00
  0.00000000E+00  0.00000000E+00  0.00000000E+00
  0.00000000E+00  0.00000000E+00  0.00000000E+00
  0.00000000E+00  0.00000000E+00  0.00000000E+00
  0.00000000E+00  0.00000000E+00  0.00000000E+00
  0.00000000E+00  0.00000000E+00  0.00000000E+00
  0.00000000E+00  0.00000000E+00  0.00000000E+00
  0.00000000E+00  0.00000000E+00  0.00000000E+00
  0.00000000E+00  0.00000000E+00  0.00000000E+00
  0.00000000E+00  0.00000000E+00  0.00000000E+00
  0.00000000E+00  0.00000000E+00  0.00000000E+00
  0.00000000E+00  0.00000000E+00  0.00000000E+00
  0.00000000E+00  0.00000000E+00  0.00000000E+00
  0.00000000E+00  0.00000000E+00  0.00000000E+00
  0.00000000E+00  0.00000000E+00  0.00000000E+00
  0.00000000E+00  0.00000000E+00  0.00000000E+00
  0.00000000E+00  0.00000000E+00  0.00000000E+00
  0.00000000E+00  0.00000000E+00  0.00000000E+00
  0.00000000E+00  0.00000000E+00  0.00000000E+00
  0.00000000E+00  0.00000000E+00  0.00000000E+00
  0.00000000E+00  0.00000000E+00  0.00000000E+00
  0.00000000E+00  0.00000000E+00  0.00000000E+00
  0.00000000E+00  0.00000000E+00  0.00000000E+00
  0.00000000E+00  0.00000000E+00  0.00000000E+00
  0.00000000E+00  0.00000000E+00  0.00000000E+00
  0.00000000E+00  0.00000000E+00  0.00000000E+00
  0.00000000E+00  0.00000000E+00  0.00000000E+00
  0.00000000E+00  0.00000000E+00  0.00000000E+00
  0.00000000E+00  0.00000000E+00  0.00000000E+00
  0.00000000E+00  0.00000000E+00  0.00000000E+00
  0.00000000E+00  0.00000000E+00  0.00000000E+00
  0.00000000E+00  0.00000000E+00  0.00000000E+00
  0.00000000E+00  0.00000000E+00  0.00000000E+00
  0.00000000E+00  0.00000000E+00  0.00000000E+00
  0.00000000E+00  0.00000000E+00  0.00000000E+00
  0.00000000E+00  0.00000000E+00  0.00000000E+00
  0.00000000E+00  0.00000000E+00  0.00000000E+00
  0.00000000E+00  0.00000000E+00  0.00000000E+00
  0.00000000E+00  0.00000000E+00  0.00000000E+00
  0.00000000E+00  0.00000000E+00  0.00000000E+00
  0.00000000E+00  0.00000000E+00  0.00000000E+00
  0.00000000E+00  0.00000000E+00  0.00000000E+00
  0.00000000E+00  0.00000000E+00  0.00000000E+00
  0.00000000E+00  0.00000000E+00  0.00000000E+00
  0.00000000E+00  0.00000000E+00  0.00000000E+00
  0.00000000E+00  0.00000000E+00  0.00000000E+00
  0.00000000E+00  0.00000000E+00  0.00000000E+00
  0.00000000E+00  0.00000000E+00  0.00000000E+00
  0.00000000E+00  0.00000000E+00  0.00000000E+00
  0.00000000E+00  0.00000000E+00  0.00000000E+00
  0.00000000E+00  0.00000000E+00  0.00000000E+00
  0.00000000E+00  0.00000000E+00  0.00000000E+00
  0.00000000E+00  0.00000000E+00  0.00000000E+00
  0.00000000E+00  0.00000000E+00  0.00000000E+00
  0.00000000E+00  0.00000000E+00  0.00000000E+00
  0.00000000E+00  0.00000000E+00  0.00000000E+00
  0.00000000E+00  0.00000000E+00  0.00000000E+00
  0.00000000E+00  0.00000000E+00  0.00000000E+00
  0.00000000E+00  0.00000000E+00  0.00000000E+00
  0.00000000E+00  0.00000000E+00  0.00000000E+00
  0.00000000E+00  0.00000000E+00  0.00000000E+00
  0.00000000E+00  0.00000000E+00  0.00000000E+00
  0.00000000E+00  0.00000000E+00  0.00000000E+00
  0.00000000E+00  0.00000000E+00  0.00000000E+00
  0.00000000E+00  0.00000000E+00  0.00000000E+00
  0.00000000E+00  0.00000000E+00  0.00000000E+00
  0.00000000E+00  0.00000000E+00  0.00000000E+00
  0.00000000E+00  0.00000000E+00  0.00000000E+00
  0.00000000E+00  0.00000000E+00  0.00000000E+00
  0.00000000E+00  0.00000000E+00  0.00000000E+00
  0.00000000E+00  0.00000000E+00  0.00000000E+00
  0.00000000E+00  0.00000000E+00  0.00000000E+00
  0.00000000E+00  0.00000000E+00  0.00000000E+00
  0.00000000E+00  0.00000000E+00  0.00000000E+00
  0.00000000E+00  0.00000000E+00  0.00000000E+00
  0.00000000E+00  0.00000000E+00  0.00000000E+00
  0.00000000E+00  0.00000000E+00  0.00000000E+00
  0.00000000E+00  0.00000000E+00  0.00000000E+00
  0.00000000E+00  0.00000000E+00  0.00000000E+00
  0.00000000E+00  0.00000000E+00  0.00000000E+00
  0.00000000E+00  0.00000000E+00  0.00000000E+00
  0.00000000E+00  0.00000000E+00  0.00000000E+00
  0.00000000E+00  0.00000000E+00  0.00000000E+00
  0.00000000E+00  0.00000000E+00  0.00000000E+00
  0.00000000E+00  0.00000000E+00  0.00000000E+00
  0.00000000E+00  0.00000000E+00  0.00000000E+00
  0.00000000E+00  0.00000000E+00  0.00000000E+00
  0.00000000E+00  0.00000000E+00  0.00000000E+00
  0.00000000E+00  0.00000000E+00  0.00000000E+00
  0.00000000E+00  0.00000000E+00  0.00000000E+00
  0.00000000E+00  0.00000000E+00  0.00000000E+00
  0.00000000E+00  0.00000000E+00  0.00000000E+00
