Mg Ag F                                 
   1.00000000000000     
     7.9527099999999997   -7.9527099999999997    0.0000000000000000
     7.9527099999999997    7.9527099999999997    0.0000000000000000
     0.0000000000000000    0.0000000000000000   15.9054190000000002
   Ag   F    Mg
    32    96    32
Direct
  0.0043249479141178 -0.0061029349665644 -0.0036124358196186
  0.0010913900578055 -0.0033768758902409  0.2439297616224586
  0.0049922730999931 -0.0063024103471358  0.4997785643505638
 -0.0006669408420526 -0.0014445063782349  0.7495040160598452
  0.4957560448149618  0.0019210432002394  0.0050662193976318
  0.4930233085136024  0.0051796409755548  0.2526399221038355
  0.4978493614663975  0.0003241800825011  0.4994656252992643
  0.4929698161937340  0.0055126969858528  0.7494465325666376
  0.2439446878369712  0.2543003747106853  0.0016497849020816
  0.2453205854516997  0.2530696207476275  0.2550688748830008
  0.2479707462459652  0.2505115039751749  0.5007128765629573
  0.2429039487642728  0.2552798385521415  0.7498620065412613
 -0.0042106072002663  0.5019452787501649  0.0051463659762422
 -0.0069496272356863  0.5053070816567443  0.2525777200918695
 -0.0020963939292512  0.5003354441870090  0.4995656509275846
 -0.0071334147850624  0.5053897191415578  0.7494638954723358
  0.7518694679928599  0.2461494243999860 -0.0060599502529966
  0.7534591632909381  0.2447613990045975  0.2473166959747903
  0.7547269906735216  0.2436735849628013  0.4992838752114417
  0.7494645800852880  0.2486792825518163  0.7485435892125503
  0.5043217995188964  0.4939237141770403 -0.0036771691503021
  0.5013890408548792  0.4967709311189546  0.2438436934468659
  0.5049649967187086  0.4936255958296156  0.4998097259603998
  0.4991272194697111  0.4984030310884233  0.7494624174991736
  0.2517773522135351  0.7461248320115829 -0.0060977782202749
  0.2534649462250472  0.7448511114529284  0.2473513552951518
  0.2547679925648286  0.7437069198663075  0.4992936664279434
  0.2494003843585844  0.7487936343096572  0.7485024134363008
  0.7440607326034254  0.7542776676465835  0.0016470686863938
  0.7452233499660673  0.7528766073521783  0.2550817311158237
  0.7481607881930458  0.7502856096073304  0.5007616653056814
  0.7429208698522308  0.7552332897679913  0.7497722810649163
  0.0065654120151628  0.2794237158487028 -0.0006248560884766
 -0.0087040355403926  0.2195267608508275  0.2497113629303042
  0.0031499009870609  0.2822128212357510  0.4996684777590028
 -0.0056406154882694  0.2166575330722065  0.7494044603089622
  0.5296034580860903  0.2562367181728342 -0.0004022610646111
  0.4676933633063358  0.2432692499377874  0.2493716302503174
  0.5292631685816276  0.2604056395974633  0.4994090634206716
  0.4683773675028370  0.2390549228582747  0.7495661039878113
  0.2185685309625653  0.4918040193188987 -0.0006818224374986
  0.2786172304809268  0.5074797390454734  0.2496645268030920
  0.2159957069664724  0.4949652643614437  0.4996396430151925
  0.2811359027100367  0.5043450511202738  0.7493572263013807
  0.0297044217800671  0.7563850846264284 -0.0003442348096980
  0.9676976592080132  0.7432120930210006  0.2494391391007759
  0.0292057695022983  0.7605152854578939  0.4994859327965582
 -0.0316169510682402  0.7390440743095187  0.7495840971699164
  0.7423657294186647  0.4683668741932587 -0.0004110063242735
  0.7551998814684422  0.5304855170280762  0.2494026082007713
  0.7385036452316859  0.4692657385601360  0.4994989537233951
  0.7598122513276891  0.5301041266191755  0.7495975909384293
  0.5065432812446200  0.7794632257153951 -0.0006678552605935
  0.4912452980871589  0.7194928518260937  0.2497478848958407
  0.5030741460470493  0.7821807046552567  0.4996983761183160
  0.4942961120898935  0.7165874316363323  0.7494170067726431
  0.2423119856290547  0.9683559077288070 -0.0003456346078491
  0.2551896768452270  0.0305351296196890  0.2493825298169599
  0.2385207242782792 -0.0307441136378919  0.4994385327750251
  0.2597247645659194  0.0302322542092423  0.7495691499297613
  0.7185173343678172 -0.0082439838563483 -0.0006592859804713
  0.7784715904328371  0.0073727358031252  0.2496702676767664
  0.7159541299126144 -0.0049539276454344  0.4996850209326857
  0.7812320549536595  0.0043795234427196  0.7494310071591770
  0.1062310530619727  0.1071298211372276  0.1126641034390264
  0.1378334954311059  0.1408315323176403  0.3868848595120138
  0.1351923108487787  0.1360408342590717  0.6117979696790447
  0.1397075218315436  0.1383206237001541  0.8865627004139968
  0.6061923157714194  0.1072497189146508  0.1361706827994250
  0.6378473168630362  0.1409118384937287  0.3625418411475640
  0.6353373198208442  0.1362055757023217  0.6370574084219893
  0.6392174379595779  0.1381248673136833  0.8621212187111711
  0.3904947076950760  0.3915866035279403  0.1125332118185933
  0.3576126539926423  0.3607199851701945  0.3867923633971656
  0.3623157840768672  0.3631568479225834  0.6119105491960962
  0.3598407295521127  0.3587896336575347  0.8863885055350332
  0.1063061318584815  0.6072449563040011  0.1361754459290367
  0.1379556774218146  0.6410706883205382  0.3626804057874585
  0.1352885704201119  0.6361974159935566  0.6370051347927345
  0.1392529174347681  0.6381824597555199  0.8621057713408899
  0.8906928261931187  0.3914810581515933  0.1363074561811728
  0.8574078037249911  0.3603616670232556  0.3625018108691972
  0.8622982316589159  0.3630736713087759  0.6372688728548734
  0.8602017363816616  0.3588366808375538  0.8620553841867218
  0.6063455391927762  0.6072463952562511  0.1125624629423522
  0.6377240622019790  0.6407293315299634  0.3870108820272110
  0.6352354554642256  0.6359816209433858  0.6119349091057492
  0.6396527629598032  0.6382985433731759  0.8865077075747526
  0.3906438199449550  0.8914031335727596  0.1363454176681208
  0.3574507609024875  0.8605171464224756  0.3624387666649737
  0.3623213792844122  0.8630620907690175  0.6372953686251123
  0.3602237671336315  0.8588960643554112  0.8620257994690981
  0.8903916749630122  0.8915497277623554  0.1126715338845061
  0.8575358158067276  0.8606241824533496  0.3868410890311294
  0.8623208996079600  0.8632139510607609  0.6120923741831248
  0.8598846782018068  0.8587536177524208  0.8864563043535423
  0.8546915730131075  0.1432224183059036  0.1085080088269283
  0.8851225606194687  0.1131662476142920  0.3962634396380739
  0.8829727501024459  0.1152403526326377  0.6030453405016045
  0.8870817034442812  0.1111268625687414  0.8948254447896169
  0.3590486573494953  0.1389004460433943  0.1043440425180641
  0.3881829675329450  0.1102147996580515  0.3908196227729676
  0.3863849796750990  0.1120442797590813  0.6062471061797469
  0.3919414955603115  0.1063550713684489  0.8920335600481490
  0.1423439366971342  0.3556455475670051  0.1406286654880141
  0.1098071459913463  0.3885712802463048  0.3544451836640058
  0.1144546302183241  0.3837019145456020  0.6460248384402685
  0.1126882327793300  0.3855139091412274  0.8527840321384107
  0.8591247324597323  0.6388468611118303  0.1043646643390461
  0.8882219581578303  0.6102545252774680  0.3908983045164219
  0.8863259050233708  0.6120824501837180  0.6061676545618014
  0.8919874327579558  0.6063256823823893  0.8920941278086170
  0.6378562217561123  0.3601464474498086  0.1448005159815496
  0.6051436136137168  0.3933233209588231  0.3573545405481125
  0.6112611231735149  0.3871289120048075  0.6429574553159892
  0.6096513570893559  0.3886601943182438  0.8579356908154064
  0.3547051568112746  0.6432761983106625  0.1084527084539075
  0.3851363711556697  0.6131868284641847  0.3963028008760503
  0.3829443937747686  0.6152319334534946  0.6030950722376783
  0.3870601462032977  0.6111263381631949  0.8947882561895502
  0.1378552343681995  0.8600821494865236  0.1449045062311611
  0.1050202488974632  0.8933601489141864  0.3573726877245232
  0.1113274214342571  0.8871978294876234  0.6429310255019938
  0.1096780889381945  0.8887022483582361  0.8579370245284265
  0.6422720429045365  0.8556509657951202  0.1406321752950330
  0.6098504345323237  0.8884029667931232  0.3544635439190827
  0.6144716805958060  0.8837633258071557  0.6459966599153445
  0.6127139605563747  0.8854828974085432  0.8527842346792757
 -0.0014857885536663  0.2493094735567125  0.1245461575299921
 -0.0025862303082445  0.2500416459133730  0.3747158963206920
 -0.0013511840409206  0.2494873223324921  0.6245320309963704
 -0.0000149279908340  0.2489496813138881  0.8743336382729154
  0.4983887436626281  0.2494972829088001  0.1244617194806375
  0.4983378639511294  0.2513732451182114  0.3744066042256572
  0.4987672406016946  0.2495653081976883  0.6244579913137661
  0.4988291140957403  0.2479449123579173  0.8745711121952646
  0.2484449872961907  0.4994161043789372  0.1244959113833103
  0.2481683563119204  0.5009730501168494  0.3747125432736164
  0.2485822289055062  0.4995255237165369  0.6244807630601327
  0.2489907893844069  0.4983297804988676  0.8743166253695175
 -0.0015612855704013  0.7494881695571177  0.1245238569579706
 -0.0016184489997618  0.7513939151325544  0.3744961582809853
 -0.0012402025984594  0.7495730190740162  0.6245290271555464
  0.9988783174069938  0.7479621329313335  0.8746099612740299
  0.7484635461900835  0.4993838748193244  0.1245143980916698
  0.7471043267060893  0.4999119280466326  0.3744428545997421
  0.7487513002860906  0.4995679532145917  0.6245708501230391
  0.7504061707174943  0.4991849356631090  0.8745636560183514
  0.4985257503111296  0.7493536891571820  0.1245008029781428
  0.4973740096067400  0.7500920883874775  0.3748104789045316
  0.4985930642672811  0.7494316064568279  0.6245745428006469
  0.4999762671715486  0.7489417877678015  0.8742832777735254
  0.2484647628771061 -0.0006292493405128  0.1245641637490428
  0.2470081452603771 -0.0000164667262908  0.3743898410596050
  0.2488386495431320 -0.0003922059130357  0.6245452340309244
  0.2504947438012465 -0.0007556562946006  0.8745714502136540
  0.7482740906759437 -0.0005604386128660  0.1245089871920573
  0.7481650838406703  0.0009002437786314  0.3747740307043619
  0.7485805509677761 -0.0004252190419701  0.6245447608681598
  0.7490419525317155 -0.0017433763735761  0.8743261296523575
 
  0.00000000E+00  0.00000000E+00  0.00000000E+00
  0.00000000E+00  0.00000000E+00  0.00000000E+00
  0.00000000E+00  0.00000000E+00  0.00000000E+00
  0.00000000E+00  0.00000000E+00  0.00000000E+00
  0.00000000E+00  0.00000000E+00  0.00000000E+00
  0.00000000E+00  0.00000000E+00  0.00000000E+00
  0.00000000E+00  0.00000000E+00  0.00000000E+00
  0.00000000E+00  0.00000000E+00  0.00000000E+00
  0.00000000E+00  0.00000000E+00  0.00000000E+00
  0.00000000E+00  0.00000000E+00  0.00000000E+00
  0.00000000E+00  0.00000000E+00  0.00000000E+00
  0.00000000E+00  0.00000000E+00  0.00000000E+00
  0.00000000E+00  0.00000000E+00  0.00000000E+00
  0.00000000E+00  0.00000000E+00  0.00000000E+00
  0.00000000E+00  0.00000000E+00  0.00000000E+00
  0.00000000E+00  0.00000000E+00  0.00000000E+00
  0.00000000E+00  0.00000000E+00  0.00000000E+00
  0.00000000E+00  0.00000000E+00  0.00000000E+00
  0.00000000E+00  0.00000000E+00  0.00000000E+00
  0.00000000E+00  0.00000000E+00  0.00000000E+00
  0.00000000E+00  0.00000000E+00  0.00000000E+00
  0.00000000E+00  0.00000000E+00  0.00000000E+00
  0.00000000E+00  0.00000000E+00  0.00000000E+00
  0.00000000E+00  0.00000000E+00  0.00000000E+00
  0.00000000E+00  0.00000000E+00  0.00000000E+00
  0.00000000E+00  0.00000000E+00  0.00000000E+00
  0.00000000E+00  0.00000000E+00  0.00000000E+00
  0.00000000E+00  0.00000000E+00  0.00000000E+00
  0.00000000E+00  0.00000000E+00  0.00000000E+00
  0.00000000E+00  0.00000000E+00  0.00000000E+00
  0.00000000E+00  0.00000000E+00  0.00000000E+00
  0.00000000E+00  0.00000000E+00  0.00000000E+00
  0.00000000E+00  0.00000000E+00  0.00000000E+00
  0.00000000E+00  0.00000000E+00  0.00000000E+00
  0.00000000E+00  0.00000000E+00  0.00000000E+00
  0.00000000E+00  0.00000000E+00  0.00000000E+00
  0.00000000E+00  0.00000000E+00  0.00000000E+00
  0.00000000E+00  0.00000000E+00  0.00000000E+00
  0.00000000E+00  0.00000000E+00  0.00000000E+00
  0.00000000E+00  0.00000000E+00  0.00000000E+00
  0.00000000E+00  0.00000000E+00  0.00000000E+00
  0.00000000E+00  0.00000000E+00  0.00000000E+00
  0.00000000E+00  0.00000000E+00  0.00000000E+00
  0.00000000E+00  0.00000000E+00  0.00000000E+00
  0.00000000E+00  0.00000000E+00  0.00000000E+00
  0.00000000E+00  0.00000000E+00  0.00000000E+00
  0.00000000E+00  0.00000000E+00  0.00000000E+00
  0.00000000E+00  0.00000000E+00  0.00000000E+00
  0.00000000E+00  0.00000000E+00  0.00000000E+00
  0.00000000E+00  0.00000000E+00  0.00000000E+00
  0.00000000E+00  0.00000000E+00  0.00000000E+00
  0.00000000E+00  0.00000000E+00  0.00000000E+00
  0.00000000E+00  0.00000000E+00  0.00000000E+00
  0.00000000E+00  0.00000000E+00  0.00000000E+00
  0.00000000E+00  0.00000000E+00  0.00000000E+00
  0.00000000E+00  0.00000000E+00  0.00000000E+00
  0.00000000E+00  0.00000000E+00  0.00000000E+00
  0.00000000E+00  0.00000000E+00  0.00000000E+00
  0.00000000E+00  0.00000000E+00  0.00000000E+00
  0.00000000E+00  0.00000000E+00  0.00000000E+00
  0.00000000E+00  0.00000000E+00  0.00000000E+00
  0.00000000E+00  0.00000000E+00  0.00000000E+00
  0.00000000E+00  0.00000000E+00  0.00000000E+00
  0.00000000E+00  0.00000000E+00  0.00000000E+00
  0.00000000E+00  0.00000000E+00  0.00000000E+00
  0.00000000E+00  0.00000000E+00  0.00000000E+00
  0.00000000E+00  0.00000000E+00  0.00000000E+00
  0.00000000E+00  0.00000000E+00  0.00000000E+00
  0.00000000E+00  0.00000000E+00  0.00000000E+00
  0.00000000E+00  0.00000000E+00  0.00000000E+00
  0.00000000E+00  0.00000000E+00  0.00000000E+00
  0.00000000E+00  0.00000000E+00  0.00000000E+00
  0.00000000E+00  0.00000000E+00  0.00000000E+00
  0.00000000E+00  0.00000000E+00  0.00000000E+00
  0.00000000E+00  0.00000000E+00  0.00000000E+00
  0.00000000E+00  0.00000000E+00  0.00000000E+00
  0.00000000E+00  0.00000000E+00  0.00000000E+00
  0.00000000E+00  0.00000000E+00  0.00000000E+00
  0.00000000E+00  0.00000000E+00  0.00000000E+00
  0.00000000E+00  0.00000000E+00  0.00000000E+00
  0.00000000E+00  0.00000000E+00  0.00000000E+00
  0.00000000E+00  0.00000000E+00  0.00000000E+00
  0.00000000E+00  0.00000000E+00  0.00000000E+00
  0.00000000E+00  0.00000000E+00  0.00000000E+00
  0.00000000E+00  0.00000000E+00  0.00000000E+00
  0.00000000E+00  0.00000000E+00  0.00000000E+00
  0.00000000E+00  0.00000000E+00  0.00000000E+00
  0.00000000E+00  0.00000000E+00  0.00000000E+00
  0.00000000E+00  0.00000000E+00  0.00000000E+00
  0.00000000E+00  0.00000000E+00  0.00000000E+00
  0.00000000E+00  0.00000000E+00  0.00000000E+00
  0.00000000E+00  0.00000000E+00  0.00000000E+00
  0.00000000E+00  0.00000000E+00  0.00000000E+00
  0.00000000E+00  0.00000000E+00  0.00000000E+00
  0.00000000E+00  0.00000000E+00  0.00000000E+00
  0.00000000E+00  0.00000000E+00  0.00000000E+00
  0.00000000E+00  0.00000000E+00  0.00000000E+00
  0.00000000E+00  0.00000000E+00  0.00000000E+00
  0.00000000E+00  0.00000000E+00  0.00000000E+00
  0.00000000E+00  0.00000000E+00  0.00000000E+00
  0.00000000E+00  0.00000000E+00  0.00000000E+00
  0.00000000E+00  0.00000000E+00  0.00000000E+00
  0.00000000E+00  0.00000000E+00  0.00000000E+00
  0.00000000E+00  0.00000000E+00  0.00000000E+00
  0.00000000E+00  0.00000000E+00  0.00000000E+00
  0.00000000E+00  0.00000000E+00  0.00000000E+00
  0.00000000E+00  0.00000000E+00  0.00000000E+00
  0.00000000E+00  0.00000000E+00  0.00000000E+00
  0.00000000E+00  0.00000000E+00  0.00000000E+00
  0.00000000E+00  0.00000000E+00  0.00000000E+00
  0.00000000E+00  0.00000000E+00  0.00000000E+00
  0.00000000E+00  0.00000000E+00  0.00000000E+00
  0.00000000E+00  0.00000000E+00  0.00000000E+00
  0.00000000E+00  0.00000000E+00  0.00000000E+00
  0.00000000E+00  0.00000000E+00  0.00000000E+00
  0.00000000E+00  0.00000000E+00  0.00000000E+00
  0.00000000E+00  0.00000000E+00  0.00000000E+00
  0.00000000E+00  0.00000000E+00  0.00000000E+00
  0.00000000E+00  0.00000000E+00  0.00000000E+00
  0.00000000E+00  0.00000000E+00  0.00000000E+00
  0.00000000E+00  0.00000000E+00  0.00000000E+00
  0.00000000E+00  0.00000000E+00  0.00000000E+00
  0.00000000E+00  0.00000000E+00  0.00000000E+00
  0.00000000E+00  0.00000000E+00  0.00000000E+00
  0.00000000E+00  0.00000000E+00  0.00000000E+00
  0.00000000E+00  0.00000000E+00  0.00000000E+00
  0.00000000E+00  0.00000000E+00  0.00000000E+00
  0.00000000E+00  0.00000000E+00  0.00000000E+00
  0.00000000E+00  0.00000000E+00  0.00000000E+00
  0.00000000E+00  0.00000000E+00  0.00000000E+00
  0.00000000E+00  0.00000000E+00  0.00000000E+00
  0.00000000E+00  0.00000000E+00  0.00000000E+00
  0.00000000E+00  0.00000000E+00  0.00000000E+00
  0.00000000E+00  0.00000000E+00  0.00000000E+00
  0.00000000E+00  0.00000000E+00  0.00000000E+00
  0.00000000E+00  0.00000000E+00  0.00000000E+00
  0.00000000E+00  0.00000000E+00  0.00000000E+00
  0.00000000E+00  0.00000000E+00  0.00000000E+00
  0.00000000E+00  0.00000000E+00  0.00000000E+00
  0.00000000E+00  0.00000000E+00  0.00000000E+00
  0.00000000E+00  0.00000000E+00  0.00000000E+00
  0.00000000E+00  0.00000000E+00  0.00000000E+00
  0.00000000E+00  0.00000000E+00  0.00000000E+00
  0.00000000E+00  0.00000000E+00  0.00000000E+00
  0.00000000E+00  0.00000000E+00  0.00000000E+00
  0.00000000E+00  0.00000000E+00  0.00000000E+00
  0.00000000E+00  0.00000000E+00  0.00000000E+00
  0.00000000E+00  0.00000000E+00  0.00000000E+00
  0.00000000E+00  0.00000000E+00  0.00000000E+00
  0.00000000E+00  0.00000000E+00  0.00000000E+00
  0.00000000E+00  0.00000000E+00  0.00000000E+00
  0.00000000E+00  0.00000000E+00  0.00000000E+00
  0.00000000E+00  0.00000000E+00  0.00000000E+00
  0.00000000E+00  0.00000000E+00  0.00000000E+00
  0.00000000E+00  0.00000000E+00  0.00000000E+00
  0.00000000E+00  0.00000000E+00  0.00000000E+00
  0.00000000E+00  0.00000000E+00  0.00000000E+00
  0.00000000E+00  0.00000000E+00  0.00000000E+00
  0.00000000E+00  0.00000000E+00  0.00000000E+00
  0.00000000E+00  0.00000000E+00  0.00000000E+00
