Tl Zn Br                                
   1.00000000000000     
    10.5284560000000003  -10.5284560000000003    0.0000000000000000
    10.5284560000000003   10.5284560000000003    0.0000000000000000
     0.0000000000000000    0.0000000000000000   21.0569120000000005
   Tl   Zn   Br
    32    32    96
Direct
  0.0158063436293222  0.9516849596783333  0.0248488602413375
  0.0160271813224307  0.0209436536985892  0.2113991382658931
  0.8999384021094974  0.0308837435305151  0.5168811831133627
  0.0293611746575011  0.0404822915483356  0.7874899218657513
  0.5351269319864368  0.9740622886995365  0.9494026654040639
  0.5656117803893967  0.0028207175088878  0.2449300449822225
  0.4866095687821250  0.9240714870979084  0.5357334492540231
  0.4417003056048227  0.0494987035826782  0.7522925893356417
  0.2498748828867781  0.2445538773140717  0.9959143255843035
  0.2560188888058444  0.2078230493346330  0.2302820342966047
  0.2994633856319836  0.2276735247529446  0.4726467180395251
  0.2683406648241072  0.2301888603617686  0.7195326910109124
  0.0200822861759681  0.5261717941653816  0.0201377395032699
  0.0284546880246228  0.4410909373706696  0.2493123890706201
  0.9863997931044658  0.4995453242429829  0.4701436603579103
  0.0494331833586721  0.4766399493545914  0.7820780074402599
  0.7189708860785905  0.2238232822462794  0.0074369204173733
  0.8026594097750398  0.1988143143440910  0.2308723489120501
  0.7267259471912609  0.3139196969893390  0.5074546839198210
  0.7099461174767665  0.2668969374373458  0.7623178557645838
  0.4624431306518405  0.5504019978040741  0.0172716807340185
  0.5036985170120077  0.5524402188608125  0.3074058537782626
  0.5113165483831514  0.5310194031374263  0.5179573246415983
  0.4699521663712355  0.4946482115463121  0.7755179198031830
  0.2561249283001104  0.7525001812331493  0.9845062685767966
  0.3159220245573485  0.8357180023678114  0.2590036961854556
  0.2027249605604987  0.7615742421466857  0.5498113791073272
  0.2452219546204857  0.7647140290156771  0.7760856255284792
  0.7402140847864113  0.7401404421906763  0.9766704293396873
  0.7794328023442209  0.7301062882876355  0.2245184068071422
  0.7724750504594595  0.7480815630217157  0.4847167226535667
  0.7125752961470330  0.7572570110277272  0.7143801218399247
  0.9649819034701874  0.2818382420682128  0.0738035431778516
  0.9875399823163217  0.1898951150414122  0.3813442845930520
  0.0036870351754177  0.2524392566787252  0.5964302465311428
  0.9873901904061128  0.2303782139604619  0.8902359592232800
  0.5229883344280651  0.2848997033435341  0.1475256514464830
  0.4880242791377245  0.2738103365547992  0.3571141563955263
  0.5396726674698878  0.2141208449316696  0.5896056409530650
  0.5095892975085851  0.2684922100790326  0.8874587183596432
  0.2826220792707113  0.5473337940559303  0.1597136020567173
  0.2582699751346805  0.4716473904938626  0.3545969251201556
  0.2079440584248882  0.4765505948886586  0.5934367230053033
  0.2715701274475161  0.4629914908907847  0.8723267504067195
  0.0481287243972780  0.7057994464456843  0.1567613927175636
  0.0314656502033470  0.7573795104910803  0.3554545537176257
  0.0166668697266935  0.6810016379587097  0.6486289640610369
  0.9732093157206998  0.7602061229552569  0.8353401746442667
  0.7387203439665599  0.4751353076749680  0.1122613676929281
  0.7599201544863039  0.4852309077394541  0.3324938991948264
  0.7946532390026818  0.4936942203423803  0.6385064091665484
  0.7463307750718053  0.5324600717099657  0.8226924268632629
  0.5242173047475820  0.7654277487869003  0.1291744501304969
  0.5630927528244517  0.8170548503313310  0.3619182692689873
  0.4379657046537789  0.7187326254425142  0.6047889924313107
  0.5495660408891072  0.7266271314165775  0.8673703714182582
  0.2595096132726663  0.0070498814779201  0.1103396137713188
  0.1842814955639391  0.9713617099521379  0.4070695656138286
  0.1728978099491163  0.0231506030619125  0.5992052304380205
  0.2778676220950340  0.9909123877196740  0.8940547269476687
  0.7447966231064117  0.9354444160633973  0.0947739010463747
  0.7148544654943104  0.0387162148225693  0.3851613556503017
  0.7183463212506822  0.9889479126378952  0.6576332987323904
  0.7588811178626882  0.0015189807153034  0.8576979010161133
  0.9188459314336314  0.3335344062754070  0.9680263362440489
  0.0356312562179882  0.2205532159270790  0.2756313680801707
  0.9428364970159790  0.2693862856216012  0.4823754385261612
  0.0505053105280196  0.2596521219531224  0.7870537140034005
  0.4972734128163896  0.1788737332787587  0.9809293273938349
  0.5397341570014385  0.3435978347199791  0.2571983393091096
  0.5345213639713996  0.2110777530673071  0.4720322464215864
  0.4797847489490823  0.2674017259583832  0.7745549169488678
  0.2449739278514513  0.5411138862255820  0.0493125715695066
  0.2498561793089705  0.4249954954506484  0.2392294524154963
  0.1971785616896917  0.5588380719872273  0.4983659528072798
  0.2641495846039372  0.4327985787408395  0.7600423880871523
  0.0579850960058217  0.7325038436817033  0.0437219651477194
  0.9901745419654652  0.8070731479923080  0.2449530582992560
  0.9815016419453573  0.6958025887497193  0.5403241933078454
  0.0149719018903180  0.8088748636093566  0.7270605322909314
  0.7990714142070577  0.5383981886162595  0.0172788312575242
  0.6994982066918553  0.5237667772476051  0.2229656162984757
  0.7624450553128896  0.5314763719795315  0.5317476714654319
  0.6720111807706276  0.5285693438121536  0.7170937494982043
  0.4876175315813934  0.7581943707831712  0.9686458248528474
  0.5377749910826941  0.7607953487780588  0.2488404268484475
  0.3926083918842841  0.7307440962496735  0.4935980121738895
  0.4995413274695244  0.7092414603758497  0.7628063339564475
  0.3294395573021529  0.9794442196461536  0.0068680470417201
  0.1994954060116866  0.0121690662498946  0.2979045174458718
  0.2802020051256266  0.9906770379774952  0.5046121047275899
  0.2161587040462907  0.0091326175291361  0.7093904777172255
  0.7513252088488558  0.0088450115133920  0.9886628567661846
  0.7820341940469027  0.9884657021072339  0.1989955540845595
  0.6802295910469122  0.0065687239154421  0.4909334630836312
  0.8202149389242946  0.9708746074337121  0.7513131967736721
  0.1519640826455033  0.1260136842462184  0.1089554181281734
  0.0909268540471364  0.0968382863032488  0.4434595281870384
  0.1593186352215437  0.1870160566037415  0.5883934399567293
  0.0780092444215368  0.1232141572688700  0.9433572173683258
  0.6202444085925967  0.1581515352463571  0.1416128694132667
  0.6463091807966033  0.1617968412719557  0.3316678362765132
  0.6875862914554675  0.1451207698896776  0.6284699221288461
  0.6224379492509705  0.0890065711984955  0.8347798385033235
  0.3718878980734445  0.2971020772458850  0.1166780931253518
  0.3997809726755521  0.4001798761248644  0.4061669654689433
  0.3195758984013131  0.3636853464095341  0.5947785376784338
  0.3944340371486432  0.3840979645061370  0.9276117734329942
  0.1859849254925894  0.6605412565296688  0.2103340939648024
  0.0632116884065568  0.6014782116215961  0.3531927811742067
  0.1612298198935286  0.6114887044373225  0.6724856700412351
  0.0822404946180459  0.6575904361309025  0.8740502057255892
  0.8535725954041046  0.3648773207571067  0.1450377159647721
  0.8643571170538105  0.3634489177087954  0.3349899595250973
  0.8366743094698100  0.3404156016665464  0.6442378800530576
  0.8524326678549533  0.4158865925124847  0.8228450580352649
  0.6353086587978145  0.6630197917862365  0.0965049111227384
  0.5940348069138119  0.6801874850704738  0.4123520311743971
  0.6002528150220264  0.7129576500407945  0.5899448296887951
  0.6207035604120841  0.5769120239921233  0.8933634790973105
  0.3684655023740357  0.7752273337405640  0.1148726937221071
  0.4515303214627063  0.9254862547270486  0.3779422215507405
  0.3566889777791995  0.8408274458489259  0.6526990320585018
  0.3890839625341146  0.8935740782598277  0.8445873899174576
  0.8546889284133328  0.8188498606891126  0.0879342701333710
  0.9353554464901725  0.8524957685280222  0.4138699115296902
  0.8137197457295879  0.8816006102576385  0.6028800312487719
  0.9117597075200373  0.8859460048367382  0.8960360956784381
  0.9089604228312547  0.1349395038987385  0.0929501630706158
  0.8749558735272086  0.0715135345787964  0.3547295581695263
  0.9369305070058355  0.1301737519320142  0.6513080003007581
  0.8430026298105913  0.1545011617417722  0.8640754364191559
  0.3813054999160705  0.0359602430086880  0.1799003587624859
  0.3891558464707073  0.1515055156618000  0.3403428909239268
  0.4121035318074246  0.1252498951526427  0.6116220271348600
  0.2967734315204830  0.1416072775827236  0.8608420751198040
  0.0989020389271572  0.3547193468113026  0.1050800155078594
  0.1485389912605721  0.3688148306394081  0.3958219546437692
  0.0564974787067512  0.4066636866101628  0.6196803396356474
  0.1373204414003996  0.4086283743219229  0.9193152301100384
  0.9330669434154566  0.5925448963143189  0.1652319816358073
  0.8248820334213578  0.6262150933966698  0.3595158718603321
  0.8969891970682596  0.5936910445321365  0.6964400213820543
  0.8296674195225227  0.6730473974625126  0.8456238190122669
  0.6035480993558183  0.3946480832203340  0.0751597614112441
  0.6384617293214193  0.4301712985683215  0.3981192303108186
  0.5741564499056192  0.3639233586270438  0.6184174341701997
  0.6496611584728343  0.3485727472131395  0.8958231995109381
  0.4417037635037516  0.5489769260184801  0.1660818319017423
  0.3152448764346601  0.6197553795455180  0.3504360373810524
  0.3946052731089045  0.5731687317299270  0.6427925438008290
  0.3306912238986202  0.6135826970564964  0.8772422220479535
  0.1635118127028076  0.8870175507611842  0.1429200113520766
  0.1830808851532511  0.8093134762334043  0.3968243073520714
  0.0570567347387331  0.9212226880967022  0.5762174656187058
  0.1462665902632226  0.9002278655814070  0.8872855686443888
  0.5805212392633614  0.9174132415321452  0.0992271854434796
  0.7124773068952772  0.8837670635559921  0.3413304891616126
  0.5782285459677609  0.9223674150653652  0.6818044355508383
  0.6616985419965654  0.8511560460069172  0.8532306251677049
 
  0.00000000E+00  0.00000000E+00  0.00000000E+00
  0.00000000E+00  0.00000000E+00  0.00000000E+00
  0.00000000E+00  0.00000000E+00  0.00000000E+00
  0.00000000E+00  0.00000000E+00  0.00000000E+00
  0.00000000E+00  0.00000000E+00  0.00000000E+00
  0.00000000E+00  0.00000000E+00  0.00000000E+00
  0.00000000E+00  0.00000000E+00  0.00000000E+00
  0.00000000E+00  0.00000000E+00  0.00000000E+00
  0.00000000E+00  0.00000000E+00  0.00000000E+00
  0.00000000E+00  0.00000000E+00  0.00000000E+00
  0.00000000E+00  0.00000000E+00  0.00000000E+00
  0.00000000E+00  0.00000000E+00  0.00000000E+00
  0.00000000E+00  0.00000000E+00  0.00000000E+00
  0.00000000E+00  0.00000000E+00  0.00000000E+00
  0.00000000E+00  0.00000000E+00  0.00000000E+00
  0.00000000E+00  0.00000000E+00  0.00000000E+00
  0.00000000E+00  0.00000000E+00  0.00000000E+00
  0.00000000E+00  0.00000000E+00  0.00000000E+00
  0.00000000E+00  0.00000000E+00  0.00000000E+00
  0.00000000E+00  0.00000000E+00  0.00000000E+00
  0.00000000E+00  0.00000000E+00  0.00000000E+00
  0.00000000E+00  0.00000000E+00  0.00000000E+00
  0.00000000E+00  0.00000000E+00  0.00000000E+00
  0.00000000E+00  0.00000000E+00  0.00000000E+00
  0.00000000E+00  0.00000000E+00  0.00000000E+00
  0.00000000E+00  0.00000000E+00  0.00000000E+00
  0.00000000E+00  0.00000000E+00  0.00000000E+00
  0.00000000E+00  0.00000000E+00  0.00000000E+00
  0.00000000E+00  0.00000000E+00  0.00000000E+00
  0.00000000E+00  0.00000000E+00  0.00000000E+00
  0.00000000E+00  0.00000000E+00  0.00000000E+00
  0.00000000E+00  0.00000000E+00  0.00000000E+00
  0.00000000E+00  0.00000000E+00  0.00000000E+00
  0.00000000E+00  0.00000000E+00  0.00000000E+00
  0.00000000E+00  0.00000000E+00  0.00000000E+00
  0.00000000E+00  0.00000000E+00  0.00000000E+00
  0.00000000E+00  0.00000000E+00  0.00000000E+00
  0.00000000E+00  0.00000000E+00  0.00000000E+00
  0.00000000E+00  0.00000000E+00  0.00000000E+00
  0.00000000E+00  0.00000000E+00  0.00000000E+00
  0.00000000E+00  0.00000000E+00  0.00000000E+00
  0.00000000E+00  0.00000000E+00  0.00000000E+00
  0.00000000E+00  0.00000000E+00  0.00000000E+00
  0.00000000E+00  0.00000000E+00  0.00000000E+00
  0.00000000E+00  0.00000000E+00  0.00000000E+00
  0.00000000E+00  0.00000000E+00  0.00000000E+00
  0.00000000E+00  0.00000000E+00  0.00000000E+00
  0.00000000E+00  0.00000000E+00  0.00000000E+00
  0.00000000E+00  0.00000000E+00  0.00000000E+00
  0.00000000E+00  0.00000000E+00  0.00000000E+00
  0.00000000E+00  0.00000000E+00  0.00000000E+00
  0.00000000E+00  0.00000000E+00  0.00000000E+00
  0.00000000E+00  0.00000000E+00  0.00000000E+00
  0.00000000E+00  0.00000000E+00  0.00000000E+00
  0.00000000E+00  0.00000000E+00  0.00000000E+00
  0.00000000E+00  0.00000000E+00  0.00000000E+00
  0.00000000E+00  0.00000000E+00  0.00000000E+00
  0.00000000E+00  0.00000000E+00  0.00000000E+00
  0.00000000E+00  0.00000000E+00  0.00000000E+00
  0.00000000E+00  0.00000000E+00  0.00000000E+00
  0.00000000E+00  0.00000000E+00  0.00000000E+00
  0.00000000E+00  0.00000000E+00  0.00000000E+00
  0.00000000E+00  0.00000000E+00  0.00000000E+00
  0.00000000E+00  0.00000000E+00  0.00000000E+00
  0.00000000E+00  0.00000000E+00  0.00000000E+00
  0.00000000E+00  0.00000000E+00  0.00000000E+00
  0.00000000E+00  0.00000000E+00  0.00000000E+00
  0.00000000E+00  0.00000000E+00  0.00000000E+00
  0.00000000E+00  0.00000000E+00  0.00000000E+00
  0.00000000E+00  0.00000000E+00  0.00000000E+00
  0.00000000E+00  0.00000000E+00  0.00000000E+00
  0.00000000E+00  0.00000000E+00  0.00000000E+00
  0.00000000E+00  0.00000000E+00  0.00000000E+00
  0.00000000E+00  0.00000000E+00  0.00000000E+00
  0.00000000E+00  0.00000000E+00  0.00000000E+00
  0.00000000E+00  0.00000000E+00  0.00000000E+00
  0.00000000E+00  0.00000000E+00  0.00000000E+00
  0.00000000E+00  0.00000000E+00  0.00000000E+00
  0.00000000E+00  0.00000000E+00  0.00000000E+00
  0.00000000E+00  0.00000000E+00  0.00000000E+00
  0.00000000E+00  0.00000000E+00  0.00000000E+00
  0.00000000E+00  0.00000000E+00  0.00000000E+00
  0.00000000E+00  0.00000000E+00  0.00000000E+00
  0.00000000E+00  0.00000000E+00  0.00000000E+00
  0.00000000E+00  0.00000000E+00  0.00000000E+00
  0.00000000E+00  0.00000000E+00  0.00000000E+00
  0.00000000E+00  0.00000000E+00  0.00000000E+00
  0.00000000E+00  0.00000000E+00  0.00000000E+00
  0.00000000E+00  0.00000000E+00  0.00000000E+00
  0.00000000E+00  0.00000000E+00  0.00000000E+00
  0.00000000E+00  0.00000000E+00  0.00000000E+00
  0.00000000E+00  0.00000000E+00  0.00000000E+00
  0.00000000E+00  0.00000000E+00  0.00000000E+00
  0.00000000E+00  0.00000000E+00  0.00000000E+00
  0.00000000E+00  0.00000000E+00  0.00000000E+00
  0.00000000E+00  0.00000000E+00  0.00000000E+00
  0.00000000E+00  0.00000000E+00  0.00000000E+00
  0.00000000E+00  0.00000000E+00  0.00000000E+00
  0.00000000E+00  0.00000000E+00  0.00000000E+00
  0.00000000E+00  0.00000000E+00  0.00000000E+00
  0.00000000E+00  0.00000000E+00  0.00000000E+00
  0.00000000E+00  0.00000000E+00  0.00000000E+00
  0.00000000E+00  0.00000000E+00  0.00000000E+00
  0.00000000E+00  0.00000000E+00  0.00000000E+00
  0.00000000E+00  0.00000000E+00  0.00000000E+00
  0.00000000E+00  0.00000000E+00  0.00000000E+00
  0.00000000E+00  0.00000000E+00  0.00000000E+00
  0.00000000E+00  0.00000000E+00  0.00000000E+00
  0.00000000E+00  0.00000000E+00  0.00000000E+00
  0.00000000E+00  0.00000000E+00  0.00000000E+00
  0.00000000E+00  0.00000000E+00  0.00000000E+00
  0.00000000E+00  0.00000000E+00  0.00000000E+00
  0.00000000E+00  0.00000000E+00  0.00000000E+00
  0.00000000E+00  0.00000000E+00  0.00000000E+00
  0.00000000E+00  0.00000000E+00  0.00000000E+00
  0.00000000E+00  0.00000000E+00  0.00000000E+00
  0.00000000E+00  0.00000000E+00  0.00000000E+00
  0.00000000E+00  0.00000000E+00  0.00000000E+00
  0.00000000E+00  0.00000000E+00  0.00000000E+00
  0.00000000E+00  0.00000000E+00  0.00000000E+00
  0.00000000E+00  0.00000000E+00  0.00000000E+00
  0.00000000E+00  0.00000000E+00  0.00000000E+00
  0.00000000E+00  0.00000000E+00  0.00000000E+00
  0.00000000E+00  0.00000000E+00  0.00000000E+00
  0.00000000E+00  0.00000000E+00  0.00000000E+00
  0.00000000E+00  0.00000000E+00  0.00000000E+00
  0.00000000E+00  0.00000000E+00  0.00000000E+00
  0.00000000E+00  0.00000000E+00  0.00000000E+00
  0.00000000E+00  0.00000000E+00  0.00000000E+00
  0.00000000E+00  0.00000000E+00  0.00000000E+00
  0.00000000E+00  0.00000000E+00  0.00000000E+00
  0.00000000E+00  0.00000000E+00  0.00000000E+00
  0.00000000E+00  0.00000000E+00  0.00000000E+00
  0.00000000E+00  0.00000000E+00  0.00000000E+00
  0.00000000E+00  0.00000000E+00  0.00000000E+00
  0.00000000E+00  0.00000000E+00  0.00000000E+00
  0.00000000E+00  0.00000000E+00  0.00000000E+00
  0.00000000E+00  0.00000000E+00  0.00000000E+00
  0.00000000E+00  0.00000000E+00  0.00000000E+00
  0.00000000E+00  0.00000000E+00  0.00000000E+00
  0.00000000E+00  0.00000000E+00  0.00000000E+00
  0.00000000E+00  0.00000000E+00  0.00000000E+00
  0.00000000E+00  0.00000000E+00  0.00000000E+00
  0.00000000E+00  0.00000000E+00  0.00000000E+00
  0.00000000E+00  0.00000000E+00  0.00000000E+00
  0.00000000E+00  0.00000000E+00  0.00000000E+00
  0.00000000E+00  0.00000000E+00  0.00000000E+00
  0.00000000E+00  0.00000000E+00  0.00000000E+00
  0.00000000E+00  0.00000000E+00  0.00000000E+00
  0.00000000E+00  0.00000000E+00  0.00000000E+00
  0.00000000E+00  0.00000000E+00  0.00000000E+00
  0.00000000E+00  0.00000000E+00  0.00000000E+00
  0.00000000E+00  0.00000000E+00  0.00000000E+00
  0.00000000E+00  0.00000000E+00  0.00000000E+00
  0.00000000E+00  0.00000000E+00  0.00000000E+00
  0.00000000E+00  0.00000000E+00  0.00000000E+00
  0.00000000E+00  0.00000000E+00  0.00000000E+00
  0.00000000E+00  0.00000000E+00  0.00000000E+00
  0.00000000E+00  0.00000000E+00  0.00000000E+00
  0.00000000E+00  0.00000000E+00  0.00000000E+00
