Zn Li F                                 
   1.00000000000000     
     8.0623039999999992   -8.0623039999999992    0.0000000000000000
     8.0623039999999992    8.0623039999999992    0.0000000000000000
     0.0000000000000000    0.0000000000000000   16.1246079999999985
   F    Li   Zn
    96    32    32
Direct
  0.0469432336608222  0.2571738267020889  0.9941430825026771
  0.9508666936414968  0.2286815397927441  0.2585972097499582
  0.0374606621372180  0.2461533385619915  0.4853670989427410
  0.9302975810154834  0.2540240215602212  0.7591361909906440
  0.5065035530894240  0.2920094182129674  0.9968998487314987
  0.4944539922298305  0.1779965829982421  0.2442294683574988
  0.4576664555496401  0.2771721913004880  0.5068298613984056
  0.5427477429552360  0.2528340604616998  0.7442646986373972
  0.2567771312346612  0.4281244458058460  0.0125194349924960
  0.2540215700602822  0.5645770838676152  0.2529012602019223
  0.2577020826836328  0.4320409056715082  0.4881113638408644
  0.2283123792298136  0.5679964570701037  0.7562456993298389
  0.9552695789869422  0.7167753369689184  0.0213209231512779
  0.0747550909736573  0.7662092562887667  0.2649394500824604
  0.0008737840358272  0.7916422773356638  0.4908391312968868
  0.0436738297618006  0.7371254162066420  0.7355414515708527
  0.7153643374407014  0.4855060787858584  0.0136456149116510
  0.8083445501360075  0.4698078374233330  0.2611123795505471
  0.7343630602016311  0.5354947708008739  0.4832272001135751
  0.7467660819765167  0.4463049091848493  0.7447445641574018
  0.5537012485596911  0.7680199768323839  0.0044546082711073
  0.4463296310284631  0.7467104224054115  0.2428599156184595
  0.4522525625805877  0.7547565730218351  0.4574812722800468
  0.4286168877987788  0.7322660260083664  0.7666558958072870
  0.2138798808582657  0.0333379743419647  0.9819426331642729
  0.2871439769923441  0.0342181180881819  0.2337397122921465
  0.2028224058114318  0.0313939696278947  0.5046517612245417
  0.2540871823137913  0.9539062575057941  0.7528577179197735
  0.7234763509909177  0.9607036634623471  0.0001640893273026
  0.7581372246172723  0.0700814667352754  0.2419509013420837
  0.7111861345423951  0.9261455639065206  0.5162516356168390
  0.7330134982326885  0.0248626770806556  0.7518604463454117
  0.1062950188174331  0.1144617871417306  0.1397146331161448
  0.1584883749231445  0.1886852216773738  0.3351568641977288
  0.1305599138249043  0.1866596033274126  0.6360686093389639
  0.1422233022252783  0.1460848463279009  0.8432884758890146
  0.5916561203366716  0.0915482661595665  0.0994949945395027
  0.6205676673169124  0.1401288915612725  0.3837100326546064
  0.6497783599485801  0.1335082403864106  0.5960124129896751
  0.6785111435833799  0.1716197611082159  0.8799050980507035
  0.4114488977601723  0.4095266112523291  0.1604301354304875
  0.3503661401853087  0.3354702397828287  0.3338723674853541
  0.3155273447840132  0.3687647583934094  0.6435954363512938
  0.3579640182831440  0.3287566183917677  0.8451122561342399
  0.1211299329834011  0.6028912323457969  0.1107662381898925
  0.2087203226259904  0.6492230704880194  0.4122976786920109
  0.1300570049078134  0.6456679101093132  0.5776705773188303
  0.1381316665593489  0.6665677204683226  0.8910265383102968
  0.9085298165995437  0.4092480311831627  0.1069362874122454
  0.8487884954444859  0.3371384421139494  0.4042026211459053
  0.8332325477008755  0.3486246056019751  0.5885547443185046
  0.8534208177688900  0.3506310743777245  0.8974614236818569
  0.6530883410950971  0.6188438023906293  0.1538331683313310
  0.6721076747801860  0.6356815063293705  0.3460895118128110
  0.6212179327532974  0.6318842807034544  0.6421458907704019
  0.6579466151929740  0.6497525222784846  0.8806983972850148
  0.3937425541824169  0.9101304907313650  0.0833568228010912
  0.2768298968875491  0.8692549794399216  0.3672021138605195
  0.3503882054626600  0.8394445391862150  0.5942536196361411
  0.3372730686135157  0.8299707806811717  0.9089903688679059
  0.8803406224204919  0.8830282512338085  0.1507282310305402
  0.8088152778259234  0.8441401298145467  0.3641570701154538
  0.8545279595197066  0.8644315672497169  0.6499628858823315
  0.8410821488874971  0.8484439831156406  0.8816196668829568
  0.8563743560166914  0.1594739968469901  0.0875171025550630
  0.8468074823102335  0.0903138895066365  0.4100733798139423
  0.9004794207686336  0.1169079723998002  0.5916939226433182
  0.9078224964234261  0.1083189846088442  0.9076557988614641
  0.3283585226998862  0.1826889001691994  0.1004986876001026
  0.3862248324498700  0.0735982105175781  0.3883954775723895
  0.3699471524215314  0.1217494799553428  0.6467700714668373
  0.4320283614084595  0.0803707595011352  0.8615295285790002
  0.1510043048090535  0.3399153453504051  0.1554429237930102
  0.0811526459754346  0.4483552985951605  0.3459127247513460
  0.0790526045792445  0.4138681515803316  0.6237113129935552
  0.1108603638574629  0.4201821624360818  0.8509318318543785
  0.9035062731606843  0.6452428747606347  0.1753967929209850
  0.9357316351899997  0.6415606076798768  0.3791175427457731
  0.8556556647014161  0.6358452047539936  0.6167685861413535
  0.9100533871781873  0.5997232851448114  0.8599646351182618
  0.6465523367690343  0.3253901682466167  0.1617916441270138
  0.5937532985511182  0.3624669674847640  0.3361225421704492
  0.5739220681556708  0.4040330395476996  0.6201265114010970
  0.6017326206410653  0.4103446701527418  0.8659342562980976
  0.3683755988422310  0.6527944077006376  0.0876526570900117
  0.4359132124304588  0.5484522658712422  0.3584850152871059
  0.3735965738835501  0.6001758747967789  0.5925560612031162
  0.3849369089382251  0.5921876754261943  0.8978311144216671
  0.1631097515012665  0.8538052900779977  0.0959820327430505
  0.0391036281982263  0.9789507797525870  0.3463329665429362
  0.0934663472641257  0.9289231483983280  0.6336014348602372
  0.0772369236606414  0.9050461003977406  0.8701448225782852
  0.6392053734431351  0.8582815321135175  0.1456765771321413
  0.5586490274190815  0.9048101898900485  0.3523839960463967
  0.5955438839039584  0.8593886199656388  0.6672283876388369
  0.6016078906930533  0.8833828603575793  0.8618725066987348
  0.0619078703612884  0.0484279951352612  0.9285587683230224
  0.9037976955883067  0.0776645179649563  0.3004718773095085
  0.0556549536187260  0.0673192714359387  0.5576621212522871
  0.0939158281687206  0.8944891329168916  0.7530967735051173
  0.5514040345854193  0.9459691304153480  0.0495336332103751
  0.4443356441381892  0.0253020432629577  0.2735788503008217
  0.4219332135146829  0.9099907691388482  0.4222969981706098
  0.5844350122675137  0.9515378016334102  0.7603421014224266
  0.2059893325931819  0.2777272938777975  0.0484917587941925
  0.2186213944852544  0.1994217083353757  0.2201781162714952
  0.1699524091611060  0.3133293686405321  0.5426043814096198
  0.2655710061177884  0.2336135787434098  0.7017808301548090
  0.9757200051454430  0.5578494999918490  0.0748795252348574
  0.9536853375371075  0.5587078632108845  0.2764791196228478
  0.0633627425791498  0.6323289326831574  0.4649368790159497
  0.0649222674147176  0.5811329201924218  0.8026995350877795
  0.8544996368973297  0.2297066970455247  0.9834530805243701
  0.6585820482369998  0.2041479548471001  0.2654188002703256
  0.8482050257487409  0.2172656656156593  0.4888390576414914
  0.7730176743760788  0.2750045220649331  0.8040160850899533
  0.5704535301880316  0.4380576465811197  0.9779946527937013
  0.4619752991930851  0.4299784711947859  0.2730352173323726
  0.4123920212200685  0.4318603702435587  0.5509866782262750
  0.5831644863414589  0.4148522834550530  0.7429389226380564
  0.2971238802398084  0.7875325743209801  0.0319201500310035
  0.2336751255510071  0.7284201555859166  0.3020239507945901
  0.3068575614704909  0.7061667808483838  0.5033352274152320
  0.2772318001443964  0.6986750606120551  0.8280376744828554
  0.7068179220752648  0.7961026194802358  0.9422289370923955
  0.7687661332850801  0.7518768052569994  0.1716364692262899
  0.7845630897208781  0.6893688532869354  0.4214943708689342
  0.7348360361794787  0.7512212496183462  0.6517772880913539
  0.9928625982726824  0.2534929149048851  0.1362122048357074
  0.0159039527952418  0.2917488107607086  0.3659686581508629
  0.9719123835045705  0.2745077920995028  0.6415819131148592
  0.0241534844852978  0.2709189764692806  0.8676916325861794
  0.4944018120936297  0.2415633508365880  0.1206721400121679
  0.4714139676822341  0.2314313031798786  0.3862823516224673
  0.5149806056689079  0.2290710683965662  0.6214815512848718
  0.5080491129034369  0.2375600029688716  0.8736401184065414
  0.2665356303244918  0.5093587935408319  0.1322735983909020
  0.2598621590151252  0.4860153872181737  0.3677571576161214
  0.2201341291605332  0.5213181396330131  0.6399742628056461
  0.2712401126807038  0.4618775771288890  0.8920337449573101
  0.0245965499751818  0.7701394434675611  0.1386124339187060
  0.9815099482347482  0.8189230846713733  0.3654308638892771
  0.9942689184889151  0.7594350839281085  0.6177168898144049
  0.9887464994487108  0.7569288017334438  0.9036265044332008
  0.7438803116423530  0.4662442118995906  0.1399352018174121
  0.7287845536330824  0.4584629376554623  0.3718949659932089
  0.7396934443695883  0.4960727017487299  0.6092880421465927
  0.7630827855602706  0.5075612681469223  0.8735627702957445
  0.5142797467229248  0.7295375488624436  0.1289847942966356
  0.5157582792189059  0.7063099459625084  0.3501133497393411
  0.4749553807677342  0.7323197861267069  0.6468480301912981
  0.4975180766333873  0.7364464694760716  0.8842936273486541
  0.2511663219728070  0.0127550736711393  0.1093997458106093
  0.2084336314565731  0.0287170996925809  0.3707152159421834
  0.2633051059451880  0.9844883550886836  0.6223118384910992
  0.2816625022382837  0.9972217867567997  0.8716677467382198
  0.7571482280737531  0.0153087099150679  0.1238360251061247
  0.7050456599996231  0.9853834980124893  0.4009791300547114
  0.7606744059475161  0.0063781697527181  0.6224150421734418
  0.7632281551659115  0.0110064453009600  0.8785030765170252
 
  0.00000000E+00  0.00000000E+00  0.00000000E+00
  0.00000000E+00  0.00000000E+00  0.00000000E+00
  0.00000000E+00  0.00000000E+00  0.00000000E+00
  0.00000000E+00  0.00000000E+00  0.00000000E+00
  0.00000000E+00  0.00000000E+00  0.00000000E+00
  0.00000000E+00  0.00000000E+00  0.00000000E+00
  0.00000000E+00  0.00000000E+00  0.00000000E+00
  0.00000000E+00  0.00000000E+00  0.00000000E+00
  0.00000000E+00  0.00000000E+00  0.00000000E+00
  0.00000000E+00  0.00000000E+00  0.00000000E+00
  0.00000000E+00  0.00000000E+00  0.00000000E+00
  0.00000000E+00  0.00000000E+00  0.00000000E+00
  0.00000000E+00  0.00000000E+00  0.00000000E+00
  0.00000000E+00  0.00000000E+00  0.00000000E+00
  0.00000000E+00  0.00000000E+00  0.00000000E+00
  0.00000000E+00  0.00000000E+00  0.00000000E+00
  0.00000000E+00  0.00000000E+00  0.00000000E+00
  0.00000000E+00  0.00000000E+00  0.00000000E+00
  0.00000000E+00  0.00000000E+00  0.00000000E+00
  0.00000000E+00  0.00000000E+00  0.00000000E+00
  0.00000000E+00  0.00000000E+00  0.00000000E+00
  0.00000000E+00  0.00000000E+00  0.00000000E+00
  0.00000000E+00  0.00000000E+00  0.00000000E+00
  0.00000000E+00  0.00000000E+00  0.00000000E+00
  0.00000000E+00  0.00000000E+00  0.00000000E+00
  0.00000000E+00  0.00000000E+00  0.00000000E+00
  0.00000000E+00  0.00000000E+00  0.00000000E+00
  0.00000000E+00  0.00000000E+00  0.00000000E+00
  0.00000000E+00  0.00000000E+00  0.00000000E+00
  0.00000000E+00  0.00000000E+00  0.00000000E+00
  0.00000000E+00  0.00000000E+00  0.00000000E+00
  0.00000000E+00  0.00000000E+00  0.00000000E+00
  0.00000000E+00  0.00000000E+00  0.00000000E+00
  0.00000000E+00  0.00000000E+00  0.00000000E+00
  0.00000000E+00  0.00000000E+00  0.00000000E+00
  0.00000000E+00  0.00000000E+00  0.00000000E+00
  0.00000000E+00  0.00000000E+00  0.00000000E+00
  0.00000000E+00  0.00000000E+00  0.00000000E+00
  0.00000000E+00  0.00000000E+00  0.00000000E+00
  0.00000000E+00  0.00000000E+00  0.00000000E+00
  0.00000000E+00  0.00000000E+00  0.00000000E+00
  0.00000000E+00  0.00000000E+00  0.00000000E+00
  0.00000000E+00  0.00000000E+00  0.00000000E+00
  0.00000000E+00  0.00000000E+00  0.00000000E+00
  0.00000000E+00  0.00000000E+00  0.00000000E+00
  0.00000000E+00  0.00000000E+00  0.00000000E+00
  0.00000000E+00  0.00000000E+00  0.00000000E+00
  0.00000000E+00  0.00000000E+00  0.00000000E+00
  0.00000000E+00  0.00000000E+00  0.00000000E+00
  0.00000000E+00  0.00000000E+00  0.00000000E+00
  0.00000000E+00  0.00000000E+00  0.00000000E+00
  0.00000000E+00  0.00000000E+00  0.00000000E+00
  0.00000000E+00  0.00000000E+00  0.00000000E+00
  0.00000000E+00  0.00000000E+00  0.00000000E+00
  0.00000000E+00  0.00000000E+00  0.00000000E+00
  0.00000000E+00  0.00000000E+00  0.00000000E+00
  0.00000000E+00  0.00000000E+00  0.00000000E+00
  0.00000000E+00  0.00000000E+00  0.00000000E+00
  0.00000000E+00  0.00000000E+00  0.00000000E+00
  0.00000000E+00  0.00000000E+00  0.00000000E+00
  0.00000000E+00  0.00000000E+00  0.00000000E+00
  0.00000000E+00  0.00000000E+00  0.00000000E+00
  0.00000000E+00  0.00000000E+00  0.00000000E+00
  0.00000000E+00  0.00000000E+00  0.00000000E+00
  0.00000000E+00  0.00000000E+00  0.00000000E+00
  0.00000000E+00  0.00000000E+00  0.00000000E+00
  0.00000000E+00  0.00000000E+00  0.00000000E+00
  0.00000000E+00  0.00000000E+00  0.00000000E+00
  0.00000000E+00  0.00000000E+00  0.00000000E+00
  0.00000000E+00  0.00000000E+00  0.00000000E+00
  0.00000000E+00  0.00000000E+00  0.00000000E+00
  0.00000000E+00  0.00000000E+00  0.00000000E+00
  0.00000000E+00  0.00000000E+00  0.00000000E+00
  0.00000000E+00  0.00000000E+00  0.00000000E+00
  0.00000000E+00  0.00000000E+00  0.00000000E+00
  0.00000000E+00  0.00000000E+00  0.00000000E+00
  0.00000000E+00  0.00000000E+00  0.00000000E+00
  0.00000000E+00  0.00000000E+00  0.00000000E+00
  0.00000000E+00  0.00000000E+00  0.00000000E+00
  0.00000000E+00  0.00000000E+00  0.00000000E+00
  0.00000000E+00  0.00000000E+00  0.00000000E+00
  0.00000000E+00  0.00000000E+00  0.00000000E+00
  0.00000000E+00  0.00000000E+00  0.00000000E+00
  0.00000000E+00  0.00000000E+00  0.00000000E+00
  0.00000000E+00  0.00000000E+00  0.00000000E+00
  0.00000000E+00  0.00000000E+00  0.00000000E+00
  0.00000000E+00  0.00000000E+00  0.00000000E+00
  0.00000000E+00  0.00000000E+00  0.00000000E+00
  0.00000000E+00  0.00000000E+00  0.00000000E+00
  0.00000000E+00  0.00000000E+00  0.00000000E+00
  0.00000000E+00  0.00000000E+00  0.00000000E+00
  0.00000000E+00  0.00000000E+00  0.00000000E+00
  0.00000000E+00  0.00000000E+00  0.00000000E+00
  0.00000000E+00  0.00000000E+00  0.00000000E+00
  0.00000000E+00  0.00000000E+00  0.00000000E+00
  0.00000000E+00  0.00000000E+00  0.00000000E+00
  0.00000000E+00  0.00000000E+00  0.00000000E+00
  0.00000000E+00  0.00000000E+00  0.00000000E+00
  0.00000000E+00  0.00000000E+00  0.00000000E+00
  0.00000000E+00  0.00000000E+00  0.00000000E+00
  0.00000000E+00  0.00000000E+00  0.00000000E+00
  0.00000000E+00  0.00000000E+00  0.00000000E+00
  0.00000000E+00  0.00000000E+00  0.00000000E+00
  0.00000000E+00  0.00000000E+00  0.00000000E+00
  0.00000000E+00  0.00000000E+00  0.00000000E+00
  0.00000000E+00  0.00000000E+00  0.00000000E+00
  0.00000000E+00  0.00000000E+00  0.00000000E+00
  0.00000000E+00  0.00000000E+00  0.00000000E+00
  0.00000000E+00  0.00000000E+00  0.00000000E+00
  0.00000000E+00  0.00000000E+00  0.00000000E+00
  0.00000000E+00  0.00000000E+00  0.00000000E+00
  0.00000000E+00  0.00000000E+00  0.00000000E+00
  0.00000000E+00  0.00000000E+00  0.00000000E+00
  0.00000000E+00  0.00000000E+00  0.00000000E+00
  0.00000000E+00  0.00000000E+00  0.00000000E+00
  0.00000000E+00  0.00000000E+00  0.00000000E+00
  0.00000000E+00  0.00000000E+00  0.00000000E+00
  0.00000000E+00  0.00000000E+00  0.00000000E+00
  0.00000000E+00  0.00000000E+00  0.00000000E+00
  0.00000000E+00  0.00000000E+00  0.00000000E+00
  0.00000000E+00  0.00000000E+00  0.00000000E+00
  0.00000000E+00  0.00000000E+00  0.00000000E+00
  0.00000000E+00  0.00000000E+00  0.00000000E+00
  0.00000000E+00  0.00000000E+00  0.00000000E+00
  0.00000000E+00  0.00000000E+00  0.00000000E+00
  0.00000000E+00  0.00000000E+00  0.00000000E+00
  0.00000000E+00  0.00000000E+00  0.00000000E+00
  0.00000000E+00  0.00000000E+00  0.00000000E+00
  0.00000000E+00  0.00000000E+00  0.00000000E+00
  0.00000000E+00  0.00000000E+00  0.00000000E+00
  0.00000000E+00  0.00000000E+00  0.00000000E+00
  0.00000000E+00  0.00000000E+00  0.00000000E+00
  0.00000000E+00  0.00000000E+00  0.00000000E+00
  0.00000000E+00  0.00000000E+00  0.00000000E+00
  0.00000000E+00  0.00000000E+00  0.00000000E+00
  0.00000000E+00  0.00000000E+00  0.00000000E+00
  0.00000000E+00  0.00000000E+00  0.00000000E+00
  0.00000000E+00  0.00000000E+00  0.00000000E+00
  0.00000000E+00  0.00000000E+00  0.00000000E+00
  0.00000000E+00  0.00000000E+00  0.00000000E+00
  0.00000000E+00  0.00000000E+00  0.00000000E+00
  0.00000000E+00  0.00000000E+00  0.00000000E+00
  0.00000000E+00  0.00000000E+00  0.00000000E+00
  0.00000000E+00  0.00000000E+00  0.00000000E+00
  0.00000000E+00  0.00000000E+00  0.00000000E+00
  0.00000000E+00  0.00000000E+00  0.00000000E+00
  0.00000000E+00  0.00000000E+00  0.00000000E+00
  0.00000000E+00  0.00000000E+00  0.00000000E+00
  0.00000000E+00  0.00000000E+00  0.00000000E+00
  0.00000000E+00  0.00000000E+00  0.00000000E+00
  0.00000000E+00  0.00000000E+00  0.00000000E+00
  0.00000000E+00  0.00000000E+00  0.00000000E+00
  0.00000000E+00  0.00000000E+00  0.00000000E+00
  0.00000000E+00  0.00000000E+00  0.00000000E+00
  0.00000000E+00  0.00000000E+00  0.00000000E+00
  0.00000000E+00  0.00000000E+00  0.00000000E+00
  0.00000000E+00  0.00000000E+00  0.00000000E+00
  0.00000000E+00  0.00000000E+00  0.00000000E+00
  0.00000000E+00  0.00000000E+00  0.00000000E+00
  0.00000000E+00  0.00000000E+00  0.00000000E+00
