Pb Rb Cl                                
   1.00000000000000     
    11.3908520000000006  -11.3908520000000006    0.0000000000000000
    11.3908520000000006   11.3908520000000006    0.0000000000000000
     0.0000000000000000    0.0000000000000000   22.7817040000000013
   Cl   Pb   Rb
    96    32    32
Direct
  0.1553124698949813  0.0937947356922101  0.0146974803244370
  0.1087258156112652  0.1401121399070583  0.2190212062156772
  0.1554178305431307  0.0934912720009204  0.5146978799198082
  0.1096449397074353  0.1402809846429649  0.7185904127668626
  0.6397248548033575  0.1095749722896261  0.0303662124217161
  0.5926439202584076  0.1543737492215826  0.2342596056233038
  0.6392799504534823  0.1085724702861387  0.5303470536854515
  0.5929275139886346  0.1542812768530803  0.7341752383395763
  0.3435394143661282  0.4055297679647339  0.9848241704090898
  0.3893930309358767  0.3594494718520487  0.2802834507815977
  0.3436193515335966  0.4054274312599926  0.4848565185659140
  0.3900692274883278  0.3597367453914385  0.7803423217624323
  0.1395943589663245  0.6095640788456060  0.0303385055094458
  0.0924468627002047  0.6546079308950060  0.2346274476065268
  0.1392735125790461  0.6084339983156252  0.5304540703109376
  0.0931225060491291  0.6540813704362896  0.7340432512987118
  0.8592671046675138  0.3900038948149916  0.9687815857251094
  0.9039515519423452  0.3431334040319377  0.2650627598354875
  0.8582806447129878  0.3895451815738862  0.4689490658172542
  0.9044997794029985  0.3427269119866001  0.7648260346988670
  0.6552935402673072  0.5938008843871894  0.0146319014473086
  0.6086782885579711  0.6401040397533527  0.2189749760075854
  0.6552716949890690  0.5937493906717474  0.5147365283370420
  0.6097125923084299  0.6401163601624454  0.7188183766614407
  0.3591412678605175  0.8900956465881531  0.9690128296857751
  0.4039625341568065  0.8430505172983990  0.2650295880569391
  0.3582114741155827  0.8895578744346415  0.4690918827269261
  0.4044178450269543  0.8428518933314069  0.7647707519660988
  0.8435619847427070  0.9055255767619930  0.9848504229161351
  0.8893675120821983  0.8594825476011421  0.2802752885895294
  0.8435659795671324  0.9055074690583597  0.4846978771761777
  0.8901423197375748  0.8597975006844025  0.7802133553124485
  0.8999889962443132  0.1503018653777446  0.0191139775964083
  0.8481850305189295  0.0994142723951592  0.2299492957173377
  0.9001811368916254  0.1505676251569468  0.5187533591554382
  0.8487812425929405  0.0979348794445605  0.7299596266479969
  0.4003916783910069  0.1510745754111626  0.9799674226376245
  0.3480547098045378  0.0996747311699714  0.2688455514479929
  0.4005584693218597  0.1509234997426748  0.4800024869516976
  0.3479758855498921  0.0984078157970328  0.7689553836265625
  0.0993156059886092  0.3500316755798659  0.0191066769703089
  0.1483995297569170  0.4001047096929064  0.2295628142059193
  0.0995509129853143  0.3497989065548531  0.5191063904381282
  0.1483633326606519  0.3988710815337095  0.7295784917856759
  0.9000357573996516  0.6509200204947796  0.9796967968365005
  0.8480613652707357  0.5996036804243601  0.2693329352941994
  0.9005720339169403  0.6508898706412706  0.4799759611583685
  0.8480942801020290  0.5984862781468180  0.7690626287344285
  0.5995512469795294  0.3499451170745492  0.9798120590593601
  0.6484441219604554  0.3996559834883565  0.2697167867598408
  0.5994375895501703  0.3499540033543568  0.4800933554665305
  0.6491786790498477  0.3981189221785698  0.7700196600039931
  0.3999902947435373  0.6503074278420351  0.0190826301185099
  0.3482617261150945  0.5994244621921021  0.2298122187966039
  0.4002027725294669  0.6506045152587387  0.5191483519262114
  0.3488994773206122  0.5979320868133344  0.7300690096985700
  0.0995855647422243  0.8499544488533359  0.9797223996120553
  0.1484636065083740  0.8996005452337781  0.2697150839873107
  0.0990526070984551  0.8494368586239903  0.4799867356034115
  0.1491480850176130  0.8981438248982102  0.7698334027617997
  0.5993394097483813  0.8500156401799115  0.0190588874111155
  0.6485966816043717  0.9002387064163617  0.2295776864292798
  0.5996645251391740  0.8499409202808115  0.5191650142159026
  0.6482389782141099  0.8987230774166417  0.7294510848759460
  0.9945754486200541  0.9549151525843316  0.1249174148188475
  0.0050556647375248  0.0447266688425840  0.3748772214222018
  0.9938207984470707  0.9544206211751416  0.6247967817754632
  0.0044314684795947  0.0438710551040623  0.8747930760990825
  0.4543171524531017  0.9939935215180830  0.1246231384320648
  0.5439644740685600  0.0051958401830367  0.3746612978356768
  0.4545547936727005 -0.0057782418416057  0.6246536647669385
  0.5443269036741755  0.0051263704864142  0.8746644388156982
  0.2939967583404636  0.2548723174362123  0.1246633456567157
  0.2048345720488635  0.2445950086743248  0.3746791744231882
  0.2939568068289410  0.2545898110544763  0.6246617768051550
  0.2043261944551314  0.2435473329521512  0.8746185549830904
  0.9545299236316567  0.4944707876577817  0.1247330996262406
  0.0441184271126532  0.5048198626411710  0.3748045537225669
  0.9545344812462865  0.4937391859817689  0.6247607284775958
  0.0446070379775479  0.5053719681460098  0.8747459455701200
  0.7551678440034888  0.2948830784687306  0.1247433264711285
  0.7431437496571667  0.2048564896860881  0.3747371662371066
  0.7548675850480785  0.2943642600628891  0.6247394771555854
  0.7437911324445553  0.2045838105509122  0.8748008043375970
  0.4941122662862017  0.4547562234943014  0.1249350527222442
  0.5046464203117651  0.5441774206060793  0.3749495101335914
  0.4937100227934940  0.4541601824855954  0.6248844156800197
  0.5042684996804503  0.5438056565813961  0.8748375683873137
  0.2547605454153962  0.7944687611110062  0.1247880065388165
  0.2440652707687078  0.7046409131381666  0.3748163581727653
  0.2546781300025132  0.7941707659734371  0.6248074581474985
  0.2439102375239222  0.7046477201377326  0.8748088726712346
  0.7940073017116067  0.7543974247570624  0.1242203246609353
  0.7042967851684502  0.7441101221408009  0.3742160540989428
  0.7938690909791314  0.7545787492666518  0.6241571013607564
  0.7040912092679668  0.7439287501471544  0.8741404928806017
 -0.0003678587515318 -0.0001540813832620 -0.0001985868560820
  0.9995637907158220 -0.0000049175056717  0.2497526227295593
  0.9996917615672976 -0.0000856192433834  0.4997620251226456
 -0.0020917827835590  0.9981313291151807  0.7497182683709840
  0.4996407952313810 -0.0000397953834877 -0.0002264660744748
  0.4996638090418428  0.0001673626353709  0.2496891019388062
  0.4997105752019553  0.0000517733761150  0.4998284030859598
  0.4994846121917047 -0.0000840518533873  0.7496951900545037
  0.2498320708342948  0.2497123707035184 -0.0003298267502951
  0.2496603811322564  0.2498110049782109  0.2498007732336591
  0.2498245376907951  0.2497666062515128  0.4997819217634764
  0.2478880377409366  0.2480698549137043  0.7494232507708711
 -0.0003385513954290  0.4999365535932562  0.9996857806706164
  0.9996329725101728  0.5001850913860576  0.2497594238501058
 -0.0002528946098978  0.5000962248650516  0.4998586369288378
 -0.0003954237640351  0.4998906095476878  0.7497488447250631
  0.7496990841610385  0.2499796659629633 -0.0001995502306982
  0.7499313891387954  0.2496335974546059  0.2497742958389803
  0.7497494551747999  0.2501596664743396  0.4996880428807777
  0.7498358188031398  0.2496380366202109  0.7498371790768579
  0.4996524510003254  0.4998538041947589 -0.0002518508174125
  0.4995159538921486  0.4999226804664222  0.2496957450177239
  0.4996790070281572  0.4998931163912807  0.4998539361277112
  0.4979500532816069  0.4979992599275614  0.7497924264357488
  0.2496963468358610  0.7499619624793893 -0.0002375294421158
  0.2498717761965866  0.7495945297383931  0.2497887844302581
  0.2497446358125927  0.7499520016651214  0.4997027076035158
  0.2498353090941717  0.7496333876314051  0.7498048439625777
  0.7498907143756499  0.7496773410599800 -0.0003063879719534
  0.7495492144804993  0.7496981901588775  0.2499368243133118
  0.7498600467940550  0.7498014824249565  0.4996886070107718
  0.7479243553988059  0.7479978014621808  0.7494386624500023
  0.9814901827948911  0.2688191774452290  0.1336666438781124
  0.9907557657476568  0.2590820361601937  0.3929062315406786
  0.9817701746939270  0.2683063095378436  0.6334751130715873
  0.9902864149869138  0.2581954404382543  0.8928497004537524
  0.5080990547898618  0.2407491905549383  0.1063106230758562
  0.5181139595230515  0.2324621195694048  0.3654620124130178
  0.5083608319644657  0.2403199976751095  0.6062586615228842
  0.5184979793610396  0.2322352624016434  0.8654967502613818
  0.2668283176989648  0.4814326726481043  0.1155837733833116
  0.2583342988573619  0.4905812864195055  0.3567928125916079
  0.2667043521174639  0.4806574529430429  0.6159551799966475
  0.2585326586308290  0.4903440387373422  0.8567221140322665
  0.0082628581665848  0.7407102395074529  0.1064772234956408
  0.0176936223701199  0.7325151904248751  0.3654774126269478
  0.0085176470049873  0.7405918177538988  0.6062398705364737
  0.0183782324455807  0.7321336125103377  0.8653314993845745
  0.7402571147575984  0.5092558374071001  0.1425890691772254
  0.7305349651956824  0.5172784084492248  0.3835139742236987
  0.7401996591051512  0.5081533628323855  0.6425629494248433
  0.7305954052830969  0.5169868515631599  0.8835324051665702
  0.4813422034256410  0.7685820674464544  0.1336164013681366
  0.4900091185499003  0.7584566788635499  0.3929476034313255
  0.4822911770062753  0.7683660558807688  0.6337603001915934
  0.4903242397951664  0.7584685677779758  0.8927647136771097
  0.2398291534557067  0.0087568210486075  0.1425287379306739
  0.2309265443433687  0.0175644641816101  0.3834000844186644
  0.2402256893056219  0.0080675114535895  0.6425346082445726
  0.2305421972525594  0.0168367580120523  0.8835230210199209
  0.7668018376628796  0.9816018390659519  0.1156304941763871
  0.7579746506604527  0.9908663913522195  0.3565960616121044
  0.7665656051421885  0.9804566187058195  0.6157010334195065
  0.7582376392908179  0.9900289732556156  0.8566124006832012
 
  0.00000000E+00  0.00000000E+00  0.00000000E+00
  0.00000000E+00  0.00000000E+00  0.00000000E+00
  0.00000000E+00  0.00000000E+00  0.00000000E+00
  0.00000000E+00  0.00000000E+00  0.00000000E+00
  0.00000000E+00  0.00000000E+00  0.00000000E+00
  0.00000000E+00  0.00000000E+00  0.00000000E+00
  0.00000000E+00  0.00000000E+00  0.00000000E+00
  0.00000000E+00  0.00000000E+00  0.00000000E+00
  0.00000000E+00  0.00000000E+00  0.00000000E+00
  0.00000000E+00  0.00000000E+00  0.00000000E+00
  0.00000000E+00  0.00000000E+00  0.00000000E+00
  0.00000000E+00  0.00000000E+00  0.00000000E+00
  0.00000000E+00  0.00000000E+00  0.00000000E+00
  0.00000000E+00  0.00000000E+00  0.00000000E+00
  0.00000000E+00  0.00000000E+00  0.00000000E+00
  0.00000000E+00  0.00000000E+00  0.00000000E+00
  0.00000000E+00  0.00000000E+00  0.00000000E+00
  0.00000000E+00  0.00000000E+00  0.00000000E+00
  0.00000000E+00  0.00000000E+00  0.00000000E+00
  0.00000000E+00  0.00000000E+00  0.00000000E+00
  0.00000000E+00  0.00000000E+00  0.00000000E+00
  0.00000000E+00  0.00000000E+00  0.00000000E+00
  0.00000000E+00  0.00000000E+00  0.00000000E+00
  0.00000000E+00  0.00000000E+00  0.00000000E+00
  0.00000000E+00  0.00000000E+00  0.00000000E+00
  0.00000000E+00  0.00000000E+00  0.00000000E+00
  0.00000000E+00  0.00000000E+00  0.00000000E+00
  0.00000000E+00  0.00000000E+00  0.00000000E+00
  0.00000000E+00  0.00000000E+00  0.00000000E+00
  0.00000000E+00  0.00000000E+00  0.00000000E+00
  0.00000000E+00  0.00000000E+00  0.00000000E+00
  0.00000000E+00  0.00000000E+00  0.00000000E+00
  0.00000000E+00  0.00000000E+00  0.00000000E+00
  0.00000000E+00  0.00000000E+00  0.00000000E+00
  0.00000000E+00  0.00000000E+00  0.00000000E+00
  0.00000000E+00  0.00000000E+00  0.00000000E+00
  0.00000000E+00  0.00000000E+00  0.00000000E+00
  0.00000000E+00  0.00000000E+00  0.00000000E+00
  0.00000000E+00  0.00000000E+00  0.00000000E+00
  0.00000000E+00  0.00000000E+00  0.00000000E+00
  0.00000000E+00  0.00000000E+00  0.00000000E+00
  0.00000000E+00  0.00000000E+00  0.00000000E+00
  0.00000000E+00  0.00000000E+00  0.00000000E+00
  0.00000000E+00  0.00000000E+00  0.00000000E+00
  0.00000000E+00  0.00000000E+00  0.00000000E+00
  0.00000000E+00  0.00000000E+00  0.00000000E+00
  0.00000000E+00  0.00000000E+00  0.00000000E+00
  0.00000000E+00  0.00000000E+00  0.00000000E+00
  0.00000000E+00  0.00000000E+00  0.00000000E+00
  0.00000000E+00  0.00000000E+00  0.00000000E+00
  0.00000000E+00  0.00000000E+00  0.00000000E+00
  0.00000000E+00  0.00000000E+00  0.00000000E+00
  0.00000000E+00  0.00000000E+00  0.00000000E+00
  0.00000000E+00  0.00000000E+00  0.00000000E+00
  0.00000000E+00  0.00000000E+00  0.00000000E+00
  0.00000000E+00  0.00000000E+00  0.00000000E+00
  0.00000000E+00  0.00000000E+00  0.00000000E+00
  0.00000000E+00  0.00000000E+00  0.00000000E+00
  0.00000000E+00  0.00000000E+00  0.00000000E+00
  0.00000000E+00  0.00000000E+00  0.00000000E+00
  0.00000000E+00  0.00000000E+00  0.00000000E+00
  0.00000000E+00  0.00000000E+00  0.00000000E+00
  0.00000000E+00  0.00000000E+00  0.00000000E+00
  0.00000000E+00  0.00000000E+00  0.00000000E+00
  0.00000000E+00  0.00000000E+00  0.00000000E+00
  0.00000000E+00  0.00000000E+00  0.00000000E+00
  0.00000000E+00  0.00000000E+00  0.00000000E+00
  0.00000000E+00  0.00000000E+00  0.00000000E+00
  0.00000000E+00  0.00000000E+00  0.00000000E+00
  0.00000000E+00  0.00000000E+00  0.00000000E+00
  0.00000000E+00  0.00000000E+00  0.00000000E+00
  0.00000000E+00  0.00000000E+00  0.00000000E+00
  0.00000000E+00  0.00000000E+00  0.00000000E+00
  0.00000000E+00  0.00000000E+00  0.00000000E+00
  0.00000000E+00  0.00000000E+00  0.00000000E+00
  0.00000000E+00  0.00000000E+00  0.00000000E+00
  0.00000000E+00  0.00000000E+00  0.00000000E+00
  0.00000000E+00  0.00000000E+00  0.00000000E+00
  0.00000000E+00  0.00000000E+00  0.00000000E+00
  0.00000000E+00  0.00000000E+00  0.00000000E+00
  0.00000000E+00  0.00000000E+00  0.00000000E+00
  0.00000000E+00  0.00000000E+00  0.00000000E+00
  0.00000000E+00  0.00000000E+00  0.00000000E+00
  0.00000000E+00  0.00000000E+00  0.00000000E+00
  0.00000000E+00  0.00000000E+00  0.00000000E+00
  0.00000000E+00  0.00000000E+00  0.00000000E+00
  0.00000000E+00  0.00000000E+00  0.00000000E+00
  0.00000000E+00  0.00000000E+00  0.00000000E+00
  0.00000000E+00  0.00000000E+00  0.00000000E+00
  0.00000000E+00  0.00000000E+00  0.00000000E+00
  0.00000000E+00  0.00000000E+00  0.00000000E+00
  0.00000000E+00  0.00000000E+00  0.00000000E+00
  0.00000000E+00  0.00000000E+00  0.00000000E+00
  0.00000000E+00  0.00000000E+00  0.00000000E+00
  0.00000000E+00  0.00000000E+00  0.00000000E+00
  0.00000000E+00  0.00000000E+00  0.00000000E+00
  0.00000000E+00  0.00000000E+00  0.00000000E+00
  0.00000000E+00  0.00000000E+00  0.00000000E+00
  0.00000000E+00  0.00000000E+00  0.00000000E+00
  0.00000000E+00  0.00000000E+00  0.00000000E+00
  0.00000000E+00  0.00000000E+00  0.00000000E+00
  0.00000000E+00  0.00000000E+00  0.00000000E+00
  0.00000000E+00  0.00000000E+00  0.00000000E+00
  0.00000000E+00  0.00000000E+00  0.00000000E+00
  0.00000000E+00  0.00000000E+00  0.00000000E+00
  0.00000000E+00  0.00000000E+00  0.00000000E+00
  0.00000000E+00  0.00000000E+00  0.00000000E+00
  0.00000000E+00  0.00000000E+00  0.00000000E+00
  0.00000000E+00  0.00000000E+00  0.00000000E+00
  0.00000000E+00  0.00000000E+00  0.00000000E+00
  0.00000000E+00  0.00000000E+00  0.00000000E+00
  0.00000000E+00  0.00000000E+00  0.00000000E+00
  0.00000000E+00  0.00000000E+00  0.00000000E+00
  0.00000000E+00  0.00000000E+00  0.00000000E+00
  0.00000000E+00  0.00000000E+00  0.00000000E+00
  0.00000000E+00  0.00000000E+00  0.00000000E+00
  0.00000000E+00  0.00000000E+00  0.00000000E+00
  0.00000000E+00  0.00000000E+00  0.00000000E+00
  0.00000000E+00  0.00000000E+00  0.00000000E+00
  0.00000000E+00  0.00000000E+00  0.00000000E+00
  0.00000000E+00  0.00000000E+00  0.00000000E+00
  0.00000000E+00  0.00000000E+00  0.00000000E+00
  0.00000000E+00  0.00000000E+00  0.00000000E+00
  0.00000000E+00  0.00000000E+00  0.00000000E+00
  0.00000000E+00  0.00000000E+00  0.00000000E+00
  0.00000000E+00  0.00000000E+00  0.00000000E+00
  0.00000000E+00  0.00000000E+00  0.00000000E+00
  0.00000000E+00  0.00000000E+00  0.00000000E+00
  0.00000000E+00  0.00000000E+00  0.00000000E+00
  0.00000000E+00  0.00000000E+00  0.00000000E+00
  0.00000000E+00  0.00000000E+00  0.00000000E+00
  0.00000000E+00  0.00000000E+00  0.00000000E+00
  0.00000000E+00  0.00000000E+00  0.00000000E+00
  0.00000000E+00  0.00000000E+00  0.00000000E+00
  0.00000000E+00  0.00000000E+00  0.00000000E+00
  0.00000000E+00  0.00000000E+00  0.00000000E+00
  0.00000000E+00  0.00000000E+00  0.00000000E+00
  0.00000000E+00  0.00000000E+00  0.00000000E+00
  0.00000000E+00  0.00000000E+00  0.00000000E+00
  0.00000000E+00  0.00000000E+00  0.00000000E+00
  0.00000000E+00  0.00000000E+00  0.00000000E+00
  0.00000000E+00  0.00000000E+00  0.00000000E+00
  0.00000000E+00  0.00000000E+00  0.00000000E+00
  0.00000000E+00  0.00000000E+00  0.00000000E+00
  0.00000000E+00  0.00000000E+00  0.00000000E+00
  0.00000000E+00  0.00000000E+00  0.00000000E+00
  0.00000000E+00  0.00000000E+00  0.00000000E+00
  0.00000000E+00  0.00000000E+00  0.00000000E+00
  0.00000000E+00  0.00000000E+00  0.00000000E+00
  0.00000000E+00  0.00000000E+00  0.00000000E+00
  0.00000000E+00  0.00000000E+00  0.00000000E+00
  0.00000000E+00  0.00000000E+00  0.00000000E+00
  0.00000000E+00  0.00000000E+00  0.00000000E+00
  0.00000000E+00  0.00000000E+00  0.00000000E+00
  0.00000000E+00  0.00000000E+00  0.00000000E+00
  0.00000000E+00  0.00000000E+00  0.00000000E+00
  0.00000000E+00  0.00000000E+00  0.00000000E+00
  0.00000000E+00  0.00000000E+00  0.00000000E+00
  0.00000000E+00  0.00000000E+00  0.00000000E+00
  0.00000000E+00  0.00000000E+00  0.00000000E+00
