Cs Be Cl                                
   1.00000000000000     
     9.6942860000000000   -9.6942860000000000    0.0000000000000000
     9.6942860000000000    9.6942860000000000    0.0000000000000000
     0.0000000000000000    0.0000000000000000   19.3885719999999999
   Cs   Be   Cl
    32    32    96
Direct
  0.0010776631162296  0.0007738177006282  0.0141325716897236
  0.0024870688136959  0.0125159453130822  0.2586981360167505
  0.0019288231763774  0.0097053378056448  0.5000026767346692
  0.9947242899332077  0.0146797168586657  0.7500212421757332
  0.4976151265562626  0.0038279910735033  0.0089045579315738
  0.5103861226863274  0.0140270077327683  0.2544758818279153
  0.4917682217391379  0.9824164250497891  0.5036310984156754
  0.4925739547083063  0.0012444377869701  0.7383937529343929
  0.2616810689275664  0.2447964997141098  0.0086032267770510
  0.2700771438815211  0.2474268976737003  0.2519382883407926
  0.2553788814267599  0.2587100170888787  0.5073833238579838
  0.2371730917100235  0.2677486012782328  0.7468698732998115
  0.9938570842212456  0.5005322460292697  0.9941874357919610
  0.9836537217802085  0.4813452040685652  0.2567477307255389
  0.0106631644014354  0.5160094544056857  0.4905685240719297
  0.0086250304168496  0.5162235661701430  0.7534114653410663
  0.7499145435714726  0.2645748453216758  0.9982437121709247
  0.7526063474696968  0.2505822462444223  0.2553483476782765
  0.7573915209632004  0.2541498991382056  0.5055943028354195
  0.7490934286652110  0.2510950399931917  0.7515823550399521
  0.4911294319798114  0.4900557424229751  0.9915187443553217
  0.5029403461467294  0.5004344969716283  0.2496128957883236
  0.4980208100738938  0.4964628239433921  0.5044415020055335
  0.4992106202980712  0.4950649105990280  0.7489887964349056
  0.2444840368352794  0.7408694561026080  0.0083745717322648
  0.2508701204532702  0.7304616274898879  0.2403536873183677
  0.2521694831924430  0.7579697287856390  0.4941769195018148
  0.2467286024194475  0.7589688770523007  0.7645289255210310
  0.7571575035822424  0.7638972868614937  0.0046688797778326
  0.7348035598633244  0.7549116930728260  0.2566678821971048
  0.7661360668526319  0.7303117295950972  0.4955611980368085
  0.7654016445878036  0.7420067404462519  0.7413739211777101
  0.9747731515941754  0.2745440082969477  0.1092341592194591
  0.0572161187122824  0.2405351696085829  0.3788426628895075
  0.9826323647702591  0.2296983686790184  0.6498209338820088
  0.0148432546762956  0.2383914160311153  0.9015010471466685
  0.4932927930623767  0.2316633508777472  0.1524402323980267
  0.5198879180944468  0.2220971428035393  0.4232391891575085
  0.5072243270176732  0.2926552477497247  0.6310845895629080
  0.5014564576786328  0.1858017351473423  0.8980246791811078
  0.1856476155151845  0.4670063597552851  0.1318122467704943
  0.2557702869160736  0.4517675172438789  0.3982472296102484
  0.2367128508031093  0.5410146183858016  0.6463841275477717
  0.2800469535476961  0.5319517046627883  0.8595849010733014
  0.9744973051868575  0.6816356970899247  0.1305427425757648
  0.9740189849984676  0.7212948368742426  0.3356535233547205
  0.0264473292500503  0.7506661141520903  0.5978733441667680
  0.9952869501876679  0.7640446840425690  0.8572878439968462
  0.7176080450523575  0.5270932265849545  0.0936791316696262
  0.7592726135715639  0.5093640853312207  0.3515303446982845
  0.8107101917760832  0.4605912549157307  0.6213775400699066
  0.7141739081052236  0.4789024464804584  0.8781710429441949
  0.5012454238013455  0.6902928160962633  0.0907187360699085
  0.4821589289549887  0.7638626866170776  0.3382948323951786
  0.5613994271619834  0.7391541585474849  0.5949588687178972
  0.5061107812490167  0.8065067686882628  0.8397400606772445
  0.2266601316427636  0.9673305159127888  0.1422128064376940
  0.2546094371786422  0.9404586707077814  0.3388046673362669
  0.2904241322868842  0.9903111483713664  0.6000849434584704
  0.2412155375397890  0.0457572557622569  0.8759113191066721
  0.7387450353187738  0.9653797202822075  0.1004763204647081
  0.7494689413790784  0.0428103396243880  0.3809048222997401
  0.7336097475156627  0.9707485854675982  0.5806287710819895
  0.7430409990237482  0.9420477524918356  0.8425814327817495
  0.0169391324905401  0.2468348792859464  0.0090507027724782
  0.9981258595494047  0.2510344513115726  0.2880304281381689
  0.0069676469361999  0.2683815512757786  0.4698428500814916
  0.9926306470398031  0.2671800149447287  0.7456691034057354
  0.4993205763555991  0.2487480012302132  0.9835126992279941
  0.5127015051572510  0.2553380291383909  0.2526933942848960
  0.5013549593204998  0.2177590617510333  0.5309758589810971
  0.5089618712622586  0.2316193909904875  0.7234757438902489
  0.2371788416164048  0.4773099640630737  0.0393955146792533
  0.2529539458378530  0.4847923165798329  0.2193313842110453
  0.2528498700588988  0.5257278055825445  0.4793698215129865
  0.2523202601016388  0.5109462800691664  0.7525352421178597
  0.9855473051689138  0.7485592278325826  0.0434272552553567
  0.9742034153989756  0.7464045378566943  0.2251959489442554
  0.0149403619052788  0.7599982037227194  0.4980646844999154
  0.0031018152209397  0.7700310714493572  0.7595723104835866
  0.7455291802541918  0.5254896211446590  0.9948386023067392
  0.7411219633243595  0.4959489950728086  0.2529271266043950
  0.7691414230691251  0.5013705995021719  0.5328417844023364
  0.7763243327580781  0.4972417920360763  0.7127166038091426
  0.5066686170859072  0.7530505464407813  0.0044500349142969
  0.4896067711875751  0.7691711875698708  0.2377852289197859
  0.4898732782616914  0.7392265073705377  0.5133617115379603
  0.5098837180191002  0.7490421574406041  0.7526125733556671
  0.2562091375945724  0.9957514829313919  0.9677279712771325
  0.2632593933450754  0.0078389306100579  0.2530637553092328
  0.2436619811260799  0.0012585605241253  0.5080015704095184
  0.2397640487731789  0.9944922972675065  0.7830400045247704
  0.7464714309040971  0.0214636676834161  0.0102387561286142
  0.7455008037059424  0.9887575448777394  0.2879529463469453
  0.7475444685225555  0.9591539165939349  0.4747497057654629
  0.7392992731336748  0.9978232826390918  0.7554638530357998
  0.1659024562804284  0.0938935846793720  0.1213007664187843
  0.1505923309419338  0.1332038661920913  0.3802310269386719
  0.1040763220531483  0.1697076171005077  0.6186792416103478
  0.1193994965525694  0.1300348212805924  0.8772358734578757
  0.6222291078196178  0.1668123908875185  0.1225671124994400
  0.6192579852825717  0.1102740370294951  0.3925033369896553
  0.6584871642664155  0.0821460238005914  0.6095497448122166
  0.6163861286331556  0.1186501144508771  0.8702146948052532
  0.4225420500484220  0.3534675582673568  0.1207169355712277
  0.3729284962323576  0.3978257440229340  0.3684020051740085
  0.3868014719283950  0.3675153264552455  0.6258495916272978
  0.3296596708020784  0.4005969066812067  0.8820952561775766
  0.0978801393885953  0.5982706750327876  0.1340335845816445
  0.0981273706920678  0.6540366369239901  0.3552154471038078
  0.1393908153815731  0.6530061033686954  0.6312194062928957
  0.1551342615707304  0.5918382841808503  0.8881873621827615
  0.8822189093195090  0.3789216923527263  0.1190709399069248
  0.8343005889533609  0.3985315035192575  0.3854834160778679
  0.9243349303137492  0.3725242761799547  0.6103149301541744
  0.8433858873618059  0.4249491704797527  0.8663879113438984
  0.6270893670088713  0.6445401753824258  0.1268617844042401
  0.6470776956045239  0.5790880074913332  0.3891420390701732
  0.6182085322463753  0.6252064241785982  0.6296666798508733
  0.6589882140609934  0.6065939040664544  0.8577274887189037
  0.3486778136354490  0.8986304072080546  0.1187716060060028
  0.3764348384729844  0.8921259148979874  0.3729586395607364
  0.3487753133844814  0.8715545969502189  0.6321024592155614
  0.3998979123527784  0.8718207457504791  0.8780022196695695
  0.8545114732272259  0.9140750925718866  0.1397982084141753
  0.9131183985411307  0.8440308185997543  0.3646920415397653
  0.8466192862287720  0.9058891383479236  0.6172521521593912
  0.8637186367230029  0.9092707294702281  0.8832828583338567
  0.9148310782727316  0.1534521571476156  0.1390346688448196
  0.8634565436750847  0.1231961673881822  0.3883069609434569
  0.8768325895515146  0.1416433862326177  0.6270011300869679
  0.8937884760601501  0.1680286333809205  0.8810663738869841
  0.3954515774034855  0.1285963881459407  0.1313710653698013
  0.4004968857213377  0.1575732313444507  0.3902155523010701
  0.3367749703859075  0.1085719330262740  0.6387662727856250
  0.3756713358587068  0.1471294522554011  0.8594279224029170
  0.1088585675145688  0.3357485973548399  0.1438671652569551
  0.1378117905356969  0.3933595002094176  0.3653680362789885
  0.1618710038977919  0.4250317933740913  0.6186371236809159
  0.0823918363534242  0.3575519892674968  0.8771906512548504
  0.8458173970104482  0.6053001358592103  0.1325415642066000
  0.8719427066254755  0.6226241809198976  0.3662801095951285
  0.9130166300934422  0.6658087896166490  0.6252251483195235
  0.9061392608063836  0.6658331592568431  0.8879063640324659
  0.6499618662549254  0.4115755136552528  0.1189432671169555
  0.5909364967181941  0.3379000770024901  0.3970785462330809
  0.6280318680312025  0.3685321912786468  0.6233733397759866
  0.6166100236101880  0.3754072781559482  0.8694746836017221
  0.3890398610702034  0.6242405308910504  0.1198525127917506
  0.4040079124526718  0.6541337041656806  0.3693788197875730
  0.3597550110532953  0.6067124280198340  0.6249886329810914
  0.3854022427105236  0.6285700303682943  0.8761657505261656
  0.1224885933407320  0.8719799879404646  0.1399338712739340
  0.1387857542823326  0.8864980490887617  0.3698366505708582
  0.0907233045349279  0.8752455324194138  0.6290812412803206
  0.0923099733385329  0.8431981415857027  0.9007666742116562
  0.6232557978066930  0.8987780808243263  0.1292999644750058
  0.5938298809999247  0.8271790849820699  0.3806932340266570
  0.6187055220835137  0.8623376300742096  0.6233219621986736
  0.6320158741324700  0.8630353671053020  0.8796872878509783
 
  0.00000000E+00  0.00000000E+00  0.00000000E+00
  0.00000000E+00  0.00000000E+00  0.00000000E+00
  0.00000000E+00  0.00000000E+00  0.00000000E+00
  0.00000000E+00  0.00000000E+00  0.00000000E+00
  0.00000000E+00  0.00000000E+00  0.00000000E+00
  0.00000000E+00  0.00000000E+00  0.00000000E+00
  0.00000000E+00  0.00000000E+00  0.00000000E+00
  0.00000000E+00  0.00000000E+00  0.00000000E+00
  0.00000000E+00  0.00000000E+00  0.00000000E+00
  0.00000000E+00  0.00000000E+00  0.00000000E+00
  0.00000000E+00  0.00000000E+00  0.00000000E+00
  0.00000000E+00  0.00000000E+00  0.00000000E+00
  0.00000000E+00  0.00000000E+00  0.00000000E+00
  0.00000000E+00  0.00000000E+00  0.00000000E+00
  0.00000000E+00  0.00000000E+00  0.00000000E+00
  0.00000000E+00  0.00000000E+00  0.00000000E+00
  0.00000000E+00  0.00000000E+00  0.00000000E+00
  0.00000000E+00  0.00000000E+00  0.00000000E+00
  0.00000000E+00  0.00000000E+00  0.00000000E+00
  0.00000000E+00  0.00000000E+00  0.00000000E+00
  0.00000000E+00  0.00000000E+00  0.00000000E+00
  0.00000000E+00  0.00000000E+00  0.00000000E+00
  0.00000000E+00  0.00000000E+00  0.00000000E+00
  0.00000000E+00  0.00000000E+00  0.00000000E+00
  0.00000000E+00  0.00000000E+00  0.00000000E+00
  0.00000000E+00  0.00000000E+00  0.00000000E+00
  0.00000000E+00  0.00000000E+00  0.00000000E+00
  0.00000000E+00  0.00000000E+00  0.00000000E+00
  0.00000000E+00  0.00000000E+00  0.00000000E+00
  0.00000000E+00  0.00000000E+00  0.00000000E+00
  0.00000000E+00  0.00000000E+00  0.00000000E+00
  0.00000000E+00  0.00000000E+00  0.00000000E+00
  0.00000000E+00  0.00000000E+00  0.00000000E+00
  0.00000000E+00  0.00000000E+00  0.00000000E+00
  0.00000000E+00  0.00000000E+00  0.00000000E+00
  0.00000000E+00  0.00000000E+00  0.00000000E+00
  0.00000000E+00  0.00000000E+00  0.00000000E+00
  0.00000000E+00  0.00000000E+00  0.00000000E+00
  0.00000000E+00  0.00000000E+00  0.00000000E+00
  0.00000000E+00  0.00000000E+00  0.00000000E+00
  0.00000000E+00  0.00000000E+00  0.00000000E+00
  0.00000000E+00  0.00000000E+00  0.00000000E+00
  0.00000000E+00  0.00000000E+00  0.00000000E+00
  0.00000000E+00  0.00000000E+00  0.00000000E+00
  0.00000000E+00  0.00000000E+00  0.00000000E+00
  0.00000000E+00  0.00000000E+00  0.00000000E+00
  0.00000000E+00  0.00000000E+00  0.00000000E+00
  0.00000000E+00  0.00000000E+00  0.00000000E+00
  0.00000000E+00  0.00000000E+00  0.00000000E+00
  0.00000000E+00  0.00000000E+00  0.00000000E+00
  0.00000000E+00  0.00000000E+00  0.00000000E+00
  0.00000000E+00  0.00000000E+00  0.00000000E+00
  0.00000000E+00  0.00000000E+00  0.00000000E+00
  0.00000000E+00  0.00000000E+00  0.00000000E+00
  0.00000000E+00  0.00000000E+00  0.00000000E+00
  0.00000000E+00  0.00000000E+00  0.00000000E+00
  0.00000000E+00  0.00000000E+00  0.00000000E+00
  0.00000000E+00  0.00000000E+00  0.00000000E+00
  0.00000000E+00  0.00000000E+00  0.00000000E+00
  0.00000000E+00  0.00000000E+00  0.00000000E+00
  0.00000000E+00  0.00000000E+00  0.00000000E+00
  0.00000000E+00  0.00000000E+00  0.00000000E+00
  0.00000000E+00  0.00000000E+00  0.00000000E+00
  0.00000000E+00  0.00000000E+00  0.00000000E+00
  0.00000000E+00  0.00000000E+00  0.00000000E+00
  0.00000000E+00  0.00000000E+00  0.00000000E+00
  0.00000000E+00  0.00000000E+00  0.00000000E+00
  0.00000000E+00  0.00000000E+00  0.00000000E+00
  0.00000000E+00  0.00000000E+00  0.00000000E+00
  0.00000000E+00  0.00000000E+00  0.00000000E+00
  0.00000000E+00  0.00000000E+00  0.00000000E+00
  0.00000000E+00  0.00000000E+00  0.00000000E+00
  0.00000000E+00  0.00000000E+00  0.00000000E+00
  0.00000000E+00  0.00000000E+00  0.00000000E+00
  0.00000000E+00  0.00000000E+00  0.00000000E+00
  0.00000000E+00  0.00000000E+00  0.00000000E+00
  0.00000000E+00  0.00000000E+00  0.00000000E+00
  0.00000000E+00  0.00000000E+00  0.00000000E+00
  0.00000000E+00  0.00000000E+00  0.00000000E+00
  0.00000000E+00  0.00000000E+00  0.00000000E+00
  0.00000000E+00  0.00000000E+00  0.00000000E+00
  0.00000000E+00  0.00000000E+00  0.00000000E+00
  0.00000000E+00  0.00000000E+00  0.00000000E+00
  0.00000000E+00  0.00000000E+00  0.00000000E+00
  0.00000000E+00  0.00000000E+00  0.00000000E+00
  0.00000000E+00  0.00000000E+00  0.00000000E+00
  0.00000000E+00  0.00000000E+00  0.00000000E+00
  0.00000000E+00  0.00000000E+00  0.00000000E+00
  0.00000000E+00  0.00000000E+00  0.00000000E+00
  0.00000000E+00  0.00000000E+00  0.00000000E+00
  0.00000000E+00  0.00000000E+00  0.00000000E+00
  0.00000000E+00  0.00000000E+00  0.00000000E+00
  0.00000000E+00  0.00000000E+00  0.00000000E+00
  0.00000000E+00  0.00000000E+00  0.00000000E+00
  0.00000000E+00  0.00000000E+00  0.00000000E+00
  0.00000000E+00  0.00000000E+00  0.00000000E+00
  0.00000000E+00  0.00000000E+00  0.00000000E+00
  0.00000000E+00  0.00000000E+00  0.00000000E+00
  0.00000000E+00  0.00000000E+00  0.00000000E+00
  0.00000000E+00  0.00000000E+00  0.00000000E+00
  0.00000000E+00  0.00000000E+00  0.00000000E+00
  0.00000000E+00  0.00000000E+00  0.00000000E+00
  0.00000000E+00  0.00000000E+00  0.00000000E+00
  0.00000000E+00  0.00000000E+00  0.00000000E+00
  0.00000000E+00  0.00000000E+00  0.00000000E+00
  0.00000000E+00  0.00000000E+00  0.00000000E+00
  0.00000000E+00  0.00000000E+00  0.00000000E+00
  0.00000000E+00  0.00000000E+00  0.00000000E+00
  0.00000000E+00  0.00000000E+00  0.00000000E+00
  0.00000000E+00  0.00000000E+00  0.00000000E+00
  0.00000000E+00  0.00000000E+00  0.00000000E+00
  0.00000000E+00  0.00000000E+00  0.00000000E+00
  0.00000000E+00  0.00000000E+00  0.00000000E+00
  0.00000000E+00  0.00000000E+00  0.00000000E+00
  0.00000000E+00  0.00000000E+00  0.00000000E+00
  0.00000000E+00  0.00000000E+00  0.00000000E+00
  0.00000000E+00  0.00000000E+00  0.00000000E+00
  0.00000000E+00  0.00000000E+00  0.00000000E+00
  0.00000000E+00  0.00000000E+00  0.00000000E+00
  0.00000000E+00  0.00000000E+00  0.00000000E+00
  0.00000000E+00  0.00000000E+00  0.00000000E+00
  0.00000000E+00  0.00000000E+00  0.00000000E+00
  0.00000000E+00  0.00000000E+00  0.00000000E+00
  0.00000000E+00  0.00000000E+00  0.00000000E+00
  0.00000000E+00  0.00000000E+00  0.00000000E+00
  0.00000000E+00  0.00000000E+00  0.00000000E+00
  0.00000000E+00  0.00000000E+00  0.00000000E+00
  0.00000000E+00  0.00000000E+00  0.00000000E+00
  0.00000000E+00  0.00000000E+00  0.00000000E+00
  0.00000000E+00  0.00000000E+00  0.00000000E+00
  0.00000000E+00  0.00000000E+00  0.00000000E+00
  0.00000000E+00  0.00000000E+00  0.00000000E+00
  0.00000000E+00  0.00000000E+00  0.00000000E+00
  0.00000000E+00  0.00000000E+00  0.00000000E+00
  0.00000000E+00  0.00000000E+00  0.00000000E+00
  0.00000000E+00  0.00000000E+00  0.00000000E+00
  0.00000000E+00  0.00000000E+00  0.00000000E+00
  0.00000000E+00  0.00000000E+00  0.00000000E+00
  0.00000000E+00  0.00000000E+00  0.00000000E+00
  0.00000000E+00  0.00000000E+00  0.00000000E+00
  0.00000000E+00  0.00000000E+00  0.00000000E+00
  0.00000000E+00  0.00000000E+00  0.00000000E+00
  0.00000000E+00  0.00000000E+00  0.00000000E+00
  0.00000000E+00  0.00000000E+00  0.00000000E+00
  0.00000000E+00  0.00000000E+00  0.00000000E+00
  0.00000000E+00  0.00000000E+00  0.00000000E+00
  0.00000000E+00  0.00000000E+00  0.00000000E+00
  0.00000000E+00  0.00000000E+00  0.00000000E+00
  0.00000000E+00  0.00000000E+00  0.00000000E+00
  0.00000000E+00  0.00000000E+00  0.00000000E+00
  0.00000000E+00  0.00000000E+00  0.00000000E+00
  0.00000000E+00  0.00000000E+00  0.00000000E+00
  0.00000000E+00  0.00000000E+00  0.00000000E+00
  0.00000000E+00  0.00000000E+00  0.00000000E+00
  0.00000000E+00  0.00000000E+00  0.00000000E+00
  0.00000000E+00  0.00000000E+00  0.00000000E+00
  0.00000000E+00  0.00000000E+00  0.00000000E+00
  0.00000000E+00  0.00000000E+00  0.00000000E+00
  0.00000000E+00  0.00000000E+00  0.00000000E+00
  0.00000000E+00  0.00000000E+00  0.00000000E+00
