Rb Br Cd                                
   1.00000000000000     
    11.1657890000000002  -11.1657890000000002    0.0000000000000000
    11.1657890000000002   11.1657890000000002    0.0000000000000000
     0.0000000000000000    0.0000000000000000   22.3315769999999993
   Br   Cd   Rb
    96    32    32
Direct
  0.1403967418380966  0.1059706540066356  0.9865322719141615
  0.1393209849953045  0.1068445969846570  0.2655059688098013
  0.1114130257370161  0.1419489176780910  0.4841065441156441
  0.1112619054018405  0.1426541355081274  0.7636728706358937
  0.6393028741097938  0.1068618126201788  0.9842572242014063
  0.6391501467223391  0.1068178086758230  0.2661597432624568
  0.6103580117827546  0.1431342628393568  0.4836027950688081
  0.6108631386620584  0.1432469774008265  0.7652637416174035
  0.3483501758483974  0.3947585439038723  0.0121038913153066
  0.3483867527136987  0.3951576159042512  0.2374138678050468
  0.4007708262479029  0.3539034642565616  0.5161745606357265
  0.4010122861938590  0.3540381790951246  0.7332408434960962
  0.1386308518651642  0.6072680197868983  0.9832348542964827
  0.1376654944727708  0.6075828995408750  0.2656007000598853
  0.1107430746107537  0.6431369570727860  0.4844014772898950
  0.1111713482643186  0.6435129116912653  0.7661727685414820
  0.8493256544109826  0.3952891809263777  0.0157693489639003
  0.8484564563860044  0.3943934557261080  0.2333950619746931
  0.9009770582221623  0.3556185478578010  0.5170176759322795
  0.9005649728760423  0.3563500233573417  0.7323796968079030
  0.6401529265784511  0.6054713356741301  0.9862073769373584
  0.6395743805685578  0.6046415782641867  0.2614639601239893
  0.6107491505653111  0.6438797568033606  0.4883347368080029
  0.6111827431576368  0.6425102413014268  0.7643733225845148
  0.3489489127871791  0.8940105781751632  0.0182712739244700
  0.3490542986708237  0.8935280312941805  0.2318854190467628
  0.4022652679462245  0.8526723001511217  0.5138425697212330
  0.4022065178724817  0.8534831806599071  0.7356815673229070
  0.8484872442610877  0.8965223913975843  0.0144094690350166
  0.8493875256112772  0.8942571006681794  0.2343460602959221
  0.9019008093580113  0.8532156527405493  0.5134607503558043
  0.9018356092537205  0.8553905003411184  0.7359904914968456
  0.8894526826170046  0.1436606165321341  0.9840648408298235
  0.8888655933874375  0.1424837703861530  0.2665447137765386
  0.8617189172238872  0.1070338314871016  0.4839684917192865
  0.8625954134367434  0.1085834375769017  0.7645789942941976
  0.3893433656760872  0.1433804035231781  0.9896150600513233
  0.3891940100889175  0.1425015281129515  0.2618724966878319
  0.3607313853822429  0.1037877385134698  0.4873382822966360
  0.3609461384103508  0.1048042336881451  0.7601893791588555
  0.0986240175146771  0.3542812083362272  0.0107599151921600
  0.0981283257147956  0.3546073357701731  0.2388001724487557
  0.1510839257438092  0.3951077611591026  0.5133887405920469
  0.1511774813761077  0.3950627716752596  0.7366018518302884
  0.8900877467306064  0.6443682666356458  0.9866017184271705
  0.8891785078147528  0.6426416537021041  0.2616760188971922
  0.8600042692774470  0.6062785301731789  0.4887541923768016
  0.8608128959455608  0.6078344602233532  0.7626344178775036
  0.5992234688682304  0.3543757615721280  0.0156613781429362
  0.5980610715555390  0.3539881291322882  0.2346557117253097
  0.6507694902446814  0.3945465879900473  0.5178203285542357
  0.6510830169447883  0.3946722498110589  0.7319181650004846
  0.3892253579359364  0.6423625486543336  0.9833925256962748
  0.3891575832565905  0.6417416384638912  0.2645137342471250
  0.3609297188545691  0.6060438651894093  0.4838609882996187
  0.3609588419875789  0.6064459215344450  0.7666695973492824
  0.0986125919158978  0.8560702172031641  0.0168704590073638
  0.0995578151075194  0.8561013871383772  0.2322901371458602
  0.1518945825260954  0.8938773510655730  0.5158232471129361
  0.1520494122737324  0.8943755653153893  0.7335912103266420
  0.5980962562172304  0.8531183293727247  0.0142546640810389
  0.5991673784051147  0.8538401074700749  0.2337960431713400
  0.6526673584412828  0.8959186171182414  0.5115787919797208
  0.6522115223989889  0.8969488873161394  0.7375740539563103
  0.9953843437890105  0.0346498299127387  0.1253054437293084
  0.0013055387130480  0.9686546660489475  0.3743940772344908
  0.0014467992178326  0.0291082912935486  0.6241806805715477
  0.0030185264875838  0.9719917629544550  0.8750883692102672
  0.5016422880839384  0.0317949166476557  0.1251126498588602
  0.4973178604034853  0.9694918619851487  0.3735647850166211
  0.5063506437403937  0.0265138688173327  0.6242836495373192
  0.4938663179384981  0.9733904270995758  0.8759710110174663
  0.2438185609748771  0.2246970558448846  0.1255028364609375
  0.2552475713162068  0.2767404016176538  0.3759669778516126
  0.2490543805782972  0.2183509032043344  0.6243259922084395
  0.2549900000100102  0.2738500636743094  0.8737767486935928
  0.0026266353039984  0.5281296324051011  0.1244700456817431
  0.9945201231360202  0.4734213940428601  0.3754282412035267
  0.0069905830066455  0.5326636994302894  0.6252062235973737
  0.9944675944094055  0.4720836737622571  0.8740868190061735
  0.7491403081992890  0.2186390797437698  0.1251215903807761
  0.7511844100632137  0.2818526074257237  0.3755510464519516
  0.7531396030902641  0.2160345022009474  0.6244996104202976
  0.7510190214767223  0.2803973950982889  0.8742730877097418
  0.4937012577541331  0.5274330375636171  0.1240416972342055
  0.5051857863861439  0.4721421549148576  0.3760049469929575
  0.4989034210498309  0.5323213756034486  0.6253011552544065
  0.5026153903954995  0.4683920093970466  0.8740242373092011
  0.2460649428897130  0.7145664608795941  0.1242840782961482
  0.2499887741709499  0.7791838110528401  0.3738431493527771
  0.2533238331280538  0.7181617595665909  0.6250274549620982
  0.2490268345744079  0.7818240775740979  0.8756791633069602
  0.7484891860518814  0.7187136491110633  0.1241829962854797
  0.7499374256077173  0.7744617145354438  0.3735655120679268
  0.7522404058896456  0.7244829398244981  0.6257014650324600
  0.7510289744143331  0.7787959608362939  0.8753060144405026
  0.9940314963946535  0.0006745978720110  0.0007329354809476
  0.9938582899236840  0.0000793957234913  0.2494487014717191
  0.0063306339895528  0.9988134331575277  0.4993300059395496
  0.0067176642291757 -0.0005620800209467  0.7497129267551980
  0.4941566553241174  0.9986656164029935  0.0009365360499187
  0.4939527915415533  0.9985445138623577  0.2491143695773127
  0.5062815566714329 -0.0005758958056166  0.4989045547444903
  0.5067768533358400  0.0000341689668913  0.7500149775610607
  0.2438062091083590  0.2491175742500360  0.9995761958552131
  0.2437689957349119  0.2487143457872422  0.2508353534041813
  0.2561373575142863  0.2486160868949116  0.5004681153908107
  0.2564162805450546  0.2492362759753483  0.7488611199595306
  0.9940266521910032  0.5007170434686765  0.9994458381522709
  0.9932349749928127  0.4993444414887966  0.2495989955190298
  0.0062738960010480  0.4997945369722961  0.5006057522207145
  0.0063094075722599  0.5011016460118582  0.7494671316098550
  0.7442569799314864  0.2498239065198543  0.0000352276917950
  0.7439803936076239  0.2488261265180048  0.2503878407852917
  0.7556799167418380  0.2495858940208519  0.5000519493502191
  0.7559146209941654  0.2505782267415894  0.7492475754576069
  0.4944496233506322  0.5004132117176097  0.9989161555030489
  0.4941417425240882  0.4995204195976676  0.2499747089757806
  0.5059284974952567  0.4987046256388302  0.5009836849215996
  0.5058516870735671  0.4989847185438541  0.7494174706553283
  0.2442467783221868  0.7499928718422310  0.0000227357804016
  0.2437463803265574  0.7491226397445124  0.2488420954136587
  0.2561880518620728  0.7486840053624235  0.4995666437121056
  0.2564758175264613  0.7488354619229962  0.7503657681952247
  0.7442695645214156  0.7499830458389845 -0.0000011131149358
  0.7436899083724341  0.7491364962878198  0.2486208934110152
  0.7557877614634630  0.7495518379587693  0.4998036248418124
  0.7556589306757754  0.7500119096901029  0.7503469397085561
  0.9717987696156898  0.2586683137353186  0.1247179814323316
  0.9966788068937578  0.2517529585595445  0.3770054035484943
  0.0272940814739037  0.2519643861162572  0.6247713765497965
  0.9970497776260365  0.2507720067203574  0.8722719980896391
  0.4689208091249509  0.2555965990388786  0.1249852514181325
  0.4991994070915931  0.2504116899361925  0.3731461823858522
  0.5298163518277473  0.2514868257433086  0.6246825425702979
  0.4997325562097927  0.2471594611568469  0.8769819176322778
  0.2234276302207164  0.4914988239873158  0.1246114034116272
  0.2477396566734190  0.4984053061830786  0.3751094210543874
  0.2769048182831630  0.4946969431946321  0.6250543428839447
  0.2489837052108993  0.4959869236842900  0.8748542507142958
  0.9719322082210559  0.7518369886281208  0.1247010945907095
  0.0011012385213142  0.7478195621643644  0.3726045929594605
  0.0305303235920588  0.7567698512366667  0.6251917010566828
  0.0017395644907014  0.7512021225932226  0.8766177823077990
  0.7182582119217829  0.4940447430429504  0.1243934745595919
  0.7491842808154157  0.5030984727582114  0.3757467550429287
  0.7810786641134659  0.4987907911778144  0.6250008227764696
  0.7495942848298942  0.5012855795183970  0.8734840330592459
  0.4699562154797451  0.7521021743581143  0.1245594571839002
  0.4996257085403270  0.7477834137820057  0.3758686090000936
  0.5291875661682368  0.7553646846949059  0.6251782505347270
  0.4996043756581898  0.7516368628919000  0.8738909341245102
  0.2195442620073475 -0.0011612929523156  0.1252972749033886
  0.2507046650664715 -0.0004322001016814  0.3752157858678097
  0.2819088582904148  0.9934429365040931  0.6243763242133837
  0.2502369082248529  0.0027180174941035  0.8737131724960596
  0.7227219578829018  0.9958757199844019  0.1250598526177002
  0.7523996153076171  0.9968855291533182  0.3740254868338485
  0.7788850767992590  0.9925792391505757  0.6244539165571762
  0.7537526204413340  0.0007011586953920  0.8752769136159565
 
  0.00000000E+00  0.00000000E+00  0.00000000E+00
  0.00000000E+00  0.00000000E+00  0.00000000E+00
  0.00000000E+00  0.00000000E+00  0.00000000E+00
  0.00000000E+00  0.00000000E+00  0.00000000E+00
  0.00000000E+00  0.00000000E+00  0.00000000E+00
  0.00000000E+00  0.00000000E+00  0.00000000E+00
  0.00000000E+00  0.00000000E+00  0.00000000E+00
  0.00000000E+00  0.00000000E+00  0.00000000E+00
  0.00000000E+00  0.00000000E+00  0.00000000E+00
  0.00000000E+00  0.00000000E+00  0.00000000E+00
  0.00000000E+00  0.00000000E+00  0.00000000E+00
  0.00000000E+00  0.00000000E+00  0.00000000E+00
  0.00000000E+00  0.00000000E+00  0.00000000E+00
  0.00000000E+00  0.00000000E+00  0.00000000E+00
  0.00000000E+00  0.00000000E+00  0.00000000E+00
  0.00000000E+00  0.00000000E+00  0.00000000E+00
  0.00000000E+00  0.00000000E+00  0.00000000E+00
  0.00000000E+00  0.00000000E+00  0.00000000E+00
  0.00000000E+00  0.00000000E+00  0.00000000E+00
  0.00000000E+00  0.00000000E+00  0.00000000E+00
  0.00000000E+00  0.00000000E+00  0.00000000E+00
  0.00000000E+00  0.00000000E+00  0.00000000E+00
  0.00000000E+00  0.00000000E+00  0.00000000E+00
  0.00000000E+00  0.00000000E+00  0.00000000E+00
  0.00000000E+00  0.00000000E+00  0.00000000E+00
  0.00000000E+00  0.00000000E+00  0.00000000E+00
  0.00000000E+00  0.00000000E+00  0.00000000E+00
  0.00000000E+00  0.00000000E+00  0.00000000E+00
  0.00000000E+00  0.00000000E+00  0.00000000E+00
  0.00000000E+00  0.00000000E+00  0.00000000E+00
  0.00000000E+00  0.00000000E+00  0.00000000E+00
  0.00000000E+00  0.00000000E+00  0.00000000E+00
  0.00000000E+00  0.00000000E+00  0.00000000E+00
  0.00000000E+00  0.00000000E+00  0.00000000E+00
  0.00000000E+00  0.00000000E+00  0.00000000E+00
  0.00000000E+00  0.00000000E+00  0.00000000E+00
  0.00000000E+00  0.00000000E+00  0.00000000E+00
  0.00000000E+00  0.00000000E+00  0.00000000E+00
  0.00000000E+00  0.00000000E+00  0.00000000E+00
  0.00000000E+00  0.00000000E+00  0.00000000E+00
  0.00000000E+00  0.00000000E+00  0.00000000E+00
  0.00000000E+00  0.00000000E+00  0.00000000E+00
  0.00000000E+00  0.00000000E+00  0.00000000E+00
  0.00000000E+00  0.00000000E+00  0.00000000E+00
  0.00000000E+00  0.00000000E+00  0.00000000E+00
  0.00000000E+00  0.00000000E+00  0.00000000E+00
  0.00000000E+00  0.00000000E+00  0.00000000E+00
  0.00000000E+00  0.00000000E+00  0.00000000E+00
  0.00000000E+00  0.00000000E+00  0.00000000E+00
  0.00000000E+00  0.00000000E+00  0.00000000E+00
  0.00000000E+00  0.00000000E+00  0.00000000E+00
  0.00000000E+00  0.00000000E+00  0.00000000E+00
  0.00000000E+00  0.00000000E+00  0.00000000E+00
  0.00000000E+00  0.00000000E+00  0.00000000E+00
  0.00000000E+00  0.00000000E+00  0.00000000E+00
  0.00000000E+00  0.00000000E+00  0.00000000E+00
  0.00000000E+00  0.00000000E+00  0.00000000E+00
  0.00000000E+00  0.00000000E+00  0.00000000E+00
  0.00000000E+00  0.00000000E+00  0.00000000E+00
  0.00000000E+00  0.00000000E+00  0.00000000E+00
  0.00000000E+00  0.00000000E+00  0.00000000E+00
  0.00000000E+00  0.00000000E+00  0.00000000E+00
  0.00000000E+00  0.00000000E+00  0.00000000E+00
  0.00000000E+00  0.00000000E+00  0.00000000E+00
  0.00000000E+00  0.00000000E+00  0.00000000E+00
  0.00000000E+00  0.00000000E+00  0.00000000E+00
  0.00000000E+00  0.00000000E+00  0.00000000E+00
  0.00000000E+00  0.00000000E+00  0.00000000E+00
  0.00000000E+00  0.00000000E+00  0.00000000E+00
  0.00000000E+00  0.00000000E+00  0.00000000E+00
  0.00000000E+00  0.00000000E+00  0.00000000E+00
  0.00000000E+00  0.00000000E+00  0.00000000E+00
  0.00000000E+00  0.00000000E+00  0.00000000E+00
  0.00000000E+00  0.00000000E+00  0.00000000E+00
  0.00000000E+00  0.00000000E+00  0.00000000E+00
  0.00000000E+00  0.00000000E+00  0.00000000E+00
  0.00000000E+00  0.00000000E+00  0.00000000E+00
  0.00000000E+00  0.00000000E+00  0.00000000E+00
  0.00000000E+00  0.00000000E+00  0.00000000E+00
  0.00000000E+00  0.00000000E+00  0.00000000E+00
  0.00000000E+00  0.00000000E+00  0.00000000E+00
  0.00000000E+00  0.00000000E+00  0.00000000E+00
  0.00000000E+00  0.00000000E+00  0.00000000E+00
  0.00000000E+00  0.00000000E+00  0.00000000E+00
  0.00000000E+00  0.00000000E+00  0.00000000E+00
  0.00000000E+00  0.00000000E+00  0.00000000E+00
  0.00000000E+00  0.00000000E+00  0.00000000E+00
  0.00000000E+00  0.00000000E+00  0.00000000E+00
  0.00000000E+00  0.00000000E+00  0.00000000E+00
  0.00000000E+00  0.00000000E+00  0.00000000E+00
  0.00000000E+00  0.00000000E+00  0.00000000E+00
  0.00000000E+00  0.00000000E+00  0.00000000E+00
  0.00000000E+00  0.00000000E+00  0.00000000E+00
  0.00000000E+00  0.00000000E+00  0.00000000E+00
  0.00000000E+00  0.00000000E+00  0.00000000E+00
  0.00000000E+00  0.00000000E+00  0.00000000E+00
  0.00000000E+00  0.00000000E+00  0.00000000E+00
  0.00000000E+00  0.00000000E+00  0.00000000E+00
  0.00000000E+00  0.00000000E+00  0.00000000E+00
  0.00000000E+00  0.00000000E+00  0.00000000E+00
  0.00000000E+00  0.00000000E+00  0.00000000E+00
  0.00000000E+00  0.00000000E+00  0.00000000E+00
  0.00000000E+00  0.00000000E+00  0.00000000E+00
  0.00000000E+00  0.00000000E+00  0.00000000E+00
  0.00000000E+00  0.00000000E+00  0.00000000E+00
  0.00000000E+00  0.00000000E+00  0.00000000E+00
  0.00000000E+00  0.00000000E+00  0.00000000E+00
  0.00000000E+00  0.00000000E+00  0.00000000E+00
  0.00000000E+00  0.00000000E+00  0.00000000E+00
  0.00000000E+00  0.00000000E+00  0.00000000E+00
  0.00000000E+00  0.00000000E+00  0.00000000E+00
  0.00000000E+00  0.00000000E+00  0.00000000E+00
  0.00000000E+00  0.00000000E+00  0.00000000E+00
  0.00000000E+00  0.00000000E+00  0.00000000E+00
  0.00000000E+00  0.00000000E+00  0.00000000E+00
  0.00000000E+00  0.00000000E+00  0.00000000E+00
  0.00000000E+00  0.00000000E+00  0.00000000E+00
  0.00000000E+00  0.00000000E+00  0.00000000E+00
  0.00000000E+00  0.00000000E+00  0.00000000E+00
  0.00000000E+00  0.00000000E+00  0.00000000E+00
  0.00000000E+00  0.00000000E+00  0.00000000E+00
  0.00000000E+00  0.00000000E+00  0.00000000E+00
  0.00000000E+00  0.00000000E+00  0.00000000E+00
  0.00000000E+00  0.00000000E+00  0.00000000E+00
  0.00000000E+00  0.00000000E+00  0.00000000E+00
  0.00000000E+00  0.00000000E+00  0.00000000E+00
  0.00000000E+00  0.00000000E+00  0.00000000E+00
  0.00000000E+00  0.00000000E+00  0.00000000E+00
  0.00000000E+00  0.00000000E+00  0.00000000E+00
  0.00000000E+00  0.00000000E+00  0.00000000E+00
  0.00000000E+00  0.00000000E+00  0.00000000E+00
  0.00000000E+00  0.00000000E+00  0.00000000E+00
  0.00000000E+00  0.00000000E+00  0.00000000E+00
  0.00000000E+00  0.00000000E+00  0.00000000E+00
  0.00000000E+00  0.00000000E+00  0.00000000E+00
  0.00000000E+00  0.00000000E+00  0.00000000E+00
  0.00000000E+00  0.00000000E+00  0.00000000E+00
  0.00000000E+00  0.00000000E+00  0.00000000E+00
  0.00000000E+00  0.00000000E+00  0.00000000E+00
  0.00000000E+00  0.00000000E+00  0.00000000E+00
  0.00000000E+00  0.00000000E+00  0.00000000E+00
  0.00000000E+00  0.00000000E+00  0.00000000E+00
  0.00000000E+00  0.00000000E+00  0.00000000E+00
  0.00000000E+00  0.00000000E+00  0.00000000E+00
  0.00000000E+00  0.00000000E+00  0.00000000E+00
  0.00000000E+00  0.00000000E+00  0.00000000E+00
  0.00000000E+00  0.00000000E+00  0.00000000E+00
  0.00000000E+00  0.00000000E+00  0.00000000E+00
  0.00000000E+00  0.00000000E+00  0.00000000E+00
  0.00000000E+00  0.00000000E+00  0.00000000E+00
  0.00000000E+00  0.00000000E+00  0.00000000E+00
  0.00000000E+00  0.00000000E+00  0.00000000E+00
  0.00000000E+00  0.00000000E+00  0.00000000E+00
  0.00000000E+00  0.00000000E+00  0.00000000E+00
  0.00000000E+00  0.00000000E+00  0.00000000E+00
  0.00000000E+00  0.00000000E+00  0.00000000E+00
  0.00000000E+00  0.00000000E+00  0.00000000E+00
  0.00000000E+00  0.00000000E+00  0.00000000E+00
  0.00000000E+00  0.00000000E+00  0.00000000E+00
  0.00000000E+00  0.00000000E+00  0.00000000E+00
