Ca In Cl                                
   1.00000000000000     
    10.7825249999999997  -10.7825249999999997    0.0000000000000000
    10.7825249999999997   10.7825249999999997    0.0000000000000000
     0.0000000000000000    0.0000000000000000   21.5650499999999994
   Ca   Cl   In
    32    96    32
Direct
  0.0021043573899563  0.0047390298534155  0.0009094640982704
  0.0032496114873134  0.0019705454167820  0.2523144778554309
  0.9992986929427791  0.9983928701227542  0.4993745732929233
  0.9989160233151113  0.9948606554615448  0.7492482183732495
  0.4998015435055825  0.0011615573917707  0.0004738062876960
  0.5017740574565147  0.0034432434401579  0.2522755657097023
  0.4987895891747176  0.9954466173603745  0.5015157390748185
  0.5001065167772624  0.9943830879218223  0.7498206285379350
  0.2516109853802026  0.2505817298950743  0.9990671303189274
  0.2517760117297359  0.2536071061361498  0.2507709911789932
  0.2506345953132217  0.2469224455622565  0.5011546040028898
  0.2484632223069225  0.2474388850114504  0.7508100094516913
  0.0023600845156485  0.5033351628085524  0.0015249557039125
  0.0022076504060449  0.5027058583656772  0.2497328653441398
 -0.0002696667256714  0.4926499495043168  0.5010269149587911
 -0.0001809555013650  0.4943053019845177  0.7497889031070525
  0.7490590298765156  0.2545161347966816  0.0000882296456061
  0.7484868763151366  0.2556561960390611  0.2492340288368239
  0.7498880015912208  0.2461532143986291  0.5015964226101365
  0.7481167549546052  0.2456322898493441  0.7506736310842429
  0.5010234053820810  0.5021942024846743  0.9982946860573660
  0.5000621464035805  0.5023455968217939  0.2502754226952041
  0.5000441796206946  0.4941666218757437  0.5013972482983422
  0.4980399505982006  0.4936547083607815  0.7491712794971943
  0.2519039040994082  0.7562171175007435  0.0016001107454518
  0.2490941735321408  0.7531288280001593  0.2518543642604789
  0.2488953381798858  0.7457599448062238  0.5020294992128488
  0.2487055208975923  0.7445451446217272  0.7481585434476972
  0.7489841585283126  0.7550901688283286  0.9992899554923798
  0.7510883541335677  0.7557644837435794  0.2499408513356300
  0.7490025401883632  0.7460791184012576  0.5000067979549383
  0.7504253978573443  0.7444301356969759  0.7498183372378749
  0.1000686498775209  0.1530649696178745  0.9955585719462712
  0.1016268255128770  0.1534858153901680  0.2550906603310257
  0.1515026707915677  0.0968204733063450  0.4917625645473863
  0.1502168570594189  0.0933035566806572  0.7585491843337518
  0.6116204716576938  0.1416604487561362  0.9744778756177830
  0.6120405379878876  0.1435709919381404  0.2758964009706063
  0.6415210301402169  0.1021268158316194  0.4769477892994733
  0.6399557361602165  0.1028289616956859  0.7754451612821790
  0.3872160556626740  0.3673825263354445  0.0251758583920197
  0.3852491360118971  0.3704418265207360  0.2232397557659877
  0.3483134528236361  0.3982412952892936  0.5173370387634231
  0.3512191087503919  0.3924805589958918  0.7279089848478167
  0.1122521102392965  0.6425256582665706  0.9801215897568800
  0.1031568113057505  0.6493897518615881  0.2676999457288177
  0.1361229411037105  0.6080290245512249  0.4744920818609269
  0.1535320273792259  0.5901732229845094  0.7630463717988690
  0.9009805161394215  0.3520192575540336  0.0144538143663106
  0.9021933872007627  0.3504063346966252  0.2395005927518732
  0.8608365962484781  0.3836187540874743  0.5273939991711705
  0.8593986831604412  0.3826516166156215  0.7201833972086498
  0.6126018552865835  0.6417638420301138  0.9725196241889477
  0.6065080667649925  0.6481837509448017  0.2682854086616658
  0.6418961555768364  0.6021435798414447  0.4781076802094323
  0.6383606817458600  0.6039192882105290  0.7750007883737701
  0.3874501298311438  0.8674141692735557  0.0301604228459605
  0.3882009516628828  0.8679943695135718  0.2246591950076323
  0.3482104913885101  0.8965482520659386  0.5182814604997468
  0.3481795357650793  0.8956331761607418  0.7362726233224478
  0.8997452775908192  0.8529975226270908  0.0139261560953928
  0.8993917395986325  0.8549066627858717  0.2384025611936087
  0.8635034536609612  0.8812431347984214  0.5245839993134763
  0.8638800308893072  0.8793505738926519  0.7215947512784934
  0.8506698820474267  0.1022972952591914  0.0136128927483537
  0.8524116506375155  0.1045655356710982  0.2360225024784844
  0.8843583931010046  0.1306163943980217  0.5312031362719629
  0.8858406591096468  0.1309452444187481  0.7228312192434940
  0.3664277377984495  0.1187341628643967  0.0297655991903480
  0.3657567571748378  0.1192815595948786  0.2235281752474506
  0.4016088845709471  0.1479812277653492  0.5176694886353097
  0.3998910324938625  0.1454689281570005  0.7343594826154323
  0.1420961433241106  0.3931997921381097  0.9752786599941859
  0.1381016022370554  0.3909208742667162  0.2790039454976346
  0.1112698681658672  0.3563205116265794  0.4718213659430372
  0.0934519576594115  0.3394133670887522  0.7629466735106650
  0.8523113064468915  0.6029496203058657  0.0129324571050513
  0.8501559818735557  0.6012503991904412  0.2352318873518680
  0.8888377635282529  0.6330425863073187  0.5256624550263340
  0.8865544799956258  0.6292847349697178  0.7215799515808529
  0.6497448513414318  0.4020637730418774  0.9896373024774212
  0.6506535590072210  0.4046735723047271  0.2555249969988606
  0.5999582786679969  0.3452355809315333  0.4885963727153763
  0.5972611157995814  0.3440992119434607  0.7617642402559224
  0.3559791602972475  0.6105211667981734  0.0157112190516640
  0.3657472884148938  0.6213047399387501  0.2245359526898580
  0.3999792939850757  0.6464578257038974  0.5146260451031891
  0.3977308346372368  0.6436758617835520  0.7304153782910526
  0.1390142955749408  0.8919804710748902  0.9745422769380708
  0.1500321334888471  0.9014445529691854  0.2696838602825065
  0.1085904204654639  0.8556412564360169  0.4742060445079702
  0.1078564354653640  0.8517498028899647  0.7732937278174334
  0.6480091762260191  0.9008440252289719  0.9877904283685823
  0.6483808711948811  0.9007158327505435  0.2605207957915163
  0.5974185216666051  0.8440522618131874  0.4899113621485732
  0.6005897737281715  0.8450283262373672  0.7621164193744804
  0.0335605645930983  0.9795419152655130  0.1258226372995372
  0.9666761593936460  0.0230104150991705  0.3761585853283397
  0.0429347663794949  0.9773216572569885  0.6244499429344545
  0.9640488358746364 -0.0093805424077034  0.8747977046017190
  0.5401398803137109  0.0229748978613287  0.1260755579864924
  0.4598267104439339  0.0065852468018023  0.3763872233239432
  0.5380697640417675  0.9834923867028812  0.6256320328137269
  0.4588690128649109  0.0062653281027429  0.8753601306866614
  0.2135109376467290  0.2762781468899326  0.1252067947173855
  0.2902595127167007  0.2560107049725363  0.3756909432696441
  0.2121133712206932  0.2360820626863027  0.6252260576186210
  0.2837366214091359  0.2370460544025040  0.8750072406564154
  0.0385304324570818  0.4822732153375797  0.1256429438178868
  0.9578873926641296  0.5094650282556258  0.3759252996310081
  0.0465298135174318  0.4800690763088141  0.6246812708707338
  0.9641988969328120  0.4871214432318082  0.8749372841672947
  0.7148248703865859  0.2299025425078506  0.1247879881987561
  0.7873362316720762  0.2409426348829474  0.3755900708414987
  0.7029260244492331  0.2267841045981870  0.6260858578309948
  0.7909206875277666  0.2428296473742848  0.8747814783318606
  0.5340566531757082  0.5266553433018260  0.1236875557767521
  0.4650199123746399  0.5064924237888219  0.3752072376794854
  0.5406147102419959  0.4856263400270056  0.6253215801984500
  0.4596162839086162  0.5059762561795055  0.8740110758234649
  0.2099656482489501  0.7697801410795011  0.1260512716447862
  0.2903148314077784  0.7601890474422315  0.3763828691652159
  0.2068266405644526  0.7313405093023506  0.6248026521084658
  0.2862904106272386  0.7444398472410955  0.8746908165805209
  0.7169124034916018  0.7329207468348764  0.1244515368446864
  0.7866837957816240  0.7350136959142805  0.3752876012487444
  0.7071915958218780  0.7291736854763688  0.6248153454846803
  0.7898349157185380  0.7412022673383273  0.8743142280787445
  0.0123609851365153  0.2686998581902498  0.1240002261092088
  0.0000264845560694  0.2596132392488701  0.3523965946871238
  0.9924633524655139  0.2766506214241818  0.6375569007375055
  0.0029834455212792  0.2830065900511493  0.8938600441592437
  0.4814881304414010  0.2194327043925644  0.1250203123767986
  0.5001602165472872  0.2147018777890461  0.3982211927673016
  0.5061891324841427  0.2815314934999834  0.6297856101691348
  0.4906716932147410  0.2131823068636644  0.8557178083015210
  0.2738615972060705  0.4719178241882419  0.1224037216592123
  0.2501750583132783  0.4629965265322845  0.3944919044230782
  0.2487652681519471  0.5237482952727490  0.6401774681216874
  0.2505559831227144  0.5365055936422242  0.8942195880440781
  0.0022061072422022  0.7809396973717074  0.1299494620365114
  0.0062849701714881  0.7149447579466910  0.3855779692875248
  0.9811146803805341  0.7770724532245670  0.6245149389341643
  0.0004495953689589  0.7861753880368140  0.8929674106204872
  0.7386778998048588  0.5247117559651572  0.1251924574205653
  0.7495419972248170  0.5322489887175129  0.3565272060656051
  0.7679542082229192  0.5228318073235754  0.6220723876150217
  0.7511641270608133  0.5311876281116268  0.8948103235676119
  0.4946298441821746  0.7282344393666768  0.1421114317958860
  0.4965638081826791  0.7132191885093178  0.3962591622459922
  0.5133158682852565  0.7806468326197287  0.6221347150205260
  0.5027387755444080  0.7147094880474288  0.8526703869125422
  0.2680617558787660  0.9689863216529551  0.1310426066495500
  0.2490716162878137  0.9634391269312882  0.3942198390781103
  0.2381052833191983  0.0328729278449833  0.6217214559259501
  0.2503287179852846  0.9743289369295589  0.8496614330509805
  0.7436754992319405  0.0242741683519578  0.1266045220186790
  0.7559357852162414  0.0353587727383260  0.3564846266499626
  0.7669088383635615  0.0289660349665842  0.6234970235691194
  0.7482218502838156  0.0327004527400622  0.8947575737249602
 
  0.00000000E+00  0.00000000E+00  0.00000000E+00
  0.00000000E+00  0.00000000E+00  0.00000000E+00
  0.00000000E+00  0.00000000E+00  0.00000000E+00
  0.00000000E+00  0.00000000E+00  0.00000000E+00
  0.00000000E+00  0.00000000E+00  0.00000000E+00
  0.00000000E+00  0.00000000E+00  0.00000000E+00
  0.00000000E+00  0.00000000E+00  0.00000000E+00
  0.00000000E+00  0.00000000E+00  0.00000000E+00
  0.00000000E+00  0.00000000E+00  0.00000000E+00
  0.00000000E+00  0.00000000E+00  0.00000000E+00
  0.00000000E+00  0.00000000E+00  0.00000000E+00
  0.00000000E+00  0.00000000E+00  0.00000000E+00
  0.00000000E+00  0.00000000E+00  0.00000000E+00
  0.00000000E+00  0.00000000E+00  0.00000000E+00
  0.00000000E+00  0.00000000E+00  0.00000000E+00
  0.00000000E+00  0.00000000E+00  0.00000000E+00
  0.00000000E+00  0.00000000E+00  0.00000000E+00
  0.00000000E+00  0.00000000E+00  0.00000000E+00
  0.00000000E+00  0.00000000E+00  0.00000000E+00
  0.00000000E+00  0.00000000E+00  0.00000000E+00
  0.00000000E+00  0.00000000E+00  0.00000000E+00
  0.00000000E+00  0.00000000E+00  0.00000000E+00
  0.00000000E+00  0.00000000E+00  0.00000000E+00
  0.00000000E+00  0.00000000E+00  0.00000000E+00
  0.00000000E+00  0.00000000E+00  0.00000000E+00
  0.00000000E+00  0.00000000E+00  0.00000000E+00
  0.00000000E+00  0.00000000E+00  0.00000000E+00
  0.00000000E+00  0.00000000E+00  0.00000000E+00
  0.00000000E+00  0.00000000E+00  0.00000000E+00
  0.00000000E+00  0.00000000E+00  0.00000000E+00
  0.00000000E+00  0.00000000E+00  0.00000000E+00
  0.00000000E+00  0.00000000E+00  0.00000000E+00
  0.00000000E+00  0.00000000E+00  0.00000000E+00
  0.00000000E+00  0.00000000E+00  0.00000000E+00
  0.00000000E+00  0.00000000E+00  0.00000000E+00
  0.00000000E+00  0.00000000E+00  0.00000000E+00
  0.00000000E+00  0.00000000E+00  0.00000000E+00
  0.00000000E+00  0.00000000E+00  0.00000000E+00
  0.00000000E+00  0.00000000E+00  0.00000000E+00
  0.00000000E+00  0.00000000E+00  0.00000000E+00
  0.00000000E+00  0.00000000E+00  0.00000000E+00
  0.00000000E+00  0.00000000E+00  0.00000000E+00
  0.00000000E+00  0.00000000E+00  0.00000000E+00
  0.00000000E+00  0.00000000E+00  0.00000000E+00
  0.00000000E+00  0.00000000E+00  0.00000000E+00
  0.00000000E+00  0.00000000E+00  0.00000000E+00
  0.00000000E+00  0.00000000E+00  0.00000000E+00
  0.00000000E+00  0.00000000E+00  0.00000000E+00
  0.00000000E+00  0.00000000E+00  0.00000000E+00
  0.00000000E+00  0.00000000E+00  0.00000000E+00
  0.00000000E+00  0.00000000E+00  0.00000000E+00
  0.00000000E+00  0.00000000E+00  0.00000000E+00
  0.00000000E+00  0.00000000E+00  0.00000000E+00
  0.00000000E+00  0.00000000E+00  0.00000000E+00
  0.00000000E+00  0.00000000E+00  0.00000000E+00
  0.00000000E+00  0.00000000E+00  0.00000000E+00
  0.00000000E+00  0.00000000E+00  0.00000000E+00
  0.00000000E+00  0.00000000E+00  0.00000000E+00
  0.00000000E+00  0.00000000E+00  0.00000000E+00
  0.00000000E+00  0.00000000E+00  0.00000000E+00
  0.00000000E+00  0.00000000E+00  0.00000000E+00
  0.00000000E+00  0.00000000E+00  0.00000000E+00
  0.00000000E+00  0.00000000E+00  0.00000000E+00
  0.00000000E+00  0.00000000E+00  0.00000000E+00
  0.00000000E+00  0.00000000E+00  0.00000000E+00
  0.00000000E+00  0.00000000E+00  0.00000000E+00
  0.00000000E+00  0.00000000E+00  0.00000000E+00
  0.00000000E+00  0.00000000E+00  0.00000000E+00
  0.00000000E+00  0.00000000E+00  0.00000000E+00
  0.00000000E+00  0.00000000E+00  0.00000000E+00
  0.00000000E+00  0.00000000E+00  0.00000000E+00
  0.00000000E+00  0.00000000E+00  0.00000000E+00
  0.00000000E+00  0.00000000E+00  0.00000000E+00
  0.00000000E+00  0.00000000E+00  0.00000000E+00
  0.00000000E+00  0.00000000E+00  0.00000000E+00
  0.00000000E+00  0.00000000E+00  0.00000000E+00
  0.00000000E+00  0.00000000E+00  0.00000000E+00
  0.00000000E+00  0.00000000E+00  0.00000000E+00
  0.00000000E+00  0.00000000E+00  0.00000000E+00
  0.00000000E+00  0.00000000E+00  0.00000000E+00
  0.00000000E+00  0.00000000E+00  0.00000000E+00
  0.00000000E+00  0.00000000E+00  0.00000000E+00
  0.00000000E+00  0.00000000E+00  0.00000000E+00
  0.00000000E+00  0.00000000E+00  0.00000000E+00
  0.00000000E+00  0.00000000E+00  0.00000000E+00
  0.00000000E+00  0.00000000E+00  0.00000000E+00
  0.00000000E+00  0.00000000E+00  0.00000000E+00
  0.00000000E+00  0.00000000E+00  0.00000000E+00
  0.00000000E+00  0.00000000E+00  0.00000000E+00
  0.00000000E+00  0.00000000E+00  0.00000000E+00
  0.00000000E+00  0.00000000E+00  0.00000000E+00
  0.00000000E+00  0.00000000E+00  0.00000000E+00
  0.00000000E+00  0.00000000E+00  0.00000000E+00
  0.00000000E+00  0.00000000E+00  0.00000000E+00
  0.00000000E+00  0.00000000E+00  0.00000000E+00
  0.00000000E+00  0.00000000E+00  0.00000000E+00
  0.00000000E+00  0.00000000E+00  0.00000000E+00
  0.00000000E+00  0.00000000E+00  0.00000000E+00
  0.00000000E+00  0.00000000E+00  0.00000000E+00
  0.00000000E+00  0.00000000E+00  0.00000000E+00
  0.00000000E+00  0.00000000E+00  0.00000000E+00
  0.00000000E+00  0.00000000E+00  0.00000000E+00
  0.00000000E+00  0.00000000E+00  0.00000000E+00
  0.00000000E+00  0.00000000E+00  0.00000000E+00
  0.00000000E+00  0.00000000E+00  0.00000000E+00
  0.00000000E+00  0.00000000E+00  0.00000000E+00
  0.00000000E+00  0.00000000E+00  0.00000000E+00
  0.00000000E+00  0.00000000E+00  0.00000000E+00
  0.00000000E+00  0.00000000E+00  0.00000000E+00
  0.00000000E+00  0.00000000E+00  0.00000000E+00
  0.00000000E+00  0.00000000E+00  0.00000000E+00
  0.00000000E+00  0.00000000E+00  0.00000000E+00
  0.00000000E+00  0.00000000E+00  0.00000000E+00
  0.00000000E+00  0.00000000E+00  0.00000000E+00
  0.00000000E+00  0.00000000E+00  0.00000000E+00
  0.00000000E+00  0.00000000E+00  0.00000000E+00
  0.00000000E+00  0.00000000E+00  0.00000000E+00
  0.00000000E+00  0.00000000E+00  0.00000000E+00
  0.00000000E+00  0.00000000E+00  0.00000000E+00
  0.00000000E+00  0.00000000E+00  0.00000000E+00
  0.00000000E+00  0.00000000E+00  0.00000000E+00
  0.00000000E+00  0.00000000E+00  0.00000000E+00
  0.00000000E+00  0.00000000E+00  0.00000000E+00
  0.00000000E+00  0.00000000E+00  0.00000000E+00
  0.00000000E+00  0.00000000E+00  0.00000000E+00
  0.00000000E+00  0.00000000E+00  0.00000000E+00
  0.00000000E+00  0.00000000E+00  0.00000000E+00
  0.00000000E+00  0.00000000E+00  0.00000000E+00
  0.00000000E+00  0.00000000E+00  0.00000000E+00
  0.00000000E+00  0.00000000E+00  0.00000000E+00
  0.00000000E+00  0.00000000E+00  0.00000000E+00
  0.00000000E+00  0.00000000E+00  0.00000000E+00
  0.00000000E+00  0.00000000E+00  0.00000000E+00
  0.00000000E+00  0.00000000E+00  0.00000000E+00
  0.00000000E+00  0.00000000E+00  0.00000000E+00
  0.00000000E+00  0.00000000E+00  0.00000000E+00
  0.00000000E+00  0.00000000E+00  0.00000000E+00
  0.00000000E+00  0.00000000E+00  0.00000000E+00
  0.00000000E+00  0.00000000E+00  0.00000000E+00
  0.00000000E+00  0.00000000E+00  0.00000000E+00
  0.00000000E+00  0.00000000E+00  0.00000000E+00
  0.00000000E+00  0.00000000E+00  0.00000000E+00
  0.00000000E+00  0.00000000E+00  0.00000000E+00
  0.00000000E+00  0.00000000E+00  0.00000000E+00
  0.00000000E+00  0.00000000E+00  0.00000000E+00
  0.00000000E+00  0.00000000E+00  0.00000000E+00
  0.00000000E+00  0.00000000E+00  0.00000000E+00
  0.00000000E+00  0.00000000E+00  0.00000000E+00
  0.00000000E+00  0.00000000E+00  0.00000000E+00
  0.00000000E+00  0.00000000E+00  0.00000000E+00
  0.00000000E+00  0.00000000E+00  0.00000000E+00
  0.00000000E+00  0.00000000E+00  0.00000000E+00
  0.00000000E+00  0.00000000E+00  0.00000000E+00
  0.00000000E+00  0.00000000E+00  0.00000000E+00
  0.00000000E+00  0.00000000E+00  0.00000000E+00
  0.00000000E+00  0.00000000E+00  0.00000000E+00
  0.00000000E+00  0.00000000E+00  0.00000000E+00
  0.00000000E+00  0.00000000E+00  0.00000000E+00
  0.00000000E+00  0.00000000E+00  0.00000000E+00
  0.00000000E+00  0.00000000E+00  0.00000000E+00
