Cs I Sr                                 
   1.00000000000000     
    12.9488459999999996  -12.9488459999999996    0.0000000000000000
    12.9488459999999996   12.9488459999999996    0.0000000000000000
     0.0000000000000000    0.0000000000000000   25.8976919999999993
   Cs   I    Sr
    32    96    32
Direct
  0.0111568430326518  0.0111078753438584  0.9932953087270715
  0.0014124044043395  0.0023776110798110  0.2644580265356473
  0.9660737240437427  0.9626237154379085  0.5036269010469910
  0.9986664252774724  0.0013671140673335  0.7360528081470677
  0.5033981226878561  0.9868215639501042  0.0005388750948900
  0.5094271538751315  0.0181092186478810  0.2363073539584939
  0.4994350231627931  0.9991488110493427  0.4792188979849907
  0.4934272466852584  0.0010638121779074  0.7663715198886554
  0.2508913441146556  0.2511206646556952  0.9717877164811664
  0.2435412325315316  0.2435274857456417  0.2543394229405880
  0.2448072767132424  0.2452219045403676  0.4863602811781316
  0.2536934560905256  0.2510907895596219  0.7427386834620310
  0.9875159455497218  0.5031911001594541  0.0008253683371345
  0.0178593990893502  0.5086367424991464  0.2362971459023867
  0.0111221758837325  0.5095821170577622  0.4881854164331055
  0.0054530888552840  0.4962319480757277  0.7657751492663375
  0.7165287543482424  0.2163568205932348  0.9983701429421012
  0.7623576084575305  0.2609996694269011  0.2322788664386551
  0.7317402152522077  0.2780261705470898  0.5002552218835691
  0.7539400965640332  0.2510087270280568  0.7302793754647894
  0.4949862256493980  0.4936540938807893  0.9916744754995284
  0.5020011144262615  0.5016592384282325  0.2648436335928863
  0.4651174508604639  0.4683220108916982  0.5050022121246996
  0.5060293005992544  0.5044774627188607  0.7392699989795514
  0.2176780113652015  0.7166735853364929  0.9977256814682768
  0.2590157650472459  0.7591431734275631  0.2285176165663476
  0.2739558122100826  0.7341128248222482  0.5009976246378470
  0.2509476087770779  0.7548971530490036  0.7232113682604976
  0.7527969972182443  0.7522139464696980  0.0301145958291195
  0.7421203200028185  0.7405008811136208  0.2583241709854378
  0.7442526448319153  0.7390244384665670  0.5026327756323506
  0.7501082665467664  0.7509746386357888  0.7457693305738783
  0.0374881866823245  0.2573243027384525 -0.0000662141610911
  0.9778685336703307  0.2328592330341148  0.2505929977042025
  0.0325733715540040  0.2784963581142841  0.5002858475805273
  0.9668751798979680  0.2431463513224211  0.7501500571537967
  0.4666412606668613  0.2555653993758270  0.0002614564152181
  0.5432369578603673  0.2520850326189054  0.2512303302851255
  0.4625022836149854  0.2453491238566256  0.5008762723994622
  0.5413108895411283  0.2571548636634630  0.7502329251917622
  0.2553522225100960  0.4664433685980775  0.0001324062253249
  0.2499178421957599  0.5402588274382916  0.2510047804443566
  0.2440580853586955  0.4634085022825260  0.5010288976449360
  0.2555543657997563  0.5439307558190505  0.7502282469308160
  0.9670257055769490  0.7331966747259159  0.0000309255115968
  0.0390262314238871  0.7553758694665090  0.2497163031221105
  0.9611364734878578  0.7388986556540137  0.5002345516076703
  0.0391302719337453  0.7662913964897082  0.7499734535076750
  0.7684210682545141  0.5377261400336714  0.0000650415466153
  0.7224883061494237  0.4781561835740154  0.2501937454320738
  0.7834063346188691  0.5221334063531536  0.5000943233940898
  0.7326484664048354  0.4664336733723429  0.7499591148103747
  0.5399822121537591  0.7682578415797436  0.0002016249912731
  0.4777723972492202  0.7227789173871708  0.2505190795501198
  0.5318878349596585  0.7778907852746786  0.5003738534782333
  0.4662442638638363  0.7328849963497545  0.7498596330575104
  0.2565524117814000  0.0386931147522028  0.0002802006284432
  0.2319575126481442  0.9743984992285909  0.2507691119334673
  0.2776479903953585  0.0335544983958135  0.5001913359879107
  0.2440614888178995  0.9666503720564585  0.7501740101259957
  0.7333925516368609  0.9671139864650895  0.0000582411427508
  0.7554063781153449  0.0398792761782760  0.2500825875538831
  0.7412428314301803  0.9571065903392338  0.5000709573405956
  0.7667443378079891  0.0386906957608917  0.7497365328199355
  0.0947803309998002  0.0946943131074995  0.1337580005665108
  0.1444730607727626  0.1451752820339881  0.3673663511657916
  0.1396320737713146  0.1390765871739952  0.6408981090225500
  0.1054454453294994  0.1054626354102577  0.8629615942229272
  0.6029094962177357  0.1050476961946353  0.1108525118430018
  0.6387876195925604  0.1389715753582245  0.4018255215611627
  0.6449246661508938  0.1451766409970012  0.6054504289160094
  0.6040209495468074  0.1053210525904048  0.8880921192969623
  0.4056187764828781  0.4054691025521011  0.1439045902260427
  0.3557513857312474  0.3562877237954089  0.3593750297963017
  0.3715019249168134  0.3714836642456530  0.6438618920950865
  0.3954186678219450  0.3951362610846483  0.8562973809409322
  0.1060971335407180  0.6036729003063080  0.1114012721021607
  0.1433151804406388  0.6436522611792603  0.3988684945353361
  0.1402589024843188  0.6394231591014857  0.6038781177952983
  0.1058988642578462  0.6042290370111240  0.8882699606319981
  0.9001055283653685  0.3998868127239149  0.1258444985303197
  0.8442517524917527  0.3444710157865871  0.3785282398285353
  0.8547666541284114  0.3532229604738649  0.6147444696284812
  0.8997310978823483  0.3989088488755707  0.8827011597172953
  0.6001744436707748  0.6000830111719715  0.1246120227249622
  0.6476614968969933  0.6460069158285769  0.3748901079832448
  0.6450444385542234  0.6442621274185489  0.6328125861143487
  0.6055360881019367  0.6049240911736012  0.8641312574720581
  0.3999142949352724  0.8999693022599838  0.1258137209928903
  0.3556883824559566  0.8552415154391924  0.3894134304998098
  0.3585012326321356  0.8584849186240830  0.6111742740185255
  0.3952827018732511  0.8955554842762007  0.8850278490725237
  0.9001193890389562  0.9001543240940163  0.1260664572378579
  0.8556991948403597  0.8554273767363691  0.3591645401995964
  0.8612564283490741  0.8608624457495688  0.6374241409145418
  0.8951729442766853  0.8952038100143082  0.8624693825716632
  0.8515905794645520  0.1505094050090560  0.1058407733212660
  0.9001228108973492  0.0971685569738531  0.3929082191340281
  0.8953993356582641  0.1049392273876935  0.6068572565519156
  0.8617659608796594  0.1373367473867881  0.9029600719244730
  0.3595865578870995  0.1435208949886819  0.1499097176887685
  0.3946985558503802  0.1054566479969438  0.3547676153462128
  0.3895887109094823  0.1134666387572111  0.6538896812215248
  0.3581104878515675  0.1435285402163274  0.8544720012841341
  0.1436786854124709  0.3592728359371923  0.1489693517478331
  0.1000091484982492  0.3995924550751692  0.3586843450970116
  0.1127738297263770  0.3889725463101240  0.6523769255148649
  0.1449877742311746  0.3573179542857808  0.8535937577507133
  0.8562244655357605  0.6449028240408041  0.1485157706900689
  0.8998220918552715  0.6000718328819958  0.3517514872460634
  0.8951061430113575  0.6064593099948343  0.6531953111333894
  0.8664986265772915  0.6346205761828924  0.8441932666819616
  0.6504474339872478  0.3507692015074254  0.1061418589332289
  0.6006606781252871  0.3993147169219115  0.3977718252809508
  0.6092625218866472  0.3940738376677067  0.6053119286425604
  0.6394346467829549  0.3629693913354847  0.9026981368739906
  0.3514551352835321  0.6499979465918690  0.1059716049291877
  0.3953103632184026  0.6046290583237963  0.3958909112687479
  0.3899493620583235  0.6133612068922611  0.6053502656670509
  0.3662695090867347  0.6363610549439833  0.9047796016313450
  0.1503066710948150  0.8516223520483239  0.1050093913310845
  0.0992476782804879  0.8993513106856956  0.3913322917882713
  0.1105651130931317  0.8897408135940242  0.6086882960866525
  0.1357883048382099  0.8626963488065992  0.9042950463163265
  0.6452516569738294  0.8562153525543198  0.1489016445971365
  0.6004029916532282  0.8996300890007836  0.3513906730717432
  0.6088210278005819  0.8946530721162513  0.6555684564680395
  0.6340940895703259  0.8664987182745840  0.8445079730750638
  0.0026230594084365  0.2488882795933768  0.1246299757954943
  0.9966729902968281  0.2495680352358144  0.3769352948476095
  0.0012471647741640  0.2508082287336317  0.6245464705151285
  0.9983306879772326  0.2492013698840999  0.8751975846058589
  0.4993127539940931  0.2544852955758031  0.1265399421839864
  0.5017963860131519  0.2490723841323390  0.3749954225430944
  0.5016618782028158  0.2483088060330493  0.6265651151111342
  0.5020470396970873  0.2530216766083598  0.8741395499554603
  0.2546818776565989  0.4987100277605721  0.1261207951200752
  0.2478631283132380  0.5015193666454689  0.3748064159837856
  0.2485111439949012  0.5005199290720093  0.6272598545497906
  0.2535923714225300  0.5019975078810394  0.8740317240950217
  0.0014807769916461  0.7522043624210210  0.1250159714710592
  0.0009064465082956  0.7486297467475295  0.3743141737754573
  0.0003770656760230  0.7474350210292625  0.6263612429058436
  0.9991086359563506  0.7510265986253634  0.8739654084268169
  0.7490787429086797  0.4999927516348548  0.1240702497689606
  0.7524793294320127  0.4984502449473770  0.3751914897529535
  0.7546832499445711  0.5008423508783976  0.6260698033160362
  0.7510270034997637  0.5009642022542191  0.8750190892358085
  0.5006207685496052  0.7491912941008534  0.1241266787274391
  0.5007877911468989  0.7514781050919507  0.3756761687906804
  0.5033345536626109  0.7550780103586329  0.6259874651481070
  0.5012808331532224  0.7499769433568226  0.8752634190546792
  0.2489424122008626  0.0025795729964634  0.1249241442508722
  0.2491789364404365  0.9984479171254920  0.3764799419365893
  0.2524119556894456  0.0020972580202228  0.6247017349097119
  0.2486207726550730  0.9978137075193699  0.8756469675385228
  0.7521509282821420  0.0016822553531150  0.1253387891900727
  0.7487605295508408  0.0008991839077759  0.3751453738735995
  0.7480603671282391  0.0011621493560537  0.6252648231270189
  0.7510166221248343  0.9990950984582313  0.8738213513520224
 
  0.00000000E+00  0.00000000E+00  0.00000000E+00
  0.00000000E+00  0.00000000E+00  0.00000000E+00
  0.00000000E+00  0.00000000E+00  0.00000000E+00
  0.00000000E+00  0.00000000E+00  0.00000000E+00
  0.00000000E+00  0.00000000E+00  0.00000000E+00
  0.00000000E+00  0.00000000E+00  0.00000000E+00
  0.00000000E+00  0.00000000E+00  0.00000000E+00
  0.00000000E+00  0.00000000E+00  0.00000000E+00
  0.00000000E+00  0.00000000E+00  0.00000000E+00
  0.00000000E+00  0.00000000E+00  0.00000000E+00
  0.00000000E+00  0.00000000E+00  0.00000000E+00
  0.00000000E+00  0.00000000E+00  0.00000000E+00
  0.00000000E+00  0.00000000E+00  0.00000000E+00
  0.00000000E+00  0.00000000E+00  0.00000000E+00
  0.00000000E+00  0.00000000E+00  0.00000000E+00
  0.00000000E+00  0.00000000E+00  0.00000000E+00
  0.00000000E+00  0.00000000E+00  0.00000000E+00
  0.00000000E+00  0.00000000E+00  0.00000000E+00
  0.00000000E+00  0.00000000E+00  0.00000000E+00
  0.00000000E+00  0.00000000E+00  0.00000000E+00
  0.00000000E+00  0.00000000E+00  0.00000000E+00
  0.00000000E+00  0.00000000E+00  0.00000000E+00
  0.00000000E+00  0.00000000E+00  0.00000000E+00
  0.00000000E+00  0.00000000E+00  0.00000000E+00
  0.00000000E+00  0.00000000E+00  0.00000000E+00
  0.00000000E+00  0.00000000E+00  0.00000000E+00
  0.00000000E+00  0.00000000E+00  0.00000000E+00
  0.00000000E+00  0.00000000E+00  0.00000000E+00
  0.00000000E+00  0.00000000E+00  0.00000000E+00
  0.00000000E+00  0.00000000E+00  0.00000000E+00
  0.00000000E+00  0.00000000E+00  0.00000000E+00
  0.00000000E+00  0.00000000E+00  0.00000000E+00
  0.00000000E+00  0.00000000E+00  0.00000000E+00
  0.00000000E+00  0.00000000E+00  0.00000000E+00
  0.00000000E+00  0.00000000E+00  0.00000000E+00
  0.00000000E+00  0.00000000E+00  0.00000000E+00
  0.00000000E+00  0.00000000E+00  0.00000000E+00
  0.00000000E+00  0.00000000E+00  0.00000000E+00
  0.00000000E+00  0.00000000E+00  0.00000000E+00
  0.00000000E+00  0.00000000E+00  0.00000000E+00
  0.00000000E+00  0.00000000E+00  0.00000000E+00
  0.00000000E+00  0.00000000E+00  0.00000000E+00
  0.00000000E+00  0.00000000E+00  0.00000000E+00
  0.00000000E+00  0.00000000E+00  0.00000000E+00
  0.00000000E+00  0.00000000E+00  0.00000000E+00
  0.00000000E+00  0.00000000E+00  0.00000000E+00
  0.00000000E+00  0.00000000E+00  0.00000000E+00
  0.00000000E+00  0.00000000E+00  0.00000000E+00
  0.00000000E+00  0.00000000E+00  0.00000000E+00
  0.00000000E+00  0.00000000E+00  0.00000000E+00
  0.00000000E+00  0.00000000E+00  0.00000000E+00
  0.00000000E+00  0.00000000E+00  0.00000000E+00
  0.00000000E+00  0.00000000E+00  0.00000000E+00
  0.00000000E+00  0.00000000E+00  0.00000000E+00
  0.00000000E+00  0.00000000E+00  0.00000000E+00
  0.00000000E+00  0.00000000E+00  0.00000000E+00
  0.00000000E+00  0.00000000E+00  0.00000000E+00
  0.00000000E+00  0.00000000E+00  0.00000000E+00
  0.00000000E+00  0.00000000E+00  0.00000000E+00
  0.00000000E+00  0.00000000E+00  0.00000000E+00
  0.00000000E+00  0.00000000E+00  0.00000000E+00
  0.00000000E+00  0.00000000E+00  0.00000000E+00
  0.00000000E+00  0.00000000E+00  0.00000000E+00
  0.00000000E+00  0.00000000E+00  0.00000000E+00
  0.00000000E+00  0.00000000E+00  0.00000000E+00
  0.00000000E+00  0.00000000E+00  0.00000000E+00
  0.00000000E+00  0.00000000E+00  0.00000000E+00
  0.00000000E+00  0.00000000E+00  0.00000000E+00
  0.00000000E+00  0.00000000E+00  0.00000000E+00
  0.00000000E+00  0.00000000E+00  0.00000000E+00
  0.00000000E+00  0.00000000E+00  0.00000000E+00
  0.00000000E+00  0.00000000E+00  0.00000000E+00
  0.00000000E+00  0.00000000E+00  0.00000000E+00
  0.00000000E+00  0.00000000E+00  0.00000000E+00
  0.00000000E+00  0.00000000E+00  0.00000000E+00
  0.00000000E+00  0.00000000E+00  0.00000000E+00
  0.00000000E+00  0.00000000E+00  0.00000000E+00
  0.00000000E+00  0.00000000E+00  0.00000000E+00
  0.00000000E+00  0.00000000E+00  0.00000000E+00
  0.00000000E+00  0.00000000E+00  0.00000000E+00
  0.00000000E+00  0.00000000E+00  0.00000000E+00
  0.00000000E+00  0.00000000E+00  0.00000000E+00
  0.00000000E+00  0.00000000E+00  0.00000000E+00
  0.00000000E+00  0.00000000E+00  0.00000000E+00
  0.00000000E+00  0.00000000E+00  0.00000000E+00
  0.00000000E+00  0.00000000E+00  0.00000000E+00
  0.00000000E+00  0.00000000E+00  0.00000000E+00
  0.00000000E+00  0.00000000E+00  0.00000000E+00
  0.00000000E+00  0.00000000E+00  0.00000000E+00
  0.00000000E+00  0.00000000E+00  0.00000000E+00
  0.00000000E+00  0.00000000E+00  0.00000000E+00
  0.00000000E+00  0.00000000E+00  0.00000000E+00
  0.00000000E+00  0.00000000E+00  0.00000000E+00
  0.00000000E+00  0.00000000E+00  0.00000000E+00
  0.00000000E+00  0.00000000E+00  0.00000000E+00
  0.00000000E+00  0.00000000E+00  0.00000000E+00
  0.00000000E+00  0.00000000E+00  0.00000000E+00
  0.00000000E+00  0.00000000E+00  0.00000000E+00
  0.00000000E+00  0.00000000E+00  0.00000000E+00
  0.00000000E+00  0.00000000E+00  0.00000000E+00
  0.00000000E+00  0.00000000E+00  0.00000000E+00
  0.00000000E+00  0.00000000E+00  0.00000000E+00
  0.00000000E+00  0.00000000E+00  0.00000000E+00
  0.00000000E+00  0.00000000E+00  0.00000000E+00
  0.00000000E+00  0.00000000E+00  0.00000000E+00
  0.00000000E+00  0.00000000E+00  0.00000000E+00
  0.00000000E+00  0.00000000E+00  0.00000000E+00
  0.00000000E+00  0.00000000E+00  0.00000000E+00
  0.00000000E+00  0.00000000E+00  0.00000000E+00
  0.00000000E+00  0.00000000E+00  0.00000000E+00
  0.00000000E+00  0.00000000E+00  0.00000000E+00
  0.00000000E+00  0.00000000E+00  0.00000000E+00
  0.00000000E+00  0.00000000E+00  0.00000000E+00
  0.00000000E+00  0.00000000E+00  0.00000000E+00
  0.00000000E+00  0.00000000E+00  0.00000000E+00
  0.00000000E+00  0.00000000E+00  0.00000000E+00
  0.00000000E+00  0.00000000E+00  0.00000000E+00
  0.00000000E+00  0.00000000E+00  0.00000000E+00
  0.00000000E+00  0.00000000E+00  0.00000000E+00
  0.00000000E+00  0.00000000E+00  0.00000000E+00
  0.00000000E+00  0.00000000E+00  0.00000000E+00
  0.00000000E+00  0.00000000E+00  0.00000000E+00
  0.00000000E+00  0.00000000E+00  0.00000000E+00
  0.00000000E+00  0.00000000E+00  0.00000000E+00
  0.00000000E+00  0.00000000E+00  0.00000000E+00
  0.00000000E+00  0.00000000E+00  0.00000000E+00
  0.00000000E+00  0.00000000E+00  0.00000000E+00
  0.00000000E+00  0.00000000E+00  0.00000000E+00
  0.00000000E+00  0.00000000E+00  0.00000000E+00
  0.00000000E+00  0.00000000E+00  0.00000000E+00
  0.00000000E+00  0.00000000E+00  0.00000000E+00
  0.00000000E+00  0.00000000E+00  0.00000000E+00
  0.00000000E+00  0.00000000E+00  0.00000000E+00
  0.00000000E+00  0.00000000E+00  0.00000000E+00
  0.00000000E+00  0.00000000E+00  0.00000000E+00
  0.00000000E+00  0.00000000E+00  0.00000000E+00
  0.00000000E+00  0.00000000E+00  0.00000000E+00
  0.00000000E+00  0.00000000E+00  0.00000000E+00
  0.00000000E+00  0.00000000E+00  0.00000000E+00
  0.00000000E+00  0.00000000E+00  0.00000000E+00
  0.00000000E+00  0.00000000E+00  0.00000000E+00
  0.00000000E+00  0.00000000E+00  0.00000000E+00
  0.00000000E+00  0.00000000E+00  0.00000000E+00
  0.00000000E+00  0.00000000E+00  0.00000000E+00
  0.00000000E+00  0.00000000E+00  0.00000000E+00
  0.00000000E+00  0.00000000E+00  0.00000000E+00
  0.00000000E+00  0.00000000E+00  0.00000000E+00
  0.00000000E+00  0.00000000E+00  0.00000000E+00
  0.00000000E+00  0.00000000E+00  0.00000000E+00
  0.00000000E+00  0.00000000E+00  0.00000000E+00
  0.00000000E+00  0.00000000E+00  0.00000000E+00
  0.00000000E+00  0.00000000E+00  0.00000000E+00
  0.00000000E+00  0.00000000E+00  0.00000000E+00
  0.00000000E+00  0.00000000E+00  0.00000000E+00
  0.00000000E+00  0.00000000E+00  0.00000000E+00
  0.00000000E+00  0.00000000E+00  0.00000000E+00
  0.00000000E+00  0.00000000E+00  0.00000000E+00
  0.00000000E+00  0.00000000E+00  0.00000000E+00
  0.00000000E+00  0.00000000E+00  0.00000000E+00
  0.00000000E+00  0.00000000E+00  0.00000000E+00
