I Ca Rb                                 
   1.00000000000000     
    12.3994759999999999  -12.3994759999999999    0.0000000000000000
    12.3994759999999999   12.3994759999999999    0.0000000000000000
     0.0000000000000000    0.0000000000000000   24.7989509999999989
   Ca   I    Rb
    32    96    32
Direct
  0.9977881389090545  0.9949728413208890  0.9980557137893235
  0.0001397795775793  0.0025197435950524  0.2483102447165192
  0.0016012473745680  0.0071624732921077  0.5012825003529912
  0.9996350316745889  0.9993972542521273  0.7499128839038852
  0.4928582097456586  0.9975625175296950  0.9998212987428919
  0.5011006704120962  0.0027576338875021  0.2514902312183758
  0.5048377124841824  0.0040320353017537  0.5003462680792667
  0.4999261919254230  0.9999213414680151  0.7501518234487161
  0.2479396164822800  0.2442315499211627  0.9993058859046849
  0.2525759974052433  0.2494988642692273  0.2512713639749415
  0.2539208477709889  0.2552973842270109  0.5001885545523154
  0.2491785248125267  0.2495632079512518  0.7501474837195854
  0.9931570663032586  0.4982675504914671  0.9994076664338977
  0.0017354640640097  0.4992075463713890  0.2502148309827392
  0.0075806558371719  0.5021485577655723  0.5017764526093685
  0.9993554010580551  0.4994895444013154  0.7505169891168194
  0.7447114796820716  0.2488473279886715  0.9986727590404890
  0.7506862420004398  0.2502529068636561  0.2493199504320048
  0.7542945941214759  0.2520627703101068  0.5008768390660844
  0.7492949956141842  0.2492132853294588  0.7497216335214195
  0.4971757450674699  0.4951276283902816  0.9995519140582082
  0.5011399560138835  0.4998623158623387  0.2503545326406598
  0.5028189399035868  0.5050019825150217  0.5007752706689873
  0.4994126554851440  0.5003310874881642  0.7501618498312378
  0.2444560139519976  0.7478805977648029  0.9992588674513875
  0.2521726446714778  0.7491768156245557  0.2488061142995959
  0.2564060151724628  0.7516359414525476  0.5027360165956872
  0.2501555198996304  0.7497082941358499  0.7504557032734248
  0.7482224984768675  0.7425837226737206  0.9991736926599338
  0.7507698699518395  0.7508137135561541  0.2501885203664783
  0.7513407682160960  0.7556240449581612  0.5015075576440929
  0.7502317912542646  0.7496723756702982  0.7506869163156887
  0.1386898179602178  0.1034411491041940  0.9740280065746300
  0.1515606753316424  0.1002545254346213  0.2662065317690077
  0.1513484143072284  0.1064979919922502  0.4808635624977207
  0.1007720903487190  0.1478526009030427  0.7729282169643429
  0.6393405034990685  0.1021537286909893  0.0224367203257296
  0.6457731181353047  0.1061987447407974  0.2247872741042669
  0.6519264388683266  0.1058050170978126  0.5233940987349325
  0.6008253577440739  0.1481402191039357  0.7266146200756133
  0.3489961341972576  0.3925288923715946  0.0191158365813660
  0.3511014436790703  0.3996098504686189  0.2317530505034648
  0.3597607198690094  0.3991518007529616  0.5259243569640631
  0.3963845072482043  0.3528267809619017  0.7278170609623352
  0.1406395683359865  0.6002226036370010  0.0202157020781315
  0.1485332977709998  0.6021109078975693  0.2313467456208597
  0.1482498820153353  0.6109924262856320  0.5273518860799765
  0.1022487594528105  0.6469143045893695  0.7275691003472279
  0.8527806105127066  0.3893682250542492  0.9728787665949142
  0.8546240332849098  0.3972857235115375  0.2726462325440828
  0.8592679236973918  0.3997705857661335  0.4794480591376651
  0.8971912660251961  0.3513155266123400  0.7728937511879478
  0.6389239496753301  0.6029967190774500  0.9740027067680791
  0.6503922218516499  0.6027027839240130  0.2693056054967183
  0.6529419518252576  0.6059816083226829  0.4820008636159581
  0.6014478743879388  0.6484821211284656  0.7729049529353206
  0.3527876744573767  0.8892514172681119  0.9734265087616366
  0.3560465297596315  0.8964637271248680  0.2729274526447530
  0.3564104048077634  0.9015863969192869  0.4789260343516882
  0.3986789770803290  0.8514488764316045  0.7725153198569825
  0.8515218902780046  0.8897159455972531  0.0210470603542760
  0.8584239449807534  0.8931839870405366  0.2254783762521688
  0.8552726008444815  0.9023689464691932  0.5212571157266721
  0.8989742865972027  0.8504448900546353  0.7274424563025809
  0.8899547664123376  0.1405223378309537  0.0119553334764426
  0.9039775652521366  0.1542234117578809  0.2416574246877627
  0.9084651859013282  0.1596212855896547  0.5129053462542160
  0.8564830940031741  0.1062693989431986  0.7242833068956425
  0.3840141389261139  0.1341996589277848  0.0298700239396527
  0.3963679780830323  0.1454757266692610  0.2255574708162185
  0.3982159045947485  0.1480157662929018  0.5243463191645841
  0.3484021370404852  0.0985660435100387  0.7326502810150485
  0.1042134588540713  0.3549779949182721  0.9791465923996038
  0.1072132391259065  0.3556969235810533  0.2733202023693438
  0.1154842738641134  0.3651059101019771  0.4718816853034907
  0.1507878371197798  0.4011085080891461  0.7684658201594251
  0.8841560303199657  0.6342348884036476  0.0318257299318863
  0.8949120923512215  0.6430937942631543  0.2288389844555339
  0.8966680853107487  0.6463612024293927  0.5210671782245201
  0.8476845532290750  0.5971947263668619  0.7316871580781159
  0.5920846710048854  0.3429496751258836  0.9866670328269199
  0.5995494099936781  0.3484014747271038  0.2579604836170631
  0.6072183061811741  0.3560005847140677  0.4876840026370015
  0.6419412949267906  0.3921122481767163  0.7744200107950620
  0.3910485319169299  0.6421805363179560  0.0123058983021263
  0.4038608671163292  0.6529122679087958  0.2435520125119743
  0.4098210683930093  0.6594576893376712  0.5128803216384538
  0.3570145915631327  0.6074633165514155  0.7238927257069867
  0.0926926555464672  0.8429589502942819  0.9857570454572285
  0.1032494060720376  0.8521729299258798  0.2621121115290983
  0.1064422241944063  0.8570317410371708  0.4860552552273374
  0.1431118590400290  0.8928941711526898  0.7752192692272787
  0.6066828404586894  0.8559787965589494  0.9797360460452554
  0.6111954816130137  0.8610572136602269  0.2726394326194418
  0.6102949335814186  0.8608387364231724  0.4736169011182019
  0.6520305966716503  0.9020387153416686  0.7687760611659403
  0.0405231536847131  0.0010512554126796  0.1231042968740423
  0.9673296055260239  0.9965520549504934  0.3749662944625395
  0.0451736015986013  0.0036552645611855  0.6254891697109771
  0.9526759958081152  0.9939396029616497  0.8736445602371243
  0.4921677859705995  0.9531728885556920  0.1259984924555645
  0.5160672799045537  0.0454722868270109  0.3753280133737018
  0.5029324859463120  0.9560891873635390  0.6249319136873125
  0.4976121134610869  0.0437920702056931  0.8755995156648081
  0.2055462741954031  0.2443789754892456  0.1253447879661737
  0.2947131401941520  0.2610542456212314  0.3752952418276667
  0.2058962451684614  0.2508330487815831  0.6250615397590534
  0.2938569594000955  0.2465816732355024  0.8750278523456140
  0.9932789980906636  0.4536644549531716  0.1256887938908402
  0.0081188979663778  0.5435829504856264  0.3755988965886232
  0.0029736193652149  0.4553572489843219  0.6253424203488125
  0.9960945149142052  0.5448571339609297  0.8751972003466145
  0.7549646237356954  0.2920480755743592  0.1237200597597805
  0.7494966541646068  0.2112753668588554  0.3753533227582817
  0.7548076829072414  0.2954705758451717  0.6255173421138752
  0.7423070857006434  0.2036784556594625  0.8740080280896896
  0.5388028440849394  0.5051271187939234  0.1244759542138294
  0.4631265414515857  0.4970079030745332  0.3760140572192394
  0.5462351592649175  0.5052551450106900  0.6260677185408400
  0.4537131833174133  0.4951989318935111  0.8741611649576524
  0.2518853869561822  0.7901789362218995  0.1244237035338201
  0.2460525350999598  0.7164993358569673  0.3763349188692053
  0.2529409452151704  0.7973114949356401  0.6263727289188427
  0.2442898799858096  0.7040052781516262  0.8743524934879935
  0.7049525610101436  0.7422562890189833  0.1255118639836275
  0.7943883747106906  0.7586056413645418  0.3752083912922352
  0.7074757632761933  0.7528533614316331  0.6257115445634631
  0.7949243098720807  0.7458682426983591  0.8752686120998089
  0.9924816241148898  0.2403389149258707  0.1210294878102011
  0.9735758955523339  0.2522458613778962  0.3771554145002141
  0.9886638026728183  0.2385256151784894  0.6464496417942501
  0.9779844637725228  0.2285628771898563  0.8869963215667759
  0.5277116290412432  0.2519747633202907  0.1235150488615231
  0.5060412798740600  0.2585300337489356  0.3759850510478608
  0.5210841855777281  0.2758368854964286  0.6148845940011670
  0.5109105684226493  0.2615522250993600  0.8542298452791806
  0.2153083917470180  0.4649965484544176  0.1243945408491105
  0.2408342635060530  0.4809597428622438  0.3645165990206429
  0.2307488969619614  0.4786399571668399  0.6367765365535997
  0.2371691520666894  0.4876721657861966  0.8972058175008818
  0.0059340159693437  0.7746609292199493  0.1231415355644570
  0.0059632378989017  0.7554419413455528  0.3755333026526287
  0.0244207142576634  0.7703925795610149  0.6147859282726104
  0.0123942148912844  0.7612225931002167  0.8539750940376706
  0.7618122783694375  0.5154877978050069  0.1383122457293859
  0.7858295142459738  0.5369012163687040  0.3759861690863125
  0.7630837471861485  0.5119409318196572  0.6031655576620487
  0.7678022332698777  0.5187407027808045  0.8634127561547595
  0.4915170093877778  0.7391310534182954  0.1230988194782932
  0.4739066720653453  0.7518809172341988  0.3757915902233683
  0.4902698117513561  0.7388856854526807  0.6461296794547550
  0.4784006463383132  0.7287127423153916  0.8871986286654322
  0.2650514562041252  0.0162521650800110  0.1363964580099471
  0.2161032329004438  0.9693481956330867  0.3748402042166705
  0.2631174016642039  0.0156704085213829  0.6035969434401339
  0.2693805947615431  0.0197307186792156  0.8642232094536771
  0.7135392986050335  0.9626028134100336  0.1245549612494781
  0.7347765830735183  0.9879957680469712  0.3823529703453657
  0.7293209159252182  0.9799294997552811  0.6366028569466553
  0.7369658331660776  0.9883257492131814  0.8975384669056380
 
  0.00000000E+00  0.00000000E+00  0.00000000E+00
  0.00000000E+00  0.00000000E+00  0.00000000E+00
  0.00000000E+00  0.00000000E+00  0.00000000E+00
  0.00000000E+00  0.00000000E+00  0.00000000E+00
  0.00000000E+00  0.00000000E+00  0.00000000E+00
  0.00000000E+00  0.00000000E+00  0.00000000E+00
  0.00000000E+00  0.00000000E+00  0.00000000E+00
  0.00000000E+00  0.00000000E+00  0.00000000E+00
  0.00000000E+00  0.00000000E+00  0.00000000E+00
  0.00000000E+00  0.00000000E+00  0.00000000E+00
  0.00000000E+00  0.00000000E+00  0.00000000E+00
  0.00000000E+00  0.00000000E+00  0.00000000E+00
  0.00000000E+00  0.00000000E+00  0.00000000E+00
  0.00000000E+00  0.00000000E+00  0.00000000E+00
  0.00000000E+00  0.00000000E+00  0.00000000E+00
  0.00000000E+00  0.00000000E+00  0.00000000E+00
  0.00000000E+00  0.00000000E+00  0.00000000E+00
  0.00000000E+00  0.00000000E+00  0.00000000E+00
  0.00000000E+00  0.00000000E+00  0.00000000E+00
  0.00000000E+00  0.00000000E+00  0.00000000E+00
  0.00000000E+00  0.00000000E+00  0.00000000E+00
  0.00000000E+00  0.00000000E+00  0.00000000E+00
  0.00000000E+00  0.00000000E+00  0.00000000E+00
  0.00000000E+00  0.00000000E+00  0.00000000E+00
  0.00000000E+00  0.00000000E+00  0.00000000E+00
  0.00000000E+00  0.00000000E+00  0.00000000E+00
  0.00000000E+00  0.00000000E+00  0.00000000E+00
  0.00000000E+00  0.00000000E+00  0.00000000E+00
  0.00000000E+00  0.00000000E+00  0.00000000E+00
  0.00000000E+00  0.00000000E+00  0.00000000E+00
  0.00000000E+00  0.00000000E+00  0.00000000E+00
  0.00000000E+00  0.00000000E+00  0.00000000E+00
  0.00000000E+00  0.00000000E+00  0.00000000E+00
  0.00000000E+00  0.00000000E+00  0.00000000E+00
  0.00000000E+00  0.00000000E+00  0.00000000E+00
  0.00000000E+00  0.00000000E+00  0.00000000E+00
  0.00000000E+00  0.00000000E+00  0.00000000E+00
  0.00000000E+00  0.00000000E+00  0.00000000E+00
  0.00000000E+00  0.00000000E+00  0.00000000E+00
  0.00000000E+00  0.00000000E+00  0.00000000E+00
  0.00000000E+00  0.00000000E+00  0.00000000E+00
  0.00000000E+00  0.00000000E+00  0.00000000E+00
  0.00000000E+00  0.00000000E+00  0.00000000E+00
  0.00000000E+00  0.00000000E+00  0.00000000E+00
  0.00000000E+00  0.00000000E+00  0.00000000E+00
  0.00000000E+00  0.00000000E+00  0.00000000E+00
  0.00000000E+00  0.00000000E+00  0.00000000E+00
  0.00000000E+00  0.00000000E+00  0.00000000E+00
  0.00000000E+00  0.00000000E+00  0.00000000E+00
  0.00000000E+00  0.00000000E+00  0.00000000E+00
  0.00000000E+00  0.00000000E+00  0.00000000E+00
  0.00000000E+00  0.00000000E+00  0.00000000E+00
  0.00000000E+00  0.00000000E+00  0.00000000E+00
  0.00000000E+00  0.00000000E+00  0.00000000E+00
  0.00000000E+00  0.00000000E+00  0.00000000E+00
  0.00000000E+00  0.00000000E+00  0.00000000E+00
  0.00000000E+00  0.00000000E+00  0.00000000E+00
  0.00000000E+00  0.00000000E+00  0.00000000E+00
  0.00000000E+00  0.00000000E+00  0.00000000E+00
  0.00000000E+00  0.00000000E+00  0.00000000E+00
  0.00000000E+00  0.00000000E+00  0.00000000E+00
  0.00000000E+00  0.00000000E+00  0.00000000E+00
  0.00000000E+00  0.00000000E+00  0.00000000E+00
  0.00000000E+00  0.00000000E+00  0.00000000E+00
  0.00000000E+00  0.00000000E+00  0.00000000E+00
  0.00000000E+00  0.00000000E+00  0.00000000E+00
  0.00000000E+00  0.00000000E+00  0.00000000E+00
  0.00000000E+00  0.00000000E+00  0.00000000E+00
  0.00000000E+00  0.00000000E+00  0.00000000E+00
  0.00000000E+00  0.00000000E+00  0.00000000E+00
  0.00000000E+00  0.00000000E+00  0.00000000E+00
  0.00000000E+00  0.00000000E+00  0.00000000E+00
  0.00000000E+00  0.00000000E+00  0.00000000E+00
  0.00000000E+00  0.00000000E+00  0.00000000E+00
  0.00000000E+00  0.00000000E+00  0.00000000E+00
  0.00000000E+00  0.00000000E+00  0.00000000E+00
  0.00000000E+00  0.00000000E+00  0.00000000E+00
  0.00000000E+00  0.00000000E+00  0.00000000E+00
  0.00000000E+00  0.00000000E+00  0.00000000E+00
  0.00000000E+00  0.00000000E+00  0.00000000E+00
  0.00000000E+00  0.00000000E+00  0.00000000E+00
  0.00000000E+00  0.00000000E+00  0.00000000E+00
  0.00000000E+00  0.00000000E+00  0.00000000E+00
  0.00000000E+00  0.00000000E+00  0.00000000E+00
  0.00000000E+00  0.00000000E+00  0.00000000E+00
  0.00000000E+00  0.00000000E+00  0.00000000E+00
  0.00000000E+00  0.00000000E+00  0.00000000E+00
  0.00000000E+00  0.00000000E+00  0.00000000E+00
  0.00000000E+00  0.00000000E+00  0.00000000E+00
  0.00000000E+00  0.00000000E+00  0.00000000E+00
  0.00000000E+00  0.00000000E+00  0.00000000E+00
  0.00000000E+00  0.00000000E+00  0.00000000E+00
  0.00000000E+00  0.00000000E+00  0.00000000E+00
  0.00000000E+00  0.00000000E+00  0.00000000E+00
  0.00000000E+00  0.00000000E+00  0.00000000E+00
  0.00000000E+00  0.00000000E+00  0.00000000E+00
  0.00000000E+00  0.00000000E+00  0.00000000E+00
  0.00000000E+00  0.00000000E+00  0.00000000E+00
  0.00000000E+00  0.00000000E+00  0.00000000E+00
  0.00000000E+00  0.00000000E+00  0.00000000E+00
  0.00000000E+00  0.00000000E+00  0.00000000E+00
  0.00000000E+00  0.00000000E+00  0.00000000E+00
  0.00000000E+00  0.00000000E+00  0.00000000E+00
  0.00000000E+00  0.00000000E+00  0.00000000E+00
  0.00000000E+00  0.00000000E+00  0.00000000E+00
  0.00000000E+00  0.00000000E+00  0.00000000E+00
  0.00000000E+00  0.00000000E+00  0.00000000E+00
  0.00000000E+00  0.00000000E+00  0.00000000E+00
  0.00000000E+00  0.00000000E+00  0.00000000E+00
  0.00000000E+00  0.00000000E+00  0.00000000E+00
  0.00000000E+00  0.00000000E+00  0.00000000E+00
  0.00000000E+00  0.00000000E+00  0.00000000E+00
  0.00000000E+00  0.00000000E+00  0.00000000E+00
  0.00000000E+00  0.00000000E+00  0.00000000E+00
  0.00000000E+00  0.00000000E+00  0.00000000E+00
  0.00000000E+00  0.00000000E+00  0.00000000E+00
  0.00000000E+00  0.00000000E+00  0.00000000E+00
  0.00000000E+00  0.00000000E+00  0.00000000E+00
  0.00000000E+00  0.00000000E+00  0.00000000E+00
  0.00000000E+00  0.00000000E+00  0.00000000E+00
  0.00000000E+00  0.00000000E+00  0.00000000E+00
  0.00000000E+00  0.00000000E+00  0.00000000E+00
  0.00000000E+00  0.00000000E+00  0.00000000E+00
  0.00000000E+00  0.00000000E+00  0.00000000E+00
  0.00000000E+00  0.00000000E+00  0.00000000E+00
  0.00000000E+00  0.00000000E+00  0.00000000E+00
  0.00000000E+00  0.00000000E+00  0.00000000E+00
  0.00000000E+00  0.00000000E+00  0.00000000E+00
  0.00000000E+00  0.00000000E+00  0.00000000E+00
  0.00000000E+00  0.00000000E+00  0.00000000E+00
  0.00000000E+00  0.00000000E+00  0.00000000E+00
  0.00000000E+00  0.00000000E+00  0.00000000E+00
  0.00000000E+00  0.00000000E+00  0.00000000E+00
  0.00000000E+00  0.00000000E+00  0.00000000E+00
  0.00000000E+00  0.00000000E+00  0.00000000E+00
  0.00000000E+00  0.00000000E+00  0.00000000E+00
  0.00000000E+00  0.00000000E+00  0.00000000E+00
  0.00000000E+00  0.00000000E+00  0.00000000E+00
  0.00000000E+00  0.00000000E+00  0.00000000E+00
  0.00000000E+00  0.00000000E+00  0.00000000E+00
  0.00000000E+00  0.00000000E+00  0.00000000E+00
  0.00000000E+00  0.00000000E+00  0.00000000E+00
  0.00000000E+00  0.00000000E+00  0.00000000E+00
  0.00000000E+00  0.00000000E+00  0.00000000E+00
  0.00000000E+00  0.00000000E+00  0.00000000E+00
  0.00000000E+00  0.00000000E+00  0.00000000E+00
  0.00000000E+00  0.00000000E+00  0.00000000E+00
  0.00000000E+00  0.00000000E+00  0.00000000E+00
  0.00000000E+00  0.00000000E+00  0.00000000E+00
  0.00000000E+00  0.00000000E+00  0.00000000E+00
  0.00000000E+00  0.00000000E+00  0.00000000E+00
  0.00000000E+00  0.00000000E+00  0.00000000E+00
  0.00000000E+00  0.00000000E+00  0.00000000E+00
  0.00000000E+00  0.00000000E+00  0.00000000E+00
  0.00000000E+00  0.00000000E+00  0.00000000E+00
  0.00000000E+00  0.00000000E+00  0.00000000E+00
  0.00000000E+00  0.00000000E+00  0.00000000E+00
  0.00000000E+00  0.00000000E+00  0.00000000E+00
  0.00000000E+00  0.00000000E+00  0.00000000E+00
  0.00000000E+00  0.00000000E+00  0.00000000E+00
