Be Rb F                                 
   1.00000000000000     
     7.7171500000000002   -7.7171500000000002    0.0000000000000000
     7.7171500000000002    7.7171500000000002    0.0000000000000000
     0.0000000000000000    0.0000000000000000   15.4343009999999996
   Be   F    Rb
    32    96    32
Direct
  0.9835395225464626  0.2755824563280662  0.1219293732083989
  0.9734188044632542  0.1977895910304830  0.3315350594519094
  0.9255353843133539  0.2516268425552976  0.6233282671466884
  0.9665391729795708  0.2595873483383659  0.9065260003686272
  0.4833389669948295  0.1907950613323025  0.1347207563272620
  0.4750541784357841  0.2923568526715252  0.3914173898532020
  0.4668220057685566  0.2254762907169440  0.6441911039030231
  0.4558220451044274  0.2350230462659606  0.8516937475362699
  0.2828022491005598  0.5254837209353073  0.1450488030217847
  0.2755142398125246  0.4853884461789775  0.3523029598888062
  0.2103183682551417  0.4935850767034395  0.6219488686955753
  0.2467487501301973  0.5393423472318220  0.8904081887191412
  0.9595164747063606  0.7321055291755949  0.1114327530675304
  0.9807827437868158  0.7372359457365300  0.3989737424595460
  0.0290387646531123  0.7214440461575641  0.6039832853840494
  0.0037363604015281  0.7970122494494977  0.8651725250122161
  0.7268409493639314  0.5408477879887141  0.1006248726473827
  0.7457946088833074  0.5616120631173864  0.3840508352400253
  0.7361099206113123  0.4667004769976449  0.6490043877231328
  0.7667278291894861  0.4787808255911405  0.8558560511737714
  0.4984898122544505  0.7276049829005906  0.1011123924286007
  0.5556655125812070  0.7733344252341088  0.3591595747244696
  0.4493228211685785  0.7648291950126861  0.6291330501876308
  0.5235329357696930  0.7625678728777529  0.8873144090041780
  0.2454032616155374  0.0209987112568611  0.0947282663737833
  0.2255677765804798  0.0397878235326026  0.3474587668621780
  0.2787617403325141  0.0094777942340946  0.6078890706807548
  0.2466733474474377  0.0367751470504001  0.8822053543039677
  0.7248269861754472  0.0191409392935090  0.1529033400629270
  0.7409646274127786  0.0167561834286122  0.3699231040456669
  0.7761211319054228  0.0041074303430228  0.5935668009866015
  0.8106890337214322  0.0146959762307303  0.8764231009515672
  0.9739236635272548  0.2388602856761204  0.0117397777559770
  0.9848408896265066  0.2117066280640716  0.2265394465474676
  0.9818896317037905  0.2344567135416220  0.5357041859153704
  0.9728485769905427  0.2409213706267242  0.7139322742300627
  0.4864352625761755  0.2522656453893262  0.0492815174961129
  0.4766742073786421  0.2471321736671783  0.2239859058443929
  0.4728742028811658  0.2427586398700630  0.4778755093232288
  0.4734643801287016  0.2372279763776256  0.7501665328093287
  0.2478637211671862  0.4886131112073005  0.9776612282901724
  0.2638661935645113  0.5136606906699085  0.2496810419823056
  0.2629069413828862  0.4911155878197361  0.5300732782459686
  0.2519442849579677  0.4938640377249908  0.7185132937739398
  0.0054640232242652  0.7294061512784791  0.0176950147478325
  0.0272311008924254  0.7266722982739859  0.1951946932513996
  0.0052927121224341  0.7417569310927792  0.4994323792324785
  0.9930141348805525  0.7425657269000424  0.7802320382728434
  0.7425973139303067  0.5159041307243756  0.0062964765966472
  0.7515414434816837  0.5100645424094756  0.2944626084000538
  0.7479887320644122  0.4930590865732891  0.4665250702766974
  0.7652070002185776  0.4807040652684894  0.7495974535845515
  0.5086176943453925  0.7343717231316784  0.9992814920344678
  0.5369699054732534  0.7495434791457094  0.2632735929618242
  0.5172778504806803  0.7702318662314612  0.5446487323034106
  0.5151221440657582  0.7631668773898940  0.7142652096241284
  0.2675453633723922  0.9998305871545020  0.9872794005521758
  0.2435878830615772  0.0223868581457958  0.2508072504905257
  0.2694550077310676  0.9969945632640622  0.5111457108804266
  0.2573200815994058  0.9834147581262827  0.7925425967754762
  0.7532995775005772  0.0233814149926407  0.9625398166848828
  0.7459666931345538  0.9982604432997876  0.2547972901768374
  0.7686835907851334  0.0099108561397904  0.4849542634064242
  0.7616875825713461  0.0077923737851342  0.7873570844620166
  0.1448621510354502  0.1163932258170044  0.1104149931298723
  0.1014892158984745  0.1433563205853712  0.3599794273657680
  0.1607819833207147  0.0717317438676049  0.6349494176515569
  0.1282678676413792  0.1069979546739440  0.8885468980411348
  0.6105690000223328  0.1168341955691617  0.1408011373741712
  0.6375110356172685  0.1107981435054120  0.3688483998468973
  0.5842675656225572  0.1658615727864487  0.6182456459372778
  0.5736116950481130  0.1856299587516724  0.8876224149475639
  0.3437946540859976  0.4079290056495120  0.1237149127306809
  0.3647525063197254  0.3647613844347166  0.3618085346242664
  0.3952663245420561  0.3374897835618740  0.6210626032711897
  0.3884502754808307  0.3522593743245897  0.8704038459350920
  0.1682873327834133  0.5847395662854414  0.1170159844958299
  0.0899277184872153  0.6766655654974943  0.3599569049374975
  0.1262672981148094  0.6164762809616544  0.6152863178557127
  0.1289485666904725  0.5999962823573441  0.8711844164009501
  0.8748393855599509  0.3576869387667401  0.1285782716364226
  0.9295906419072076  0.3171604289655643  0.3658321239937811
  0.8548684395579910  0.3855349487841536  0.6190649906013144
  0.8624378545816224  0.3604210097859626  0.8831776705936889
  0.6251494037159776  0.6550011780046544  0.1207400920914660
  0.6252992233392894  0.6522859213822686  0.3912199000011766
  0.6871966803876016  0.5891855248304696  0.6233462435288997
  0.5885753859368226  0.6467692086445623  0.8626955157626066
  0.4368242743860233  0.8445065635516905  0.1263340162909683
  0.4380016470106371  0.8259522004185721  0.3904327769288008
  0.3539105427264238  0.8881329440498453  0.6350358812099649
  0.4036475334894313  0.8294818063587468  0.8746210245494608
  0.8834109242823474  0.8477280289503475  0.1154863956550183
  0.9218723983899451  0.8560369734334426  0.3714679437238522
  0.8766854648119654  0.9148126041635460  0.6173308853593167
  0.8933663153461557  0.8841029402319505  0.8818763465405711
  0.8342520617678246  0.0931733455497232  0.1232671026733749
  0.8747314958798673  0.0975361123325399  0.3582954763172769
  0.8248579510094552  0.1351295155218221  0.6212295931472925
  0.9015767800597198  0.1371436101757120  0.8747601130530749
  0.3714905211109800  0.0896483951473254  0.1218730283208616
  0.3367207891092691  0.1145481375056750  0.3748807365614862
  0.3731919371010894  0.1131269979119423  0.6337914200966299
  0.3623905116542957  0.1292637620971220  0.8778408250680511
  0.0969103401274451  0.3520445176314352  0.1229606101365662
  0.1563709076682263  0.4275419634730892  0.3746149710548251
  0.1166254821020330  0.3859770331945367  0.6219190528022848
  0.0787206640765881  0.3294412589771005  0.8782482140223483
  0.8542754055719832  0.6100368756413341  0.1247800364878261
  0.8684230557448733  0.6422524241439864  0.3871136179198741
  0.9130377741858109  0.6599002576743953  0.6317254015003245
  0.8418079070806465  0.5931174103700512  0.8725124246127485
  0.6590911545991779  0.4336629126478063  0.1379380536740349
  0.5879650566950729  0.3575550792317114  0.3686710995146841
  0.6342407418831469  0.3783886983327184  0.6320814338686386
  0.6470001370065370  0.4157540620040352  0.8713675969363343
  0.3951217595676550  0.6259248407061492  0.1265384896776677
  0.3526540763696906  0.5896471604774106  0.3817939073035941
  0.3682850051368895  0.6526219004908164  0.6255449744052863
  0.3592994293214499  0.5987825805931191  0.8643245583075387
  0.1926551924272434  0.8986221018791837  0.1187534806470865
  0.1715921585393135  0.9201287937739502  0.3762804280842904
  0.0982177995168766  0.8349258733426927  0.6282970958563574
  0.1164380235845433  0.8558210769825014  0.8930684756513082
  0.6668307030785586  0.9057984517492373  0.1176326567306825
  0.6626880924155591  0.8791317909560981  0.3761796754594078
  0.6601625215458282  0.9474457022146070  0.6254010755805463
  0.6212389430615854  0.8628961280905280  0.8761101800098019
  0.9993253754198856  0.9940539509979419  0.0144908847453274
  0.0104442168350601  0.9648567373489417  0.2326246598037378
  0.0232061872893095  0.0002266647616040  0.4989896257176501
  0.0122134542369255  0.9995273012146090  0.7438366497050719
  0.5155990899626312  0.9979043515859591  0.9928486652203394
  0.4838455828661252  0.9901426748743876  0.2623154001759450
  0.5071956555568350  0.0049395759090644  0.4969340670714897
  0.5114795457215034  0.9923316442375881  0.7575128540101852
  0.2474784613180959  0.2635526444789701  0.0003224138163431
  0.2365483988023535  0.2605078128666720  0.2375664459706075
  0.2251596288572359  0.2508105470705573  0.5025792531470061
  0.2161277394544511  0.2507910889637228  0.7467242898304971
  0.9990451106243262  0.4967269059608490  0.9999239719401983
  0.9993934709993727  0.4991971641386195  0.2511140810730620
  0.9951160003345617  0.4801287009240875  0.4906007969469249
  0.0038305425834449  0.4946206259753103  0.7512488033443644
  0.7203017432405827  0.2613516426661409  0.0108562915782138
  0.7342274611931771  0.2701637098047758  0.2512154847319943
  0.7308327484997854  0.2600626427921711  0.4878128550048474
  0.7225419756271757  0.2357425077821707  0.7590687929935142
  0.4973131309720977  0.4830455418865349  0.9915535225150124
  0.5130534309455336  0.5078552413456019  0.2524960580199225
  0.5010017638351403  0.5119101934255667  0.5158813185153109
  0.4922990447900388  0.5066958029883243  0.7411898095841214
  0.2564973833275606  0.7459636095463920  0.0020870757300198
  0.2657988121535224  0.7656187806830228  0.2551422452226723
  0.2576891227643144  0.7488979676242186  0.4881789915764583
  0.2436145471316614  0.7488462032299288  0.7553905344681825
  0.7543638919494341  0.7577875917507296  0.9868123238151535
  0.7727005313378059  0.7564543335781795  0.2466054366359522
  0.7515241054365563  0.7593334671583193  0.5224585269722883
  0.7515140435074714  0.7588149427970774  0.7432127632526386
 
  0.00000000E+00  0.00000000E+00  0.00000000E+00
  0.00000000E+00  0.00000000E+00  0.00000000E+00
  0.00000000E+00  0.00000000E+00  0.00000000E+00
  0.00000000E+00  0.00000000E+00  0.00000000E+00
  0.00000000E+00  0.00000000E+00  0.00000000E+00
  0.00000000E+00  0.00000000E+00  0.00000000E+00
  0.00000000E+00  0.00000000E+00  0.00000000E+00
  0.00000000E+00  0.00000000E+00  0.00000000E+00
  0.00000000E+00  0.00000000E+00  0.00000000E+00
  0.00000000E+00  0.00000000E+00  0.00000000E+00
  0.00000000E+00  0.00000000E+00  0.00000000E+00
  0.00000000E+00  0.00000000E+00  0.00000000E+00
  0.00000000E+00  0.00000000E+00  0.00000000E+00
  0.00000000E+00  0.00000000E+00  0.00000000E+00
  0.00000000E+00  0.00000000E+00  0.00000000E+00
  0.00000000E+00  0.00000000E+00  0.00000000E+00
  0.00000000E+00  0.00000000E+00  0.00000000E+00
  0.00000000E+00  0.00000000E+00  0.00000000E+00
  0.00000000E+00  0.00000000E+00  0.00000000E+00
  0.00000000E+00  0.00000000E+00  0.00000000E+00
  0.00000000E+00  0.00000000E+00  0.00000000E+00
  0.00000000E+00  0.00000000E+00  0.00000000E+00
  0.00000000E+00  0.00000000E+00  0.00000000E+00
  0.00000000E+00  0.00000000E+00  0.00000000E+00
  0.00000000E+00  0.00000000E+00  0.00000000E+00
  0.00000000E+00  0.00000000E+00  0.00000000E+00
  0.00000000E+00  0.00000000E+00  0.00000000E+00
  0.00000000E+00  0.00000000E+00  0.00000000E+00
  0.00000000E+00  0.00000000E+00  0.00000000E+00
  0.00000000E+00  0.00000000E+00  0.00000000E+00
  0.00000000E+00  0.00000000E+00  0.00000000E+00
  0.00000000E+00  0.00000000E+00  0.00000000E+00
  0.00000000E+00  0.00000000E+00  0.00000000E+00
  0.00000000E+00  0.00000000E+00  0.00000000E+00
  0.00000000E+00  0.00000000E+00  0.00000000E+00
  0.00000000E+00  0.00000000E+00  0.00000000E+00
  0.00000000E+00  0.00000000E+00  0.00000000E+00
  0.00000000E+00  0.00000000E+00  0.00000000E+00
  0.00000000E+00  0.00000000E+00  0.00000000E+00
  0.00000000E+00  0.00000000E+00  0.00000000E+00
  0.00000000E+00  0.00000000E+00  0.00000000E+00
  0.00000000E+00  0.00000000E+00  0.00000000E+00
  0.00000000E+00  0.00000000E+00  0.00000000E+00
  0.00000000E+00  0.00000000E+00  0.00000000E+00
  0.00000000E+00  0.00000000E+00  0.00000000E+00
  0.00000000E+00  0.00000000E+00  0.00000000E+00
  0.00000000E+00  0.00000000E+00  0.00000000E+00
  0.00000000E+00  0.00000000E+00  0.00000000E+00
  0.00000000E+00  0.00000000E+00  0.00000000E+00
  0.00000000E+00  0.00000000E+00  0.00000000E+00
  0.00000000E+00  0.00000000E+00  0.00000000E+00
  0.00000000E+00  0.00000000E+00  0.00000000E+00
  0.00000000E+00  0.00000000E+00  0.00000000E+00
  0.00000000E+00  0.00000000E+00  0.00000000E+00
  0.00000000E+00  0.00000000E+00  0.00000000E+00
  0.00000000E+00  0.00000000E+00  0.00000000E+00
  0.00000000E+00  0.00000000E+00  0.00000000E+00
  0.00000000E+00  0.00000000E+00  0.00000000E+00
  0.00000000E+00  0.00000000E+00  0.00000000E+00
  0.00000000E+00  0.00000000E+00  0.00000000E+00
  0.00000000E+00  0.00000000E+00  0.00000000E+00
  0.00000000E+00  0.00000000E+00  0.00000000E+00
  0.00000000E+00  0.00000000E+00  0.00000000E+00
  0.00000000E+00  0.00000000E+00  0.00000000E+00
  0.00000000E+00  0.00000000E+00  0.00000000E+00
  0.00000000E+00  0.00000000E+00  0.00000000E+00
  0.00000000E+00  0.00000000E+00  0.00000000E+00
  0.00000000E+00  0.00000000E+00  0.00000000E+00
  0.00000000E+00  0.00000000E+00  0.00000000E+00
  0.00000000E+00  0.00000000E+00  0.00000000E+00
  0.00000000E+00  0.00000000E+00  0.00000000E+00
  0.00000000E+00  0.00000000E+00  0.00000000E+00
  0.00000000E+00  0.00000000E+00  0.00000000E+00
  0.00000000E+00  0.00000000E+00  0.00000000E+00
  0.00000000E+00  0.00000000E+00  0.00000000E+00
  0.00000000E+00  0.00000000E+00  0.00000000E+00
  0.00000000E+00  0.00000000E+00  0.00000000E+00
  0.00000000E+00  0.00000000E+00  0.00000000E+00
  0.00000000E+00  0.00000000E+00  0.00000000E+00
  0.00000000E+00  0.00000000E+00  0.00000000E+00
  0.00000000E+00  0.00000000E+00  0.00000000E+00
  0.00000000E+00  0.00000000E+00  0.00000000E+00
  0.00000000E+00  0.00000000E+00  0.00000000E+00
  0.00000000E+00  0.00000000E+00  0.00000000E+00
  0.00000000E+00  0.00000000E+00  0.00000000E+00
  0.00000000E+00  0.00000000E+00  0.00000000E+00
  0.00000000E+00  0.00000000E+00  0.00000000E+00
  0.00000000E+00  0.00000000E+00  0.00000000E+00
  0.00000000E+00  0.00000000E+00  0.00000000E+00
  0.00000000E+00  0.00000000E+00  0.00000000E+00
  0.00000000E+00  0.00000000E+00  0.00000000E+00
  0.00000000E+00  0.00000000E+00  0.00000000E+00
  0.00000000E+00  0.00000000E+00  0.00000000E+00
  0.00000000E+00  0.00000000E+00  0.00000000E+00
  0.00000000E+00  0.00000000E+00  0.00000000E+00
  0.00000000E+00  0.00000000E+00  0.00000000E+00
  0.00000000E+00  0.00000000E+00  0.00000000E+00
  0.00000000E+00  0.00000000E+00  0.00000000E+00
  0.00000000E+00  0.00000000E+00  0.00000000E+00
  0.00000000E+00  0.00000000E+00  0.00000000E+00
  0.00000000E+00  0.00000000E+00  0.00000000E+00
  0.00000000E+00  0.00000000E+00  0.00000000E+00
  0.00000000E+00  0.00000000E+00  0.00000000E+00
  0.00000000E+00  0.00000000E+00  0.00000000E+00
  0.00000000E+00  0.00000000E+00  0.00000000E+00
  0.00000000E+00  0.00000000E+00  0.00000000E+00
  0.00000000E+00  0.00000000E+00  0.00000000E+00
  0.00000000E+00  0.00000000E+00  0.00000000E+00
  0.00000000E+00  0.00000000E+00  0.00000000E+00
  0.00000000E+00  0.00000000E+00  0.00000000E+00
  0.00000000E+00  0.00000000E+00  0.00000000E+00
  0.00000000E+00  0.00000000E+00  0.00000000E+00
  0.00000000E+00  0.00000000E+00  0.00000000E+00
  0.00000000E+00  0.00000000E+00  0.00000000E+00
  0.00000000E+00  0.00000000E+00  0.00000000E+00
  0.00000000E+00  0.00000000E+00  0.00000000E+00
  0.00000000E+00  0.00000000E+00  0.00000000E+00
  0.00000000E+00  0.00000000E+00  0.00000000E+00
  0.00000000E+00  0.00000000E+00  0.00000000E+00
  0.00000000E+00  0.00000000E+00  0.00000000E+00
  0.00000000E+00  0.00000000E+00  0.00000000E+00
  0.00000000E+00  0.00000000E+00  0.00000000E+00
  0.00000000E+00  0.00000000E+00  0.00000000E+00
  0.00000000E+00  0.00000000E+00  0.00000000E+00
  0.00000000E+00  0.00000000E+00  0.00000000E+00
  0.00000000E+00  0.00000000E+00  0.00000000E+00
  0.00000000E+00  0.00000000E+00  0.00000000E+00
  0.00000000E+00  0.00000000E+00  0.00000000E+00
  0.00000000E+00  0.00000000E+00  0.00000000E+00
  0.00000000E+00  0.00000000E+00  0.00000000E+00
  0.00000000E+00  0.00000000E+00  0.00000000E+00
  0.00000000E+00  0.00000000E+00  0.00000000E+00
  0.00000000E+00  0.00000000E+00  0.00000000E+00
  0.00000000E+00  0.00000000E+00  0.00000000E+00
  0.00000000E+00  0.00000000E+00  0.00000000E+00
  0.00000000E+00  0.00000000E+00  0.00000000E+00
  0.00000000E+00  0.00000000E+00  0.00000000E+00
  0.00000000E+00  0.00000000E+00  0.00000000E+00
  0.00000000E+00  0.00000000E+00  0.00000000E+00
  0.00000000E+00  0.00000000E+00  0.00000000E+00
  0.00000000E+00  0.00000000E+00  0.00000000E+00
  0.00000000E+00  0.00000000E+00  0.00000000E+00
  0.00000000E+00  0.00000000E+00  0.00000000E+00
  0.00000000E+00  0.00000000E+00  0.00000000E+00
  0.00000000E+00  0.00000000E+00  0.00000000E+00
  0.00000000E+00  0.00000000E+00  0.00000000E+00
  0.00000000E+00  0.00000000E+00  0.00000000E+00
  0.00000000E+00  0.00000000E+00  0.00000000E+00
  0.00000000E+00  0.00000000E+00  0.00000000E+00
  0.00000000E+00  0.00000000E+00  0.00000000E+00
  0.00000000E+00  0.00000000E+00  0.00000000E+00
  0.00000000E+00  0.00000000E+00  0.00000000E+00
  0.00000000E+00  0.00000000E+00  0.00000000E+00
  0.00000000E+00  0.00000000E+00  0.00000000E+00
  0.00000000E+00  0.00000000E+00  0.00000000E+00
  0.00000000E+00  0.00000000E+00  0.00000000E+00
  0.00000000E+00  0.00000000E+00  0.00000000E+00
  0.00000000E+00  0.00000000E+00  0.00000000E+00
  0.00000000E+00  0.00000000E+00  0.00000000E+00
  0.00000000E+00  0.00000000E+00  0.00000000E+00
