Pb Tl Cl                                
   1.00000000000000     
    11.3339049999999997  -11.3339049999999997    0.0000000000000000
    11.3339049999999997   11.3339049999999997    0.0000000000000000
     0.0000000000000000    0.0000000000000000   22.6678099999999993
   Cl   Pb   Tl
    96    32    32
Direct
  0.0109505606316924  0.2774614856046495  0.0020393302485997
  0.0295515565677206  0.2086554918693444  0.2538543762059962
  0.0195429607720268  0.3028443307020267  0.5031001600493322
  0.9775207567340287  0.2049323488733565  0.7513807089944456
  0.5219823119744109  0.2025910254364605  0.9996778099781508
  0.5196158685706749  0.2927548735663896  0.2497532370046076
  0.5192812899134887  0.2047172435698076  0.4995050090177357
  0.4807636911638035  0.2968425862823907  0.7486870865843744
  0.2032455049435559  0.4884674442429828  0.9989844353213438
  0.2988195446994998  0.4725549690659130  0.2495451613752445
  0.2144241951614710  0.5231680124981108  0.5002501219654403
  0.3017890236063899  0.4764287624472256  0.7494227023491987
  0.9831832306943796  0.7012694128276747  0.0032501220846605
  0.0193669162705523  0.8030090128311139  0.2515424466743373
  0.0160837030544960  0.6992676034648938  0.5006877460660230
  0.0113246994177629  0.7953835680253826  0.7518594864329514
  0.7955932488244088  0.5151894414700418  0.0045025565807907
  0.7027978017877915  0.5153679464335222  0.2533198685048807
  0.8053079796422665  0.5022234833539518  0.5023523377266502
  0.7106911105444205  0.4813584446300500  0.7520848749925495
  0.4844056872415884  0.7954394911746695  0.9990085876533749
  0.5205099656231444  0.6968032073571859  0.2477303436431336
  0.5207391719493421  0.8029829411647705  0.4949708747698725
  0.5260583471542120  0.7417925035714572  0.7462562320201868
  0.2974633640633719  0.9780442086054241  0.9991722933833775
  0.2024203887914108  0.9887571865764486  0.2486964419393537
  0.3018535971016373  0.0061522606272420  0.5013870982110727
  0.2000762997322767  0.9794647388245115  0.7509663248442399
  0.7277116579138673  0.0206238545968721  0.9994959796868753
  0.8001640929498592  0.0214638836008672  0.2475747740979933
  0.7035264026653109  0.0013652502041619  0.4963927928684850
  0.7889013745848976  0.9822737696115912  0.7476329863675870
  0.0907293661488517  0.0934946771809134  0.1059626486912264
  0.1270494676599927  0.1327458481230536  0.4096425174776506
  0.1090416367457725  0.1058625282536877  0.5937717674332921
  0.0883553843754292  0.0930513053765875  0.8913821601009675
  0.6036926196487485  0.1062998729673103  0.1583253298973151
  0.6466371008756712  0.1485469218210065  0.3575142375620607
  0.6075104147871534  0.1065955754267735  0.6435639519741426
  0.6038917163889005  0.1079938788445414  0.8516597827814272
  0.3831248091138671  0.3871433113689385  0.0902268690493905
  0.3657388305822312  0.3692100751019889  0.4035690814068987
  0.3708015130969901  0.3704324114694011  0.5920606271487940
  0.3847931089755632  0.3908006890330283  0.9091640470272943
  0.0898901189980006  0.5951231509396322  0.1444907786797827
  0.1528292339570263  0.6563469066953986  0.3570423876686751
  0.1067132432437698  0.6044026429936785  0.6509288411720335
  0.1099848029823464  0.6159979253379546  0.8433858139157494
  0.9028416822580446  0.4056155924646987  0.1454270388317718
  0.8699548553884856  0.3747199047515603  0.3428979505733527
  0.8974245797071949  0.3939261577853577  0.6455310833375285
  0.8945185516243818  0.3970850861100982  0.8507237010053749
  0.6084120936246947  0.6085745313283735  0.0931756342595946
  0.6562605232765517  0.6610512850729678  0.3895936961829918
  0.6512646623832050  0.6509040319605857  0.6113652391303226
  0.6114870863204631  0.6141178034497177  0.9093826202156053
  0.3798257650027895  0.8821052717913106  0.1592927637786937
  0.3639783056202919  0.8713961821907730  0.3443148698789163
  0.4006562470366018  0.9012782779736419  0.6452655697749450
  0.3921472045362536  0.8959690123788152  0.8518355504643841
  0.9049674166048360  0.9098218430097073  0.1060410986956932
  0.8615601434418569  0.8650453285884280  0.4016185374732583
  0.8584207713144750  0.8580490546718781  0.6043072371362301
  0.9056441142750606  0.9096660673816692  0.8936874712190325
  0.8512155021965878  0.1481377678714288  0.1093311761755000
  0.8776852888809303  0.1233601184325518  0.4035673139387345
  0.8641896158312851  0.1401533278112553  0.5847009256690360
  0.8492034522649560  0.1578743845045648  0.8897090882691112
  0.3599726635226247  0.1325101728226853  0.1571297924132737
  0.3752979178992476  0.1262821753416532  0.3454211910791223
  0.3462292314960355  0.1485779463024529  0.6367996540958935
  0.3639448270464605  0.1401573593228166  0.8724132971120905
  0.1557370031047640  0.3447857226050171  0.1371229877634000
  0.1181943418733215  0.3868705998305428  0.3442863508168124
  0.1524209776674894  0.3447584462700865  0.6405583694809209
  0.1633861622981051  0.3404765380596673  0.8614289306527622
  0.8428555770327603  0.6475728148827431  0.1417635064931503
  0.8848929611775441  0.6205684289293170  0.3372910213300103
  0.8761247751099062  0.6267139672697806  0.6515285752127472
  0.8609412603208084  0.6430496727617500  0.8411804884081189
  0.6566682615008427  0.3343955936573762  0.1147896614855118
  0.6024566381132159  0.4038022871780372  0.3953997872056088
  0.6031942907055459  0.3962507868121237  0.6074322640336057
  0.6632994672082250  0.3458641891360807  0.8902005797646255
  0.3632202832813263  0.6373481333222086  0.0976663713246642
  0.4038863479703046  0.6033952050787087  0.3908603861163994
  0.4014686386729068  0.5999715897083675  0.6131396469313919
  0.3588934608241117  0.6383089530297689  0.9044312358618400
  0.1560277154427901  0.8370957309282638  0.1126685372640948
  0.1177094216089258  0.8836258760988561  0.4107387716304611
  0.1613938819088841  0.8375869384655643  0.6074687659456869
  0.1570296639708128  0.8424885858045066  0.8887863958241433
  0.6631409440580890  0.8348337288644395  0.1314762097136003
  0.6157551072106251  0.8880859515424874  0.3312529270272663
  0.6312339487831229  0.8767759782815786  0.6321924566674103
  0.6286034254652477  0.8734644716093208  0.8690355155034173
  0.0025064146002586  0.2473733710308858  0.1257543875581337
  0.0000739853990090  0.2566075910702588  0.3777062267957411
  0.9968065227954680  0.2460088927001900  0.6252575912960656
  0.0065449008658223  0.2508013870931788  0.8748012983904332
  0.4977905638683959  0.2445097088160685  0.1272373019582451
  0.4978578216609180  0.2511825956554419  0.3761438393025683
  0.4975137144073107  0.2462013750202510  0.6231231375839267
  0.5022716369070565  0.2509459066986533  0.8768873042777598
  0.2542637902263299  0.4964846451092221  0.1275846477348637
  0.2533601262638686  0.5054164104982419  0.3752657887652072
  0.2529152988756218  0.4969923719870157  0.6247547453857055
  0.2490165418189031  0.5013940608019655  0.8731254657588481
  0.0023538739801162  0.7481915362467983  0.1260844783387015
  0.9982817337769408  0.7542817898746372  0.3717919042462531
  0.0078082710713688  0.7476799433030449  0.6231334994710943
  0.9966373535693003  0.7478501907140288  0.8789813134276228
  0.7479035126622471  0.4933946763468601  0.1278867797982345
  0.7551642805231380  0.5050008189401728  0.3781136948429919
  0.7520442519348205  0.4996646594518550  0.6233695962488420
  0.7501146401531246  0.5062243745561493  0.8762618542968783
  0.5041987533868773  0.7479880078411815  0.1258687712340275
  0.5050684721315823  0.7587993975291258  0.3710470535813351
  0.5016303304953129  0.7488189601987102  0.6227793776899120
  0.5029215451814529  0.7468038420182904  0.8780477713458051
  0.2509515095507594  0.9982018968046703  0.1250751362879782
  0.2512779118830091  0.0042173952715240  0.3818409345408338
  0.2490847848456615  0.9937473659476727  0.6248760933015419
  0.2477036006912976  0.9983691828232767  0.8762263936406322
  0.7505993220442327  0.9932886778207657  0.1253030229807633
  0.7500047907867251  0.9959494048820879  0.3662218059115731
  0.7560154924700374  0.0069949073100048  0.6240704615238012
  0.7519497489856942  0.0025587761504054  0.8733198456099366
  0.9514400911522716  0.0454882733148872  0.0025090888539213
  0.0026507010871666  0.0072659997448283  0.2179061169522996
  0.0032962866471153  0.0217857497381170  0.4830657175818130
  0.9953565793935163  0.0022751935039789  0.7832965706522479
  0.4921380345988043  0.0033714691851232  0.9500805208594972
  0.4638450828766631  0.0076586799274876  0.2517235291798748
  0.5041039971502459  0.9971975736868507  0.5401855217973889
  0.5290942815690811  0.9476097031814560  0.7516351690689476
  0.2518201349704007  0.3045599203252953  0.9922928888156186
  0.2229549534317520  0.2745431802803786  0.2564096255054791
  0.2284123512647857  0.2354716866520524  0.5333780672409144
  0.2799370907600979  0.2810963249322303  0.7473855187971402
  0.9976600392792055  0.5047330187584131  0.0361725853065543
  0.9852477033955949  0.4893004469263177  0.2607927193776567
  0.9962227534635586  0.4952967847513772  0.5410925175104140
  0.9752984787414832  0.5312392930175083  0.7550282191848138
  0.7208749815150411  0.2253532478190391  0.0019496116411359
  0.7131774683532732  0.2237516808553432  0.2327477075954055
  0.7292928137101489  0.1946578313827504  0.4820601863313808
  0.7771659307663540  0.2806666939326927  0.7858656477467765
  0.4664271203793223  0.5305897229063067  0.0000867776152169
  0.5026413874520540  0.4955628991579316  0.2871286432762755
  0.4734208144608054  0.4765153529461693  0.4949931701807019
  0.5094226767117855  0.4852315504435085  0.7126256098669170
  0.2826020599398802  0.7762697079397149  0.0019094120249792
  0.2289481726691499  0.7982981921133192  0.2458148545947435
  0.2033647926423219  0.7316112589735710  0.4821220597382875
  0.2004049386849061  0.7816237151359625  0.7614922320437871
  0.7494488071359497  0.7078879595419287  0.0294211149554877
  0.7206745027408463  0.7135477102244703  0.2598461199111818
  0.7213464279353210  0.7896171356749800  0.5031655487307771
  0.7556683181193221  0.7628335450234429  0.7077210111385179
 
  0.00000000E+00  0.00000000E+00  0.00000000E+00
  0.00000000E+00  0.00000000E+00  0.00000000E+00
  0.00000000E+00  0.00000000E+00  0.00000000E+00
  0.00000000E+00  0.00000000E+00  0.00000000E+00
  0.00000000E+00  0.00000000E+00  0.00000000E+00
  0.00000000E+00  0.00000000E+00  0.00000000E+00
  0.00000000E+00  0.00000000E+00  0.00000000E+00
  0.00000000E+00  0.00000000E+00  0.00000000E+00
  0.00000000E+00  0.00000000E+00  0.00000000E+00
  0.00000000E+00  0.00000000E+00  0.00000000E+00
  0.00000000E+00  0.00000000E+00  0.00000000E+00
  0.00000000E+00  0.00000000E+00  0.00000000E+00
  0.00000000E+00  0.00000000E+00  0.00000000E+00
  0.00000000E+00  0.00000000E+00  0.00000000E+00
  0.00000000E+00  0.00000000E+00  0.00000000E+00
  0.00000000E+00  0.00000000E+00  0.00000000E+00
  0.00000000E+00  0.00000000E+00  0.00000000E+00
  0.00000000E+00  0.00000000E+00  0.00000000E+00
  0.00000000E+00  0.00000000E+00  0.00000000E+00
  0.00000000E+00  0.00000000E+00  0.00000000E+00
  0.00000000E+00  0.00000000E+00  0.00000000E+00
  0.00000000E+00  0.00000000E+00  0.00000000E+00
  0.00000000E+00  0.00000000E+00  0.00000000E+00
  0.00000000E+00  0.00000000E+00  0.00000000E+00
  0.00000000E+00  0.00000000E+00  0.00000000E+00
  0.00000000E+00  0.00000000E+00  0.00000000E+00
  0.00000000E+00  0.00000000E+00  0.00000000E+00
  0.00000000E+00  0.00000000E+00  0.00000000E+00
  0.00000000E+00  0.00000000E+00  0.00000000E+00
  0.00000000E+00  0.00000000E+00  0.00000000E+00
  0.00000000E+00  0.00000000E+00  0.00000000E+00
  0.00000000E+00  0.00000000E+00  0.00000000E+00
  0.00000000E+00  0.00000000E+00  0.00000000E+00
  0.00000000E+00  0.00000000E+00  0.00000000E+00
  0.00000000E+00  0.00000000E+00  0.00000000E+00
  0.00000000E+00  0.00000000E+00  0.00000000E+00
  0.00000000E+00  0.00000000E+00  0.00000000E+00
  0.00000000E+00  0.00000000E+00  0.00000000E+00
  0.00000000E+00  0.00000000E+00  0.00000000E+00
  0.00000000E+00  0.00000000E+00  0.00000000E+00
  0.00000000E+00  0.00000000E+00  0.00000000E+00
  0.00000000E+00  0.00000000E+00  0.00000000E+00
  0.00000000E+00  0.00000000E+00  0.00000000E+00
  0.00000000E+00  0.00000000E+00  0.00000000E+00
  0.00000000E+00  0.00000000E+00  0.00000000E+00
  0.00000000E+00  0.00000000E+00  0.00000000E+00
  0.00000000E+00  0.00000000E+00  0.00000000E+00
  0.00000000E+00  0.00000000E+00  0.00000000E+00
  0.00000000E+00  0.00000000E+00  0.00000000E+00
  0.00000000E+00  0.00000000E+00  0.00000000E+00
  0.00000000E+00  0.00000000E+00  0.00000000E+00
  0.00000000E+00  0.00000000E+00  0.00000000E+00
  0.00000000E+00  0.00000000E+00  0.00000000E+00
  0.00000000E+00  0.00000000E+00  0.00000000E+00
  0.00000000E+00  0.00000000E+00  0.00000000E+00
  0.00000000E+00  0.00000000E+00  0.00000000E+00
  0.00000000E+00  0.00000000E+00  0.00000000E+00
  0.00000000E+00  0.00000000E+00  0.00000000E+00
  0.00000000E+00  0.00000000E+00  0.00000000E+00
  0.00000000E+00  0.00000000E+00  0.00000000E+00
  0.00000000E+00  0.00000000E+00  0.00000000E+00
  0.00000000E+00  0.00000000E+00  0.00000000E+00
  0.00000000E+00  0.00000000E+00  0.00000000E+00
  0.00000000E+00  0.00000000E+00  0.00000000E+00
  0.00000000E+00  0.00000000E+00  0.00000000E+00
  0.00000000E+00  0.00000000E+00  0.00000000E+00
  0.00000000E+00  0.00000000E+00  0.00000000E+00
  0.00000000E+00  0.00000000E+00  0.00000000E+00
  0.00000000E+00  0.00000000E+00  0.00000000E+00
  0.00000000E+00  0.00000000E+00  0.00000000E+00
  0.00000000E+00  0.00000000E+00  0.00000000E+00
  0.00000000E+00  0.00000000E+00  0.00000000E+00
  0.00000000E+00  0.00000000E+00  0.00000000E+00
  0.00000000E+00  0.00000000E+00  0.00000000E+00
  0.00000000E+00  0.00000000E+00  0.00000000E+00
  0.00000000E+00  0.00000000E+00  0.00000000E+00
  0.00000000E+00  0.00000000E+00  0.00000000E+00
  0.00000000E+00  0.00000000E+00  0.00000000E+00
  0.00000000E+00  0.00000000E+00  0.00000000E+00
  0.00000000E+00  0.00000000E+00  0.00000000E+00
  0.00000000E+00  0.00000000E+00  0.00000000E+00
  0.00000000E+00  0.00000000E+00  0.00000000E+00
  0.00000000E+00  0.00000000E+00  0.00000000E+00
  0.00000000E+00  0.00000000E+00  0.00000000E+00
  0.00000000E+00  0.00000000E+00  0.00000000E+00
  0.00000000E+00  0.00000000E+00  0.00000000E+00
  0.00000000E+00  0.00000000E+00  0.00000000E+00
  0.00000000E+00  0.00000000E+00  0.00000000E+00
  0.00000000E+00  0.00000000E+00  0.00000000E+00
  0.00000000E+00  0.00000000E+00  0.00000000E+00
  0.00000000E+00  0.00000000E+00  0.00000000E+00
  0.00000000E+00  0.00000000E+00  0.00000000E+00
  0.00000000E+00  0.00000000E+00  0.00000000E+00
  0.00000000E+00  0.00000000E+00  0.00000000E+00
  0.00000000E+00  0.00000000E+00  0.00000000E+00
  0.00000000E+00  0.00000000E+00  0.00000000E+00
  0.00000000E+00  0.00000000E+00  0.00000000E+00
  0.00000000E+00  0.00000000E+00  0.00000000E+00
  0.00000000E+00  0.00000000E+00  0.00000000E+00
  0.00000000E+00  0.00000000E+00  0.00000000E+00
  0.00000000E+00  0.00000000E+00  0.00000000E+00
  0.00000000E+00  0.00000000E+00  0.00000000E+00
  0.00000000E+00  0.00000000E+00  0.00000000E+00
  0.00000000E+00  0.00000000E+00  0.00000000E+00
  0.00000000E+00  0.00000000E+00  0.00000000E+00
  0.00000000E+00  0.00000000E+00  0.00000000E+00
  0.00000000E+00  0.00000000E+00  0.00000000E+00
  0.00000000E+00  0.00000000E+00  0.00000000E+00
  0.00000000E+00  0.00000000E+00  0.00000000E+00
  0.00000000E+00  0.00000000E+00  0.00000000E+00
  0.00000000E+00  0.00000000E+00  0.00000000E+00
  0.00000000E+00  0.00000000E+00  0.00000000E+00
  0.00000000E+00  0.00000000E+00  0.00000000E+00
  0.00000000E+00  0.00000000E+00  0.00000000E+00
  0.00000000E+00  0.00000000E+00  0.00000000E+00
  0.00000000E+00  0.00000000E+00  0.00000000E+00
  0.00000000E+00  0.00000000E+00  0.00000000E+00
  0.00000000E+00  0.00000000E+00  0.00000000E+00
  0.00000000E+00  0.00000000E+00  0.00000000E+00
  0.00000000E+00  0.00000000E+00  0.00000000E+00
  0.00000000E+00  0.00000000E+00  0.00000000E+00
  0.00000000E+00  0.00000000E+00  0.00000000E+00
  0.00000000E+00  0.00000000E+00  0.00000000E+00
  0.00000000E+00  0.00000000E+00  0.00000000E+00
  0.00000000E+00  0.00000000E+00  0.00000000E+00
  0.00000000E+00  0.00000000E+00  0.00000000E+00
  0.00000000E+00  0.00000000E+00  0.00000000E+00
  0.00000000E+00  0.00000000E+00  0.00000000E+00
  0.00000000E+00  0.00000000E+00  0.00000000E+00
  0.00000000E+00  0.00000000E+00  0.00000000E+00
  0.00000000E+00  0.00000000E+00  0.00000000E+00
  0.00000000E+00  0.00000000E+00  0.00000000E+00
  0.00000000E+00  0.00000000E+00  0.00000000E+00
  0.00000000E+00  0.00000000E+00  0.00000000E+00
  0.00000000E+00  0.00000000E+00  0.00000000E+00
  0.00000000E+00  0.00000000E+00  0.00000000E+00
  0.00000000E+00  0.00000000E+00  0.00000000E+00
  0.00000000E+00  0.00000000E+00  0.00000000E+00
  0.00000000E+00  0.00000000E+00  0.00000000E+00
  0.00000000E+00  0.00000000E+00  0.00000000E+00
  0.00000000E+00  0.00000000E+00  0.00000000E+00
  0.00000000E+00  0.00000000E+00  0.00000000E+00
  0.00000000E+00  0.00000000E+00  0.00000000E+00
  0.00000000E+00  0.00000000E+00  0.00000000E+00
  0.00000000E+00  0.00000000E+00  0.00000000E+00
  0.00000000E+00  0.00000000E+00  0.00000000E+00
  0.00000000E+00  0.00000000E+00  0.00000000E+00
  0.00000000E+00  0.00000000E+00  0.00000000E+00
  0.00000000E+00  0.00000000E+00  0.00000000E+00
  0.00000000E+00  0.00000000E+00  0.00000000E+00
  0.00000000E+00  0.00000000E+00  0.00000000E+00
  0.00000000E+00  0.00000000E+00  0.00000000E+00
  0.00000000E+00  0.00000000E+00  0.00000000E+00
  0.00000000E+00  0.00000000E+00  0.00000000E+00
  0.00000000E+00  0.00000000E+00  0.00000000E+00
  0.00000000E+00  0.00000000E+00  0.00000000E+00
  0.00000000E+00  0.00000000E+00  0.00000000E+00
  0.00000000E+00  0.00000000E+00  0.00000000E+00
  0.00000000E+00  0.00000000E+00  0.00000000E+00
  0.00000000E+00  0.00000000E+00  0.00000000E+00
