Pb Tl Br                                
   1.00000000000000     
    11.8617439999999998  -11.8617439999999998    0.0000000000000000
    11.8617439999999998   11.8617439999999998    0.0000000000000000
     0.0000000000000000    0.0000000000000000   23.7234890000000007
   Br   Pb   Tl
    96    32    32
Direct
  0.0893448222774785  0.1533586042687825  0.9741798835011561
  0.0785103654895990  0.1642092658766469  0.2679052225154173
  0.1441880086230228  0.1169222521680908  0.4714812892486326
  0.1318831637831771  0.1100095212297865  0.7863614936134082
  0.5986967336029138  0.1477169863858992  0.0266404331215573
  0.5960372132205083  0.1522161250980766  0.2213666655580576
  0.6452618594134724  0.1069947815286658  0.5118650433057991
  0.6395504624661078  0.1070026982571710  0.7137255710079953
  0.3904617378260050  0.3526160931778500  0.0227549501062419
  0.3883011992610237  0.3540531701575766  0.2250578928561525
  0.3663080010371620  0.3926536980062088  0.5376374359805924
  0.3784358561440396  0.3682838044437826  0.7291906772226949
  0.0878027679854993  0.6600195080324648  0.0031310576076575
  0.0889925515024269  0.6644310763816944  0.2511188840888140
  0.1425846185724076  0.6044922138079515  0.5295180699787171
  0.1427878800478780  0.6088640628445042  0.7138921256246150
  0.8859184750869999  0.3621127224801879  0.9658588627561429
  0.8932688055753353  0.3601972282570409  0.2495063625898054
  0.8649385384280366  0.3889512088733781  0.4639880202773479
  0.8585507575764801  0.3925935677477768  0.7691188820307210
  0.5863883272084045  0.6601510259502515  0.9864008717839187
  0.5844877812315836  0.6594644737383044  0.2625746632836645
  0.6392069944746802  0.6177471381224283  0.4625163326661620
  0.6589723131737416  0.5923482130095346  0.7751061886370905
  0.3925804423854247  0.8544018463270958  0.9799527125567697
  0.3844512456797105  0.8651991524330375  0.2851046772095132
  0.3683594357724895  0.8805263839585648  0.4711796402543602
  0.3644747546541950  0.8847715977155969  0.7854413291433688
  0.9047724934040090  0.8390678033763290  0.0169289207349629
  0.8984715968810999  0.8467621067853331  0.2262619495108123
  0.8494299255840810  0.9066685294503642  0.5210535854821255
  0.8625888310167971  0.8831700070790461  0.7123443282947062
  0.8438358117778363  0.0983788031202614  0.0201543880633109
  0.8484014263757834  0.1065989862292561  0.2216017995848039
  0.9141805069991383  0.1598645989539579  0.5093806633547242
  0.9070922136856246  0.1485247359531770  0.7267414344093256
  0.3460701145422145  0.1027176906861054  0.9811350283988594
  0.3526840780239073  0.1114268136164357  0.2798773140566037
  0.3904024921853252  0.1299594821184440  0.4791898767001879
  0.3835186352962897  0.1318769767016559  0.7862783053508124
  0.1535279429917571  0.4103010854596779  0.0228262141388996
  0.1536824135069365  0.4107893223564872  0.2243446912215759
  0.1082469529580842  0.3533228814943408  0.5258594646056587
  0.1121979883548747  0.3562093554045577  0.7147104221412597
  0.8540845443887382  0.6086792988516161  0.9658601101432037
  0.8487960953132883  0.6081467759102894  0.2741434071658996
  0.8927846740228395  0.6372261424457990  0.4580604762403627
  0.9014782556395918  0.6454302378549795  0.7723832880491440
  0.6371252962601525  0.3928661427517854  0.9663610980455698
  0.6545492711494186  0.4106845166727067  0.2723816834309558
  0.6032766819072336  0.3492347021633800  0.4855646190799443
  0.6085283961105191  0.3522653403984747  0.7606819563916168
  0.3437581701244271  0.6004603720071834  0.0183667867510308
  0.3441161417758382  0.6009354272706421  0.2282075755474950
  0.4080948924560526  0.6539059120373337  0.5189102076294319
  0.4114167323081913  0.6593002231461043  0.7344054919482823
  0.1541027971815760  0.9109722908955727  0.9757106844666306
  0.1363717429604745  0.8953505224248539  0.2834865752274376
  0.1311064949040838  0.8763674690086923  0.4811260549145822
  0.0934185189699950  0.8387027009705506  0.7623591713583973
  0.6539698540332075  0.9071094110119864  0.0218009644047654
  0.6335853964505057  0.8937866678578452  0.2115897372797765
  0.6149011939182925  0.8530531391680513  0.5312072185175403
  0.6096352378117273  0.8558667029630299  0.7204976871664591
  0.0457292083766962  0.0287312771204155  0.1237737208467744
  0.9494495685567429  0.9835002203631489  0.3726118581623304
  0.0554211876381195  0.0112006476237897  0.6217929204975450
  0.9489801764029651  0.0031352069040844  0.8720668337360701
  0.4468820527431466  0.0100519032556618  0.1234116797971888
  0.5532879295976875  0.0020544238911322  0.3732655331539513
  0.4503328974661807  0.9831257805085211  0.6236059999964871
  0.5530711718450261 -0.0029018223443522  0.8742904354541764
  0.2511211788864026  0.2049112894825104  0.1243438654081074
  0.2363872926186594  0.3020623772262666  0.3761453378260998
  0.2412412590412086  0.1943995050829214  0.6237154828917605
  0.2585497757086206  0.3034958321147048  0.8738468975387417
  0.9641106579918258  0.5333378220305064  0.1279219583628945
  0.0513537264336351  0.4770656763848239  0.3777571721952623
  0.9545409983469695  0.5193639628798444  0.6279880888082560
  0.0495712662177134  0.5055577211393673  0.8764098484146666
  0.7669157789310480  0.2903908680066171  0.1217278445897497
  0.7404912391679851  0.2035700037800336  0.3726684856113254
  0.7441239599514964  0.3005832851291613  0.6233520552234280
  0.7639982694265635  0.1981176113672840  0.8716639243626181
  0.5289178140335465  0.5146297427805612  0.1251767044856724
  0.4465566286390547  0.5134452233983658  0.3764280264735496
  0.5576382258462884  0.4983463554615329  0.6247170415423876
  0.4499740270207220  0.5009791712879359  0.8725472314740432
  0.2162933860422819  0.7958859414077901  0.1249518998727195
  0.2619363731860728  0.6995985718963300  0.3750844378964875
  0.2652656747978939  0.8025329211625467  0.6236789919266342
  0.2568647943355712  0.7045979891105956  0.8738267826008993
  0.7383059381901547  0.6969615595523135  0.1268295209195612
  0.7625447950393356  0.8027544467392509  0.3756918887114371
  0.7730454434018407  0.6978423938111590  0.6271562931816711
  0.7691143813335994  0.8003780513631075  0.8768826676206840
  0.9994522190574794  0.0063915859795295  0.0015967250753319
  0.9974106557502757  0.0055711375589105  0.2491151958588781
 -0.0004746895478507  0.0016571879897138  0.4979627175324761
  0.0010399514267904  0.9941925159401929  0.7464693754080406
  0.4988984106077736  0.0002562504008448  0.9984416939830372
  0.4961725479335753  0.9974813501839648  0.2516011132469910
  0.5024654035497461  0.9909338139770767  0.5034501759394565
  0.5026878461196675  0.0008911894739126  0.7541894629894506
  0.2420469733081222  0.2557569507142462  0.9980900826487062
  0.2459580999574135  0.2485009064591602  0.2518414451096732
  0.2609784588310253  0.2507525671316684  0.5009683343738955
  0.2497621679673561  0.2446194142296845  0.7485610970413131
  0.9988001221876892  0.5000718391978303  0.9960800784192632
  0.0055052388561872  0.5034643254157151  0.2508266870301273
  0.9982150758516233  0.5056027600693204  0.4979743473120612
  0.0060813821773364  0.4943080296495893  0.7498027911957847
  0.7466203002310065  0.2559557658994172  0.9981211613819052
  0.7392304754063331  0.2519534432448158  0.2498762885774158
  0.7584512584177883  0.2551130737261614  0.4994654214932826
  0.7510827512637854  0.2387156828970845  0.7474935092443379
  0.5000320458983949  0.5057042454845981  0.9966988742743776
  0.4979208244199460  0.5036426688498474  0.2517028901304368
  0.5000660656069180  0.5005044654542558  0.5005789495520040
  0.5058865532767084  0.5098202112246544  0.7486069763555144
  0.2438434917207448  0.7557753291534424  0.0006647885786284
  0.2440467299737946  0.7556108135845956  0.2503232591564347
  0.2485145953371749  0.7434261949199944  0.5012914465029025
  0.2450525455287875  0.7494886979849279  0.7471562550297394
  0.7484019553052108  0.7536414402499441  0.9983144131145941
  0.7413243934431663  0.7578874967205692  0.2469632019009772
  0.7539716362559882  0.7446418998463628  0.4978931710312569
  0.7520413431895705  0.7490115604206076  0.7480470888047187
  0.9671566602295686  0.2236579886719516  0.1586015710432086
  0.0421028847688358  0.2737202629654526  0.4056947056486356
  0.0395608962176591  0.2102966830930913  0.6203043273820404
  0.9712917225132126  0.1947179064054229  0.8606711994698938
  0.4540692582277526  0.2117640363815891  0.1220320704719066
  0.5478896449381951  0.1944675004508276  0.4020344638568795
  0.5469286304853800  0.3071795879172330  0.6289212247837783
  0.4539741078553848  0.3016927189240486  0.8482748520441485
  0.2983285701991951  0.4660674706591615  0.1247496013279899
  0.2477034703988401  0.5004884283817695  0.3354244107332625
  0.2130447829486432  0.4686976297286727  0.6173673443702367
  0.2452934414647860  0.5052860370466709  0.9135006066602942
  0.0131878324610107  0.7302752460295727  0.1246128344960172
  0.9654827295194274  0.7834346892417314  0.3448267979495622
  0.9851518496780781  0.7213303344628565  0.6650240416221003
  0.9613713159286155  0.7417139968191899  0.9008825303181699
  0.7781427739789107  0.4878266058315129  0.1716116914678132
  0.7647949969153165  0.5167207151478947  0.3832694367864442
  0.7613023544081353  0.4993298297611573  0.6682973196102656
  0.7687942732682030  0.4738338714830782  0.8820532268771838
  0.5479363584678839  0.7067218420772747  0.1248256065657986
  0.4576575205297992  0.7121437948320625  0.3874761223105848
  0.4669661625814924  0.7842440215746463  0.6261543072818183
  0.4438978993369385  0.7473881755387342  0.8673137248657147
  0.2467093340880985  0.0043406251455945  0.0865107469640037
  0.2687153520676631  0.9809190213466620  0.3681477941031626
  0.2444959542009472  0.9920727936333309  0.5689550017336287
  0.2635371796851569  0.0132194533192399  0.8692647297767536
  0.7054064392010333  0.0438429452272728  0.1227949690448602
  0.7542472682237201  0.9966612340159163  0.4120635966092911
  0.7192562967941866  0.9613782054226502  0.6283869239888754
  0.7503862081236051  0.0015299796384182  0.9113093536260168
 
  0.00000000E+00  0.00000000E+00  0.00000000E+00
  0.00000000E+00  0.00000000E+00  0.00000000E+00
  0.00000000E+00  0.00000000E+00  0.00000000E+00
  0.00000000E+00  0.00000000E+00  0.00000000E+00
  0.00000000E+00  0.00000000E+00  0.00000000E+00
  0.00000000E+00  0.00000000E+00  0.00000000E+00
  0.00000000E+00  0.00000000E+00  0.00000000E+00
  0.00000000E+00  0.00000000E+00  0.00000000E+00
  0.00000000E+00  0.00000000E+00  0.00000000E+00
  0.00000000E+00  0.00000000E+00  0.00000000E+00
  0.00000000E+00  0.00000000E+00  0.00000000E+00
  0.00000000E+00  0.00000000E+00  0.00000000E+00
  0.00000000E+00  0.00000000E+00  0.00000000E+00
  0.00000000E+00  0.00000000E+00  0.00000000E+00
  0.00000000E+00  0.00000000E+00  0.00000000E+00
  0.00000000E+00  0.00000000E+00  0.00000000E+00
  0.00000000E+00  0.00000000E+00  0.00000000E+00
  0.00000000E+00  0.00000000E+00  0.00000000E+00
  0.00000000E+00  0.00000000E+00  0.00000000E+00
  0.00000000E+00  0.00000000E+00  0.00000000E+00
  0.00000000E+00  0.00000000E+00  0.00000000E+00
  0.00000000E+00  0.00000000E+00  0.00000000E+00
  0.00000000E+00  0.00000000E+00  0.00000000E+00
  0.00000000E+00  0.00000000E+00  0.00000000E+00
  0.00000000E+00  0.00000000E+00  0.00000000E+00
  0.00000000E+00  0.00000000E+00  0.00000000E+00
  0.00000000E+00  0.00000000E+00  0.00000000E+00
  0.00000000E+00  0.00000000E+00  0.00000000E+00
  0.00000000E+00  0.00000000E+00  0.00000000E+00
  0.00000000E+00  0.00000000E+00  0.00000000E+00
  0.00000000E+00  0.00000000E+00  0.00000000E+00
  0.00000000E+00  0.00000000E+00  0.00000000E+00
  0.00000000E+00  0.00000000E+00  0.00000000E+00
  0.00000000E+00  0.00000000E+00  0.00000000E+00
  0.00000000E+00  0.00000000E+00  0.00000000E+00
  0.00000000E+00  0.00000000E+00  0.00000000E+00
  0.00000000E+00  0.00000000E+00  0.00000000E+00
  0.00000000E+00  0.00000000E+00  0.00000000E+00
  0.00000000E+00  0.00000000E+00  0.00000000E+00
  0.00000000E+00  0.00000000E+00  0.00000000E+00
  0.00000000E+00  0.00000000E+00  0.00000000E+00
  0.00000000E+00  0.00000000E+00  0.00000000E+00
  0.00000000E+00  0.00000000E+00  0.00000000E+00
  0.00000000E+00  0.00000000E+00  0.00000000E+00
  0.00000000E+00  0.00000000E+00  0.00000000E+00
  0.00000000E+00  0.00000000E+00  0.00000000E+00
  0.00000000E+00  0.00000000E+00  0.00000000E+00
  0.00000000E+00  0.00000000E+00  0.00000000E+00
  0.00000000E+00  0.00000000E+00  0.00000000E+00
  0.00000000E+00  0.00000000E+00  0.00000000E+00
  0.00000000E+00  0.00000000E+00  0.00000000E+00
  0.00000000E+00  0.00000000E+00  0.00000000E+00
  0.00000000E+00  0.00000000E+00  0.00000000E+00
  0.00000000E+00  0.00000000E+00  0.00000000E+00
  0.00000000E+00  0.00000000E+00  0.00000000E+00
  0.00000000E+00  0.00000000E+00  0.00000000E+00
  0.00000000E+00  0.00000000E+00  0.00000000E+00
  0.00000000E+00  0.00000000E+00  0.00000000E+00
  0.00000000E+00  0.00000000E+00  0.00000000E+00
  0.00000000E+00  0.00000000E+00  0.00000000E+00
  0.00000000E+00  0.00000000E+00  0.00000000E+00
  0.00000000E+00  0.00000000E+00  0.00000000E+00
  0.00000000E+00  0.00000000E+00  0.00000000E+00
  0.00000000E+00  0.00000000E+00  0.00000000E+00
  0.00000000E+00  0.00000000E+00  0.00000000E+00
  0.00000000E+00  0.00000000E+00  0.00000000E+00
  0.00000000E+00  0.00000000E+00  0.00000000E+00
  0.00000000E+00  0.00000000E+00  0.00000000E+00
  0.00000000E+00  0.00000000E+00  0.00000000E+00
  0.00000000E+00  0.00000000E+00  0.00000000E+00
  0.00000000E+00  0.00000000E+00  0.00000000E+00
  0.00000000E+00  0.00000000E+00  0.00000000E+00
  0.00000000E+00  0.00000000E+00  0.00000000E+00
  0.00000000E+00  0.00000000E+00  0.00000000E+00
  0.00000000E+00  0.00000000E+00  0.00000000E+00
  0.00000000E+00  0.00000000E+00  0.00000000E+00
  0.00000000E+00  0.00000000E+00  0.00000000E+00
  0.00000000E+00  0.00000000E+00  0.00000000E+00
  0.00000000E+00  0.00000000E+00  0.00000000E+00
  0.00000000E+00  0.00000000E+00  0.00000000E+00
  0.00000000E+00  0.00000000E+00  0.00000000E+00
  0.00000000E+00  0.00000000E+00  0.00000000E+00
  0.00000000E+00  0.00000000E+00  0.00000000E+00
  0.00000000E+00  0.00000000E+00  0.00000000E+00
  0.00000000E+00  0.00000000E+00  0.00000000E+00
  0.00000000E+00  0.00000000E+00  0.00000000E+00
  0.00000000E+00  0.00000000E+00  0.00000000E+00
  0.00000000E+00  0.00000000E+00  0.00000000E+00
  0.00000000E+00  0.00000000E+00  0.00000000E+00
  0.00000000E+00  0.00000000E+00  0.00000000E+00
  0.00000000E+00  0.00000000E+00  0.00000000E+00
  0.00000000E+00  0.00000000E+00  0.00000000E+00
  0.00000000E+00  0.00000000E+00  0.00000000E+00
  0.00000000E+00  0.00000000E+00  0.00000000E+00
  0.00000000E+00  0.00000000E+00  0.00000000E+00
  0.00000000E+00  0.00000000E+00  0.00000000E+00
  0.00000000E+00  0.00000000E+00  0.00000000E+00
  0.00000000E+00  0.00000000E+00  0.00000000E+00
  0.00000000E+00  0.00000000E+00  0.00000000E+00
  0.00000000E+00  0.00000000E+00  0.00000000E+00
  0.00000000E+00  0.00000000E+00  0.00000000E+00
  0.00000000E+00  0.00000000E+00  0.00000000E+00
  0.00000000E+00  0.00000000E+00  0.00000000E+00
  0.00000000E+00  0.00000000E+00  0.00000000E+00
  0.00000000E+00  0.00000000E+00  0.00000000E+00
  0.00000000E+00  0.00000000E+00  0.00000000E+00
  0.00000000E+00  0.00000000E+00  0.00000000E+00
  0.00000000E+00  0.00000000E+00  0.00000000E+00
  0.00000000E+00  0.00000000E+00  0.00000000E+00
  0.00000000E+00  0.00000000E+00  0.00000000E+00
  0.00000000E+00  0.00000000E+00  0.00000000E+00
  0.00000000E+00  0.00000000E+00  0.00000000E+00
  0.00000000E+00  0.00000000E+00  0.00000000E+00
  0.00000000E+00  0.00000000E+00  0.00000000E+00
  0.00000000E+00  0.00000000E+00  0.00000000E+00
  0.00000000E+00  0.00000000E+00  0.00000000E+00
  0.00000000E+00  0.00000000E+00  0.00000000E+00
  0.00000000E+00  0.00000000E+00  0.00000000E+00
  0.00000000E+00  0.00000000E+00  0.00000000E+00
  0.00000000E+00  0.00000000E+00  0.00000000E+00
  0.00000000E+00  0.00000000E+00  0.00000000E+00
  0.00000000E+00  0.00000000E+00  0.00000000E+00
  0.00000000E+00  0.00000000E+00  0.00000000E+00
  0.00000000E+00  0.00000000E+00  0.00000000E+00
  0.00000000E+00  0.00000000E+00  0.00000000E+00
  0.00000000E+00  0.00000000E+00  0.00000000E+00
  0.00000000E+00  0.00000000E+00  0.00000000E+00
  0.00000000E+00  0.00000000E+00  0.00000000E+00
  0.00000000E+00  0.00000000E+00  0.00000000E+00
  0.00000000E+00  0.00000000E+00  0.00000000E+00
  0.00000000E+00  0.00000000E+00  0.00000000E+00
  0.00000000E+00  0.00000000E+00  0.00000000E+00
  0.00000000E+00  0.00000000E+00  0.00000000E+00
  0.00000000E+00  0.00000000E+00  0.00000000E+00
  0.00000000E+00  0.00000000E+00  0.00000000E+00
  0.00000000E+00  0.00000000E+00  0.00000000E+00
  0.00000000E+00  0.00000000E+00  0.00000000E+00
  0.00000000E+00  0.00000000E+00  0.00000000E+00
  0.00000000E+00  0.00000000E+00  0.00000000E+00
  0.00000000E+00  0.00000000E+00  0.00000000E+00
  0.00000000E+00  0.00000000E+00  0.00000000E+00
  0.00000000E+00  0.00000000E+00  0.00000000E+00
  0.00000000E+00  0.00000000E+00  0.00000000E+00
  0.00000000E+00  0.00000000E+00  0.00000000E+00
  0.00000000E+00  0.00000000E+00  0.00000000E+00
  0.00000000E+00  0.00000000E+00  0.00000000E+00
  0.00000000E+00  0.00000000E+00  0.00000000E+00
  0.00000000E+00  0.00000000E+00  0.00000000E+00
  0.00000000E+00  0.00000000E+00  0.00000000E+00
  0.00000000E+00  0.00000000E+00  0.00000000E+00
  0.00000000E+00  0.00000000E+00  0.00000000E+00
  0.00000000E+00  0.00000000E+00  0.00000000E+00
  0.00000000E+00  0.00000000E+00  0.00000000E+00
  0.00000000E+00  0.00000000E+00  0.00000000E+00
  0.00000000E+00  0.00000000E+00  0.00000000E+00
  0.00000000E+00  0.00000000E+00  0.00000000E+00
  0.00000000E+00  0.00000000E+00  0.00000000E+00
  0.00000000E+00  0.00000000E+00  0.00000000E+00
  0.00000000E+00  0.00000000E+00  0.00000000E+00
  0.00000000E+00  0.00000000E+00  0.00000000E+00
