I Hg Rb                                 
   1.00000000000000     
    12.1139670000000006  -12.1139670000000006    0.0000000000000000
    12.1139670000000006   12.1139670000000006    0.0000000000000000
     0.0000000000000000    0.0000000000000000   24.2279330000000002
   Hg   I    Rb
    32    96    32
Direct
  0.0115489188575642  0.0161946815000980  0.0087799897507037
  0.9605345531390083  0.9557959975190007  0.2726300699937232
  0.0212497505728269 -0.0015907446684615  0.5211212720818692
  0.0267129137842177  0.0347983529040502  0.7518182695978102
  0.5324696003952233  0.0169631147677617  0.0149505704879540
  0.4563697690413034  0.0071554045967253  0.3059378704816418
  0.4944379325391778  0.9861052122254386  0.4973377931072772
  0.4777351617048718  0.9760347362125447  0.7350243265083138
  0.2536686579552291  0.2651733854707876  0.0053779069700887
  0.2163767747252934  0.2486005461123315  0.2396924940060388
  0.2610617209593187  0.2260639075015241  0.5094752500522717
  0.2626269140840389  0.2969745033280932  0.7638812970240022
  0.9295884899750330  0.4978591388929216  0.0335234770403359
  0.9833461553516514  0.4433573484525966  0.2716017849495991
  0.0333200753505677  0.4797860417582569  0.4894110513874861
  0.0447081533063424  0.5387817892754098  0.7528233431505343
  0.6851205287446420  0.3258836365768227  0.9979029858807084
  0.7229716993421066  0.2481072781060247  0.2500172778663516
  0.7519972511117142  0.2278455451302455  0.5118752751918164
  0.7723169138749543  0.2226449947655178  0.7528183795525099
  0.5146210160229999  0.5271044135129505  0.9697247237529456
  0.4886383325427782  0.5330362361488321  0.1990521146406191
  0.4894836497697854  0.4706348170931285  0.4889869575318769
  0.4984920826336945  0.4638437056249446  0.7350579098165202
  0.2558967042866762  0.7470732368005082  0.0057190674860125
  0.2720646173192427  0.7082252220031270  0.2445328952682391
  0.2718536704589111  0.7320476972189144  0.4898036937421534
  0.2371535867198768  0.8306840822732064  0.7587322685647390
  0.7797730541872208  0.7401427739114935  0.9905470577400195
  0.7036217551078453  0.8087846951798002  0.2601939954975836
  0.7523024221499685  0.7587157109837317  0.4994029172396179
  0.7632431240789388  0.7376430740199635  0.7531540743593157
  0.1221763339039590  0.1827301986279916  0.9695209172052265
  0.0961551595693005  0.1534925214377768  0.2734591719489028
  0.0678385774108685  0.1425789851952929  0.4856460437900024
  0.1373341394546866  0.1860862585138738  0.7721974108235992
  0.6584945360319601  0.1441251137520426  0.0038956162505237
  0.5624973426001625  0.1304712960121464  0.2818415157646183
  0.5932925492351003  0.1126292180014001  0.4701127986137756
  0.6207908461943950  0.1700356554236012  0.7708116767544662
  0.3033208083179886  0.4150881936016796  0.0212028420676427
  0.3519912506886730  0.3273935202402502  0.2615403312996207
  0.4198444223165880  0.3185066089211883  0.5254991975171733
  0.4097966841951259  0.3172366562025294  0.7046733819565490
  0.1436951955450598  0.6520136891845787  0.9622436694310518
  0.1356908265042205  0.6356364836291257  0.2697406147711483
  0.1023630697269781  0.6178199834080514  0.4534290512225118
  0.1656738663934769  0.6667624109012095  0.7666687138394483
  0.8111722289097515  0.3769689586547619  0.0673215826555818
  0.8862605796785441  0.3253439609014218  0.2210458001036566
  0.8891396543978106  0.4230823426818228  0.5217086143996135
  0.8693537478787199  0.3542684221051360  0.7438712940178160
  0.6390948034166780  0.5832281641850493  0.0281246909208745
  0.6125877899306450  0.6512211954008906  0.2372004530121217
  0.6310741039103820  0.6436205253574901  0.4833710660059374
  0.6158302979436899  0.6655318553531192  0.7541358206483562
  0.3691734648930016  0.8563148267011341  0.0203108910607324
  0.3861295626853781  0.8149395521211437  0.2280913056028345
  0.4365404831292889  0.8356071173493792  0.5203999957910093
  0.3963994008571525  0.8210238248309903  0.7068191801183340
  0.8992134833102471  0.8633510495999609  0.9701833684568478
  0.8809194724911588  0.8253504471242789  0.2188600554442698
  0.9129008741799709  0.8978826705378611  0.5625093249136061
  0.8477535743659009  0.8718217878117697  0.7776915943831391
  0.8907897632276880  0.1165630957751672  0.9885955670892018
  0.8511031756247091  0.0772517419911146  0.2532256830980772
  0.8350890266865403  0.1099504663530127  0.4695019008320351
  0.8685772692684026  0.1104706562915775  0.8101223487709284
  0.3798695677373953  0.1566395837178344  0.0016808857204929
  0.3146379442026531  0.0532459646451277  0.2684025089861939
  0.3519749427088938  0.0648165461761442  0.4632154624017882
  0.3532273541744781  0.0715440414156290  0.7521839507099917
  0.0490749166682962  0.3940177851165655  0.0060426292003324
  0.1217326972763709  0.4045541118437089  0.2122559619225252
  0.1553011895195991  0.3886902887436532  0.5365230988859592
  0.1849486648987882  0.4234873369175869  0.7135073834119964
  0.8798260198610177  0.5997239243001437  0.9501886471334829
  0.8890531585645924  0.5717327938871185  0.2942151729550743
  0.8879449908972946  0.6761883168535702  0.4790519152617734
  0.8697695913920296  0.6109148683188870  0.7798280347738669
  0.5339241192594003  0.3600765498020534  0.0313197867095953
  0.5802022294693443  0.4016637460169730  0.2159110348838617
  0.6723302984917994  0.3617983238607523  0.5259909033785546
  0.6485554160141525  0.4109891719098634  0.7284560954157708
  0.3929875611118787  0.6344408273093151  0.9440837957508628
  0.3730627705414652  0.5677535343299625  0.2831674014146943
  0.3509356577489974  0.5648226946231252  0.4631744907281887
  0.3910811818099122  0.5801685750369897  0.7414503262623605
  0.1432790456026917  0.9284646265584755  0.9914486760166977
  0.1136227235119783  0.8981968522288629  0.2634250062239333
  0.1548136263632731  0.8930939259595687  0.5083828789218074
  0.1374009039148800  0.8956423276283696  0.6833771710429704
  0.6515414455832313  0.8974437877696451  0.0227255466489091
  0.6232834379864373  0.9128506005209546  0.1997705086130491
  0.6863257296145769  0.9039715660495624  0.5077904789005672
  0.6191014861074349  0.9160707086184507  0.7677638422821497
  0.0118269082248223  0.0106658069767864  0.1292623257383474
  0.9440509639191290  0.9519517119625340  0.3931931276842955
  0.9879688194394219  0.0838035020374572  0.6504675006456053
  0.0629117882698083  0.9702537961271968  0.8492036565533898
  0.4685458612643171  0.0172830999258389  0.1204048162295890
  0.5309142888757796  0.8990799856893407  0.3692567904754017
  0.5304394980286892  0.0198748169114546  0.6211485957760257
  0.4950218372445034  0.0062359578504866  0.9026103616259243
  0.2290608195245523  0.1912732811855848  0.1272008218774527
  0.2462402830122639  0.2521157014484395  0.3994126165899681
  0.2387339178065477  0.1819739853673291  0.6151500011323727
  0.3166300692275070  0.2921606557895524  0.8723058170551268
  0.9654321671794484  0.5750248045476601  0.1329361290779514
  0.0309098630173181  0.3859127804182248  0.3797548680471102
  0.0021504340400311  0.5367598508026655  0.6435291489134547
  0.0475914100566652  0.4803342156207669  0.8577411562842238
  0.6936693685619606  0.1990278932246208  0.1470097042088248
  0.7264200352937089  0.2859423141334357  0.3582423961910621
  0.7730782644697736  0.1800210681980648  0.6310238607622030
  0.7502792301843787  0.3218205132042432  0.8926906531339385
  0.4088207755094420  0.5838754363750537  0.1069414780222436
  0.5481212517278972  0.4527305998237472  0.3834043353984771
  0.5311685881003698  0.5157240094060361  0.5970422129220131
  0.5144610939002804  0.4424289354435961  0.8692147342323545
  0.1961093097590400  0.7451704029285674  0.1228152860394332
  0.2807037600382810  0.7819908983334350  0.3845480748029158
  0.2553629556228559  0.6962706779903221  0.5975906879305202
  0.2823823845891503  0.8441591292523286  0.8667517357210800
  0.7729948902350641  0.7262404616363570  0.1033529343550238
  0.7613518361704416  0.7608344996697308  0.3584997727870741
  0.7789474627858607  0.7395681540757072  0.6291019017911166
  0.6949774065605521  0.7433392026930781  0.8939913760126351
  0.0136591182446596  0.2313906737810197  0.1115233664236878
  0.9344711864091938  0.2058406869824436  0.3591174408225777
  0.0366428572097350  0.2942996919144856  0.6446320552890125
  0.9716970802881003  0.2757021091984286  0.8777585069668781
  0.4615924068860284  0.2283307284127200  0.1464851840424724
  0.4642954995258655  0.2460668716382590  0.3870026310173753
  0.5646650097524288  0.2307598813950501  0.6254876379096130
  0.5222482127004026  0.2299232847143237  0.8976115968633880
  0.1730564249286662  0.5366489717012105  0.1002339813005266
  0.2244000711239746  0.4662459014707195  0.3614115397398409
  0.3193251553991930  0.4835856541004882  0.6065315167104126
  0.2661630140974370  0.5062292653178508  0.8630778638244913
  0.9942007860199641  0.7851672202660234  0.0935040795606451
  0.9922871426031334  0.7502286512228046  0.3513158730103147
  0.0432035853658070  0.7366561530677872  0.5894289138357721
  0.0043952861289775  0.7522776931496270  0.8575664977015988
  0.7572362101040139  0.5220204316134702  0.1713924890572127
  0.7610162952723762  0.5081682564489707  0.4103801819977843
  0.7830630396778111  0.5235396347119040  0.6413692118284929
  0.7122048966929152  0.5275033853496780  0.8613740915346852
  0.5373535663326282  0.7567455671735616  0.1071404337326520
  0.4908455398222785  0.6863885639258667  0.3727571349452957
  0.5610256929620187  0.7357666371067790  0.6161902070474653
  0.4875969654370044  0.7851422986722290  0.8537747904250388
  0.2429629502967000  0.9633985623102255  0.1339729506852564
  0.1765170735460445  0.0133547008601572  0.3837489790577903
  0.3074234877165736  0.9735507950068746  0.6048524375676447
  0.2642061664627893  0.0621295956557110  0.8904977329849378
  0.7919337330605599 -0.0030562053638205  0.1131791408539513
  0.7197921079036992  0.0007332078917050  0.3661814894231361
  0.7559660238506303  0.9710070499590329  0.6521696345549970
  0.7345578855383230  0.9859165617577469  0.8947040854085315
 
  0.00000000E+00  0.00000000E+00  0.00000000E+00
  0.00000000E+00  0.00000000E+00  0.00000000E+00
  0.00000000E+00  0.00000000E+00  0.00000000E+00
  0.00000000E+00  0.00000000E+00  0.00000000E+00
  0.00000000E+00  0.00000000E+00  0.00000000E+00
  0.00000000E+00  0.00000000E+00  0.00000000E+00
  0.00000000E+00  0.00000000E+00  0.00000000E+00
  0.00000000E+00  0.00000000E+00  0.00000000E+00
  0.00000000E+00  0.00000000E+00  0.00000000E+00
  0.00000000E+00  0.00000000E+00  0.00000000E+00
  0.00000000E+00  0.00000000E+00  0.00000000E+00
  0.00000000E+00  0.00000000E+00  0.00000000E+00
  0.00000000E+00  0.00000000E+00  0.00000000E+00
  0.00000000E+00  0.00000000E+00  0.00000000E+00
  0.00000000E+00  0.00000000E+00  0.00000000E+00
  0.00000000E+00  0.00000000E+00  0.00000000E+00
  0.00000000E+00  0.00000000E+00  0.00000000E+00
  0.00000000E+00  0.00000000E+00  0.00000000E+00
  0.00000000E+00  0.00000000E+00  0.00000000E+00
  0.00000000E+00  0.00000000E+00  0.00000000E+00
  0.00000000E+00  0.00000000E+00  0.00000000E+00
  0.00000000E+00  0.00000000E+00  0.00000000E+00
  0.00000000E+00  0.00000000E+00  0.00000000E+00
  0.00000000E+00  0.00000000E+00  0.00000000E+00
  0.00000000E+00  0.00000000E+00  0.00000000E+00
  0.00000000E+00  0.00000000E+00  0.00000000E+00
  0.00000000E+00  0.00000000E+00  0.00000000E+00
  0.00000000E+00  0.00000000E+00  0.00000000E+00
  0.00000000E+00  0.00000000E+00  0.00000000E+00
  0.00000000E+00  0.00000000E+00  0.00000000E+00
  0.00000000E+00  0.00000000E+00  0.00000000E+00
  0.00000000E+00  0.00000000E+00  0.00000000E+00
  0.00000000E+00  0.00000000E+00  0.00000000E+00
  0.00000000E+00  0.00000000E+00  0.00000000E+00
  0.00000000E+00  0.00000000E+00  0.00000000E+00
  0.00000000E+00  0.00000000E+00  0.00000000E+00
  0.00000000E+00  0.00000000E+00  0.00000000E+00
  0.00000000E+00  0.00000000E+00  0.00000000E+00
  0.00000000E+00  0.00000000E+00  0.00000000E+00
  0.00000000E+00  0.00000000E+00  0.00000000E+00
  0.00000000E+00  0.00000000E+00  0.00000000E+00
  0.00000000E+00  0.00000000E+00  0.00000000E+00
  0.00000000E+00  0.00000000E+00  0.00000000E+00
  0.00000000E+00  0.00000000E+00  0.00000000E+00
  0.00000000E+00  0.00000000E+00  0.00000000E+00
  0.00000000E+00  0.00000000E+00  0.00000000E+00
  0.00000000E+00  0.00000000E+00  0.00000000E+00
  0.00000000E+00  0.00000000E+00  0.00000000E+00
  0.00000000E+00  0.00000000E+00  0.00000000E+00
  0.00000000E+00  0.00000000E+00  0.00000000E+00
  0.00000000E+00  0.00000000E+00  0.00000000E+00
  0.00000000E+00  0.00000000E+00  0.00000000E+00
  0.00000000E+00  0.00000000E+00  0.00000000E+00
  0.00000000E+00  0.00000000E+00  0.00000000E+00
  0.00000000E+00  0.00000000E+00  0.00000000E+00
  0.00000000E+00  0.00000000E+00  0.00000000E+00
  0.00000000E+00  0.00000000E+00  0.00000000E+00
  0.00000000E+00  0.00000000E+00  0.00000000E+00
  0.00000000E+00  0.00000000E+00  0.00000000E+00
  0.00000000E+00  0.00000000E+00  0.00000000E+00
  0.00000000E+00  0.00000000E+00  0.00000000E+00
  0.00000000E+00  0.00000000E+00  0.00000000E+00
  0.00000000E+00  0.00000000E+00  0.00000000E+00
  0.00000000E+00  0.00000000E+00  0.00000000E+00
  0.00000000E+00  0.00000000E+00  0.00000000E+00
  0.00000000E+00  0.00000000E+00  0.00000000E+00
  0.00000000E+00  0.00000000E+00  0.00000000E+00
  0.00000000E+00  0.00000000E+00  0.00000000E+00
  0.00000000E+00  0.00000000E+00  0.00000000E+00
  0.00000000E+00  0.00000000E+00  0.00000000E+00
  0.00000000E+00  0.00000000E+00  0.00000000E+00
  0.00000000E+00  0.00000000E+00  0.00000000E+00
  0.00000000E+00  0.00000000E+00  0.00000000E+00
  0.00000000E+00  0.00000000E+00  0.00000000E+00
  0.00000000E+00  0.00000000E+00  0.00000000E+00
  0.00000000E+00  0.00000000E+00  0.00000000E+00
  0.00000000E+00  0.00000000E+00  0.00000000E+00
  0.00000000E+00  0.00000000E+00  0.00000000E+00
  0.00000000E+00  0.00000000E+00  0.00000000E+00
  0.00000000E+00  0.00000000E+00  0.00000000E+00
  0.00000000E+00  0.00000000E+00  0.00000000E+00
  0.00000000E+00  0.00000000E+00  0.00000000E+00
  0.00000000E+00  0.00000000E+00  0.00000000E+00
  0.00000000E+00  0.00000000E+00  0.00000000E+00
  0.00000000E+00  0.00000000E+00  0.00000000E+00
  0.00000000E+00  0.00000000E+00  0.00000000E+00
  0.00000000E+00  0.00000000E+00  0.00000000E+00
  0.00000000E+00  0.00000000E+00  0.00000000E+00
  0.00000000E+00  0.00000000E+00  0.00000000E+00
  0.00000000E+00  0.00000000E+00  0.00000000E+00
  0.00000000E+00  0.00000000E+00  0.00000000E+00
  0.00000000E+00  0.00000000E+00  0.00000000E+00
  0.00000000E+00  0.00000000E+00  0.00000000E+00
  0.00000000E+00  0.00000000E+00  0.00000000E+00
  0.00000000E+00  0.00000000E+00  0.00000000E+00
  0.00000000E+00  0.00000000E+00  0.00000000E+00
  0.00000000E+00  0.00000000E+00  0.00000000E+00
  0.00000000E+00  0.00000000E+00  0.00000000E+00
  0.00000000E+00  0.00000000E+00  0.00000000E+00
  0.00000000E+00  0.00000000E+00  0.00000000E+00
  0.00000000E+00  0.00000000E+00  0.00000000E+00
  0.00000000E+00  0.00000000E+00  0.00000000E+00
  0.00000000E+00  0.00000000E+00  0.00000000E+00
  0.00000000E+00  0.00000000E+00  0.00000000E+00
  0.00000000E+00  0.00000000E+00  0.00000000E+00
  0.00000000E+00  0.00000000E+00  0.00000000E+00
  0.00000000E+00  0.00000000E+00  0.00000000E+00
  0.00000000E+00  0.00000000E+00  0.00000000E+00
  0.00000000E+00  0.00000000E+00  0.00000000E+00
  0.00000000E+00  0.00000000E+00  0.00000000E+00
  0.00000000E+00  0.00000000E+00  0.00000000E+00
  0.00000000E+00  0.00000000E+00  0.00000000E+00
  0.00000000E+00  0.00000000E+00  0.00000000E+00
  0.00000000E+00  0.00000000E+00  0.00000000E+00
  0.00000000E+00  0.00000000E+00  0.00000000E+00
  0.00000000E+00  0.00000000E+00  0.00000000E+00
  0.00000000E+00  0.00000000E+00  0.00000000E+00
  0.00000000E+00  0.00000000E+00  0.00000000E+00
  0.00000000E+00  0.00000000E+00  0.00000000E+00
  0.00000000E+00  0.00000000E+00  0.00000000E+00
  0.00000000E+00  0.00000000E+00  0.00000000E+00
  0.00000000E+00  0.00000000E+00  0.00000000E+00
  0.00000000E+00  0.00000000E+00  0.00000000E+00
  0.00000000E+00  0.00000000E+00  0.00000000E+00
  0.00000000E+00  0.00000000E+00  0.00000000E+00
  0.00000000E+00  0.00000000E+00  0.00000000E+00
  0.00000000E+00  0.00000000E+00  0.00000000E+00
  0.00000000E+00  0.00000000E+00  0.00000000E+00
  0.00000000E+00  0.00000000E+00  0.00000000E+00
  0.00000000E+00  0.00000000E+00  0.00000000E+00
  0.00000000E+00  0.00000000E+00  0.00000000E+00
  0.00000000E+00  0.00000000E+00  0.00000000E+00
  0.00000000E+00  0.00000000E+00  0.00000000E+00
  0.00000000E+00  0.00000000E+00  0.00000000E+00
  0.00000000E+00  0.00000000E+00  0.00000000E+00
  0.00000000E+00  0.00000000E+00  0.00000000E+00
  0.00000000E+00  0.00000000E+00  0.00000000E+00
  0.00000000E+00  0.00000000E+00  0.00000000E+00
  0.00000000E+00  0.00000000E+00  0.00000000E+00
  0.00000000E+00  0.00000000E+00  0.00000000E+00
  0.00000000E+00  0.00000000E+00  0.00000000E+00
  0.00000000E+00  0.00000000E+00  0.00000000E+00
  0.00000000E+00  0.00000000E+00  0.00000000E+00
  0.00000000E+00  0.00000000E+00  0.00000000E+00
  0.00000000E+00  0.00000000E+00  0.00000000E+00
  0.00000000E+00  0.00000000E+00  0.00000000E+00
  0.00000000E+00  0.00000000E+00  0.00000000E+00
  0.00000000E+00  0.00000000E+00  0.00000000E+00
  0.00000000E+00  0.00000000E+00  0.00000000E+00
  0.00000000E+00  0.00000000E+00  0.00000000E+00
  0.00000000E+00  0.00000000E+00  0.00000000E+00
  0.00000000E+00  0.00000000E+00  0.00000000E+00
  0.00000000E+00  0.00000000E+00  0.00000000E+00
  0.00000000E+00  0.00000000E+00  0.00000000E+00
  0.00000000E+00  0.00000000E+00  0.00000000E+00
  0.00000000E+00  0.00000000E+00  0.00000000E+00
  0.00000000E+00  0.00000000E+00  0.00000000E+00
  0.00000000E+00  0.00000000E+00  0.00000000E+00
  0.00000000E+00  0.00000000E+00  0.00000000E+00
  0.00000000E+00  0.00000000E+00  0.00000000E+00
