Mg In Cl                                
   1.00000000000000     
    10.0256319999999999  -10.0256319999999999    0.0000000000000000
    10.0256319999999999   10.0256319999999999    0.0000000000000000
     0.0000000000000000    0.0000000000000000   20.0512629999999987
   Cl   In   Mg
    96    32    32
Direct
  0.0001749163111352  0.2767554400368521  0.9995211307652435
  0.0023596844841923  0.2209012105046993  0.2499896968595056
  0.9971193137178737  0.2791801302316572  0.4991926464826009
  0.0009947793633119  0.2222551087488918  0.7492386046768630
  0.5292602261769477  0.2485234063339971  0.9994680565210058
  0.4715552629509330  0.2502809369373579  0.2496937579505412
  0.5286515017992874  0.2496335143218352  0.4997464793269404
  0.4705436365791785  0.2504523713191706  0.7500153973755723
  0.2232323152973542  0.4996943991022220  0.9995406917950782
  0.2787952747694371  0.4975119469411954  0.2500587468811053
  0.2204768047783384  0.5027804644974307  0.4991900787949725
  0.2775758689991590  0.4990456009127144  0.7491791325091403
  0.0291738070118045  0.7484515839199287  0.9994604478977709
  0.9716394464219321  0.7503144395728593  0.2496740138929118
  0.0286487672191684  0.7498125941486024  0.4997358808700876
  0.9703957954765982  0.7505824354214389  0.7500199953402994
  0.7512414943489820  0.4707975586957420  0.9994768580685514
  0.7496832600424934  0.5283165104600137  0.2497369418236906
  0.7504517154410800  0.4711917636174566  0.4997432527866861
  0.7493609549236702  0.5295772477585442  0.7500006556735733
  0.5000962157642849  0.7763139914316780  0.9996477739387286
  0.5022634680649790  0.7208583745215399  0.2500268780843585
  0.4969150716948655  0.7793776558376950  0.4991067615632300
  0.5010030712310579  0.7223739445607941  0.7492477548951437
  0.2514889538516638  0.9708150988796701  0.9994718365676322
  0.2496520292120097  0.0284418818298399  0.2496540974303979
  0.2503678936825737  0.9712756297079149  0.4997515911959425
  0.2493942231270713  0.0294213657246826  0.7500142474892512
  0.7235347432285429  0.9999098626808559  0.9995794310672598
  0.7791299586880424  0.9979301003027916  0.2500048738480845
  0.7206665492829348  0.0027440162541185  0.4991003315467106
  0.7772961224642341  0.9987230833545708  0.7492215786335921
  0.1175414350455696  0.1152145473583107  0.1099070604661328
  0.1394292731534046  0.1393758186503222  0.3901029629889955
  0.1221057982933390  0.1234654059402271  0.6087965147417997
  0.1124624888983472  0.1116316822745784  0.8880173770876657
  0.6172742037539375  0.1151086945338923  0.1397933668144582
  0.6393729544290901  0.1395792700936470  0.3595037406808958
  0.6222263426292353  0.1238851620250110  0.6398946926776768
  0.6123420249716779  0.1117058915348410  0.8605013797254419
  0.3845827041221094  0.3822757442650328  0.1099868273346085
  0.3605600895571919  0.3605633407414717  0.3901958713960132
  0.3763592023220060  0.3778407323564221  0.6088330533545530
  0.3886698407045895  0.3877008949852701  0.8878765629938319
  0.1170607004081820  0.6149082430690341  0.1396011757671573
  0.1391983818793520  0.6395166802587248  0.3593939120481549
  0.1220716645549434  0.6237994875016678  0.6399769678580349
  0.1122682406768239  0.6117372663930913  0.8603861109989611
  0.8849039456226256  0.3828434487962296  0.1396440510098104
  0.8604066151586459  0.3605528813876897  0.3593532054786026
  0.8760717044037469  0.3776952913452469  0.6401304343762199
  0.8882830433446361  0.3877223198287700  0.8605345549139449
  0.6175203568809632  0.6152943099304432  0.1100377083938529
  0.6393247746166578  0.6393329853186640  0.3901147325893599
  0.6220262907012124  0.6235572746285117  0.6087140849775691
  0.6121834443228032  0.6113109106876072  0.8879468584572981
  0.3849478191826876  0.8827254047260729  0.1397550009835831
  0.3603188783707522  0.8605761621505085  0.3592921366769038
  0.3759003883200333  0.8776737607665819  0.6401317731187395
  0.3882200657335871  0.8876721035865823  0.8605815384462141
  0.8847504880683403  0.8825322096361684  0.1099633012525643
  0.8604950397940065  0.8605489895002464  0.3900816158451137
  0.8761113618562844  0.8777293419998080  0.6088501790292709
  0.8883006343308208  0.8874005042169794  0.8879917761881582
  0.8677864565970844  0.1322889101611419  0.1127174870211510
  0.8882823681686455  0.1116016166407440  0.3904909372773861
  0.8704009995475199  0.1294582488785067  0.6099390393405481
  0.8621201469081560  0.1378478238753744  0.8852659657263414
  0.3682978651122481  0.1316641507903257  0.1075495801054602
  0.3903051392084624  0.1095877594624461  0.3865108465072966
  0.3721074062346936  0.1278388408810653  0.6111738557482514
  0.3634602742073270  0.1365627503503082  0.8915146013067532
  0.1377017682609605  0.3621724035828467  0.1374776656549308
  0.1116341306767633  0.3881552756585502  0.3601362867078980
  0.1258353725863338  0.3739998763281880  0.6365478661393430
  0.1401173069353631  0.3599272738755999  0.8628134636005528
  0.8679550819842060  0.6319668792411118  0.1077702794183903
  0.8902659151258553  0.6096673585432807  0.3865353985184414
  0.8720180755081164  0.6278612699906333  0.6110920128826315
  0.8633468865993721  0.6365661860605193  0.8915664570424316
  0.6343932735151677  0.3655471562577762  0.1387219566768321
  0.6081336650360708  0.3917567798933075  0.3629890621133703
  0.6248668158978244  0.3751319391673051  0.6416434026601964
  0.6378376127099163  0.3621339457584264  0.8589251928686088
  0.3677077555162270  0.6320375947558955  0.1128839446416247
  0.3881668835356332  0.6116536120608838  0.3904321128054920
  0.3701333382254239  0.6296813241540137  0.6097603032080136
  0.3619626669968011  0.6379325735432261  0.8853998851538208
  0.1345513824089139  0.8654060737835504  0.1386388003729128
  0.1082429618726028  0.8917035868512672  0.3630015355437857
  0.1246207385487941  0.8751676298289973  0.6415988883386275
  0.1376535522916782  0.8622728659029685  0.8589773967992936
  0.6377812007610872  0.8623027197833569  0.1375575092122940
  0.6116384431880331  0.8882539802791873  0.3599632124502847
  0.6255799171010743  0.8741183349477960  0.6363799456167892
  0.6398879246450804  0.8599255919562547  0.8630659030720617
  0.0056857766385361  0.9943747596388491  0.0010753207921671
  0.0073429240033614  0.9926041582770949  0.2391418791699385
  0.0124262350688363  0.9868087719840538  0.4970047091485911
  0.0102874859720982  0.9890998325053325  0.7576784980796215
  0.4864366470992529  0.0133152748926015  0.9963625197794750
  0.4876813090630667  0.0118730343114421  0.2559068564554318
  0.4939117659670218  0.0062429961040971  0.5070287531026726
  0.4894463695104269  0.0104320440837845  0.7451920586866744
  0.2368824157977873  0.2633118479087417  0.0017460191730748
  0.2413506791538893  0.2586566535244859  0.2616997303039449
  0.2397567826219064  0.2598829981215034  0.5077205147494936
  0.2433512016776190  0.2565523085384699  0.7440115583784547
  0.9863485515954280  0.5135193355167632  0.9966914556196632
  0.9879120992296685  0.5116071223990564  0.2559154782790636
  0.9935924685424827  0.5061088155918863  0.5070594741875810
  0.9894945975890866  0.5105527851750596  0.7452987942660362
  0.7542311902367077  0.2458105145171965  0.9999522845806051
  0.7623561211694082  0.2371134100051621  0.2403049370848067
  0.7611173596447182  0.2386406803103634  0.4903758592415712
  0.7622697034659874  0.2377113601164173  0.7487313781103047
  0.5060496222429519  0.4939257210237566  0.0011971014157625
  0.5071773559521331  0.4927360777549776  0.2391496888035144
  0.5127971721449054  0.4867369826869296  0.4966825843493022
  0.5106992441629025  0.4893468196318216  0.7577574264472405
  0.2542658852865323  0.7458009836945699  0.0002103740812642
  0.2621016464891746  0.7370073882808311  0.2405801206415557
  0.2610971172321241  0.7391420314459825  0.4903372371240127
  0.2619677225647376  0.7377191006349409  0.7485946499025840
  0.7368531585139676  0.7635942511395862  0.0019636785936229
  0.7413465431443287  0.7583974948828711  0.2616563191874262
  0.7394783505512238  0.7598276214608072  0.5076893713954896
  0.7429899537724808  0.7570024835517762  0.7442029910132743
  0.0020245650371945  0.2505176313528499  0.1245171301203387
  0.9997662294047341  0.2495562632119948  0.3745942653126046
  0.9981757039544038  0.2493844676079273  0.6243756031577719
  0.0006198282354752  0.2503813283657252  0.8742836650064544
  0.5000650749135053  0.2478906254577194  0.1247836061617519
  0.5003355270601513  0.2503871828598875  0.3747467021941389
  0.5004730423528493  0.2519711387828465  0.6247416387032825
  0.5000040612012563  0.2492936184529145  0.8745502236767980
  0.2493733299006071  0.4979018804846427  0.1245209009545436
  0.2501242751244203  0.5000986278307162  0.3746903319235816
  0.2504802351400630  0.5017825418276285  0.6243249842229514
  0.2496686292223136  0.4994104119497074  0.8742901913132258
  0.0000464248196305  0.7479533927310863  0.1247650293003736
  0.0003213117186906  0.7504512443650504  0.3747663318551123
  0.0003382208826456  0.7518684828699550  0.6247080387765992
 -0.0000145620229261  0.7492170686559404  0.8745797556622095
  0.7519632986484086  0.4999214847302130  0.1248321168836647
  0.7495352545088781  0.4994370150209697  0.3748035696637421
  0.7480301796819888  0.4994737911591227  0.6247394403242043
  0.7506408731272107  0.5000440306523825  0.8745371800354219
  0.5019707519170790  0.7505295500647264  0.1246293905287636
  0.4997310749721023  0.7496316091329679  0.3745940547733446
  0.4979951103247457  0.7493504952327562  0.6243400151538668
  0.5004550215639686  0.7501894558809926  0.8743842988413034
  0.2520421521204148  0.9998789480029741  0.1247777279859206
  0.2494708984982963  0.9995367240948178  0.3747793901367996
  0.2480237157347151  0.9994574073579169  0.6247201788142559
  0.2506005778944300  0.0000028975196940  0.8745619091722214
  0.7494653245460040  0.9980300634014151  0.1245722692271785
  0.7502265974548709  0.0000890534990527  0.3745393586194282
  0.7504027455487239  0.0017926967016646  0.6243002166702887
  0.7496414219842257  0.9993624487291680  0.8743479169277480
 
  0.00000000E+00  0.00000000E+00  0.00000000E+00
  0.00000000E+00  0.00000000E+00  0.00000000E+00
  0.00000000E+00  0.00000000E+00  0.00000000E+00
  0.00000000E+00  0.00000000E+00  0.00000000E+00
  0.00000000E+00  0.00000000E+00  0.00000000E+00
  0.00000000E+00  0.00000000E+00  0.00000000E+00
  0.00000000E+00  0.00000000E+00  0.00000000E+00
  0.00000000E+00  0.00000000E+00  0.00000000E+00
  0.00000000E+00  0.00000000E+00  0.00000000E+00
  0.00000000E+00  0.00000000E+00  0.00000000E+00
  0.00000000E+00  0.00000000E+00  0.00000000E+00
  0.00000000E+00  0.00000000E+00  0.00000000E+00
  0.00000000E+00  0.00000000E+00  0.00000000E+00
  0.00000000E+00  0.00000000E+00  0.00000000E+00
  0.00000000E+00  0.00000000E+00  0.00000000E+00
  0.00000000E+00  0.00000000E+00  0.00000000E+00
  0.00000000E+00  0.00000000E+00  0.00000000E+00
  0.00000000E+00  0.00000000E+00  0.00000000E+00
  0.00000000E+00  0.00000000E+00  0.00000000E+00
  0.00000000E+00  0.00000000E+00  0.00000000E+00
  0.00000000E+00  0.00000000E+00  0.00000000E+00
  0.00000000E+00  0.00000000E+00  0.00000000E+00
  0.00000000E+00  0.00000000E+00  0.00000000E+00
  0.00000000E+00  0.00000000E+00  0.00000000E+00
  0.00000000E+00  0.00000000E+00  0.00000000E+00
  0.00000000E+00  0.00000000E+00  0.00000000E+00
  0.00000000E+00  0.00000000E+00  0.00000000E+00
  0.00000000E+00  0.00000000E+00  0.00000000E+00
  0.00000000E+00  0.00000000E+00  0.00000000E+00
  0.00000000E+00  0.00000000E+00  0.00000000E+00
  0.00000000E+00  0.00000000E+00  0.00000000E+00
  0.00000000E+00  0.00000000E+00  0.00000000E+00
  0.00000000E+00  0.00000000E+00  0.00000000E+00
  0.00000000E+00  0.00000000E+00  0.00000000E+00
  0.00000000E+00  0.00000000E+00  0.00000000E+00
  0.00000000E+00  0.00000000E+00  0.00000000E+00
  0.00000000E+00  0.00000000E+00  0.00000000E+00
  0.00000000E+00  0.00000000E+00  0.00000000E+00
  0.00000000E+00  0.00000000E+00  0.00000000E+00
  0.00000000E+00  0.00000000E+00  0.00000000E+00
  0.00000000E+00  0.00000000E+00  0.00000000E+00
  0.00000000E+00  0.00000000E+00  0.00000000E+00
  0.00000000E+00  0.00000000E+00  0.00000000E+00
  0.00000000E+00  0.00000000E+00  0.00000000E+00
  0.00000000E+00  0.00000000E+00  0.00000000E+00
  0.00000000E+00  0.00000000E+00  0.00000000E+00
  0.00000000E+00  0.00000000E+00  0.00000000E+00
  0.00000000E+00  0.00000000E+00  0.00000000E+00
  0.00000000E+00  0.00000000E+00  0.00000000E+00
  0.00000000E+00  0.00000000E+00  0.00000000E+00
  0.00000000E+00  0.00000000E+00  0.00000000E+00
  0.00000000E+00  0.00000000E+00  0.00000000E+00
  0.00000000E+00  0.00000000E+00  0.00000000E+00
  0.00000000E+00  0.00000000E+00  0.00000000E+00
  0.00000000E+00  0.00000000E+00  0.00000000E+00
  0.00000000E+00  0.00000000E+00  0.00000000E+00
  0.00000000E+00  0.00000000E+00  0.00000000E+00
  0.00000000E+00  0.00000000E+00  0.00000000E+00
  0.00000000E+00  0.00000000E+00  0.00000000E+00
  0.00000000E+00  0.00000000E+00  0.00000000E+00
  0.00000000E+00  0.00000000E+00  0.00000000E+00
  0.00000000E+00  0.00000000E+00  0.00000000E+00
  0.00000000E+00  0.00000000E+00  0.00000000E+00
  0.00000000E+00  0.00000000E+00  0.00000000E+00
  0.00000000E+00  0.00000000E+00  0.00000000E+00
  0.00000000E+00  0.00000000E+00  0.00000000E+00
  0.00000000E+00  0.00000000E+00  0.00000000E+00
  0.00000000E+00  0.00000000E+00  0.00000000E+00
  0.00000000E+00  0.00000000E+00  0.00000000E+00
  0.00000000E+00  0.00000000E+00  0.00000000E+00
  0.00000000E+00  0.00000000E+00  0.00000000E+00
  0.00000000E+00  0.00000000E+00  0.00000000E+00
  0.00000000E+00  0.00000000E+00  0.00000000E+00
  0.00000000E+00  0.00000000E+00  0.00000000E+00
  0.00000000E+00  0.00000000E+00  0.00000000E+00
  0.00000000E+00  0.00000000E+00  0.00000000E+00
  0.00000000E+00  0.00000000E+00  0.00000000E+00
  0.00000000E+00  0.00000000E+00  0.00000000E+00
  0.00000000E+00  0.00000000E+00  0.00000000E+00
  0.00000000E+00  0.00000000E+00  0.00000000E+00
  0.00000000E+00  0.00000000E+00  0.00000000E+00
  0.00000000E+00  0.00000000E+00  0.00000000E+00
  0.00000000E+00  0.00000000E+00  0.00000000E+00
  0.00000000E+00  0.00000000E+00  0.00000000E+00
  0.00000000E+00  0.00000000E+00  0.00000000E+00
  0.00000000E+00  0.00000000E+00  0.00000000E+00
  0.00000000E+00  0.00000000E+00  0.00000000E+00
  0.00000000E+00  0.00000000E+00  0.00000000E+00
  0.00000000E+00  0.00000000E+00  0.00000000E+00
  0.00000000E+00  0.00000000E+00  0.00000000E+00
  0.00000000E+00  0.00000000E+00  0.00000000E+00
  0.00000000E+00  0.00000000E+00  0.00000000E+00
  0.00000000E+00  0.00000000E+00  0.00000000E+00
  0.00000000E+00  0.00000000E+00  0.00000000E+00
  0.00000000E+00  0.00000000E+00  0.00000000E+00
  0.00000000E+00  0.00000000E+00  0.00000000E+00
  0.00000000E+00  0.00000000E+00  0.00000000E+00
  0.00000000E+00  0.00000000E+00  0.00000000E+00
  0.00000000E+00  0.00000000E+00  0.00000000E+00
  0.00000000E+00  0.00000000E+00  0.00000000E+00
  0.00000000E+00  0.00000000E+00  0.00000000E+00
  0.00000000E+00  0.00000000E+00  0.00000000E+00
  0.00000000E+00  0.00000000E+00  0.00000000E+00
  0.00000000E+00  0.00000000E+00  0.00000000E+00
  0.00000000E+00  0.00000000E+00  0.00000000E+00
  0.00000000E+00  0.00000000E+00  0.00000000E+00
  0.00000000E+00  0.00000000E+00  0.00000000E+00
  0.00000000E+00  0.00000000E+00  0.00000000E+00
  0.00000000E+00  0.00000000E+00  0.00000000E+00
  0.00000000E+00  0.00000000E+00  0.00000000E+00
  0.00000000E+00  0.00000000E+00  0.00000000E+00
  0.00000000E+00  0.00000000E+00  0.00000000E+00
  0.00000000E+00  0.00000000E+00  0.00000000E+00
  0.00000000E+00  0.00000000E+00  0.00000000E+00
  0.00000000E+00  0.00000000E+00  0.00000000E+00
  0.00000000E+00  0.00000000E+00  0.00000000E+00
  0.00000000E+00  0.00000000E+00  0.00000000E+00
  0.00000000E+00  0.00000000E+00  0.00000000E+00
  0.00000000E+00  0.00000000E+00  0.00000000E+00
  0.00000000E+00  0.00000000E+00  0.00000000E+00
  0.00000000E+00  0.00000000E+00  0.00000000E+00
  0.00000000E+00  0.00000000E+00  0.00000000E+00
  0.00000000E+00  0.00000000E+00  0.00000000E+00
  0.00000000E+00  0.00000000E+00  0.00000000E+00
  0.00000000E+00  0.00000000E+00  0.00000000E+00
  0.00000000E+00  0.00000000E+00  0.00000000E+00
  0.00000000E+00  0.00000000E+00  0.00000000E+00
  0.00000000E+00  0.00000000E+00  0.00000000E+00
  0.00000000E+00  0.00000000E+00  0.00000000E+00
  0.00000000E+00  0.00000000E+00  0.00000000E+00
  0.00000000E+00  0.00000000E+00  0.00000000E+00
  0.00000000E+00  0.00000000E+00  0.00000000E+00
  0.00000000E+00  0.00000000E+00  0.00000000E+00
  0.00000000E+00  0.00000000E+00  0.00000000E+00
  0.00000000E+00  0.00000000E+00  0.00000000E+00
  0.00000000E+00  0.00000000E+00  0.00000000E+00
  0.00000000E+00  0.00000000E+00  0.00000000E+00
  0.00000000E+00  0.00000000E+00  0.00000000E+00
  0.00000000E+00  0.00000000E+00  0.00000000E+00
  0.00000000E+00  0.00000000E+00  0.00000000E+00
  0.00000000E+00  0.00000000E+00  0.00000000E+00
  0.00000000E+00  0.00000000E+00  0.00000000E+00
  0.00000000E+00  0.00000000E+00  0.00000000E+00
  0.00000000E+00  0.00000000E+00  0.00000000E+00
  0.00000000E+00  0.00000000E+00  0.00000000E+00
  0.00000000E+00  0.00000000E+00  0.00000000E+00
  0.00000000E+00  0.00000000E+00  0.00000000E+00
  0.00000000E+00  0.00000000E+00  0.00000000E+00
  0.00000000E+00  0.00000000E+00  0.00000000E+00
  0.00000000E+00  0.00000000E+00  0.00000000E+00
  0.00000000E+00  0.00000000E+00  0.00000000E+00
  0.00000000E+00  0.00000000E+00  0.00000000E+00
  0.00000000E+00  0.00000000E+00  0.00000000E+00
  0.00000000E+00  0.00000000E+00  0.00000000E+00
  0.00000000E+00  0.00000000E+00  0.00000000E+00
  0.00000000E+00  0.00000000E+00  0.00000000E+00
  0.00000000E+00  0.00000000E+00  0.00000000E+00
  0.00000000E+00  0.00000000E+00  0.00000000E+00
  0.00000000E+00  0.00000000E+00  0.00000000E+00
  0.00000000E+00  0.00000000E+00  0.00000000E+00
