In Sn F                                 
   1.00000000000000     
     9.4024000000000001   -9.4024000000000001    0.0000000000000000
     9.4024000000000001    9.4024000000000001    0.0000000000000000
     0.0000000000000000    0.0000000000000000   18.8048010000000012
   F    In   Sn
    96    32    32
Direct
  0.0957459171573949  0.1702727229323554  0.0334097466168283
  0.9160120302841563  0.2018314589660306  0.2722707467575057
  0.0298464658501847  0.2128471258715425  0.5068068462551532
  0.9917764868244143  0.3034628159086453  0.7994314168535142
  0.4709027651016864  0.2971274054374446  0.0293443168709475
  0.4752133238555460  0.3036837559125369  0.2735488401146792
  0.5086830437840861  0.3188690743659822  0.5277697912398404
  0.5906439336237467  0.3132916924625010  0.7973615494463315
  0.2910908514809297  0.4623772189745024  0.0162959176464416
  0.2848835775342373  0.4830029711590589  0.2653847872791863
  0.1759279832529872  0.5211908799960155  0.5105426025067651
  0.3274230235602887  0.4697566099991792  0.7565115940839680
  0.0490407398158447  0.7485300964552865  0.9510840632676280
  0.9914563602772284  0.7176162208484059  0.2104451367472304
  0.0450792390737531  0.6989160116555648  0.4608990454723501
  0.0121904668453171  0.7252017147681339  0.7077094206426378
  0.8099746441984984  0.4842944815336720  0.0017497501702455
  0.7108169658017967  0.4932363169203871  0.2586454226003945
  0.7141592642892778  0.4256523882540662  0.5008771266962803
  0.7957260730885202  0.4253350921521759  0.7673798573519611
  0.4935398701126346  0.7522225923540927  0.0337471091227089
  0.5493976612712818  0.8230326317792557  0.2822887387991324
  0.5383882981944251  0.7388899789006955  0.5470571456947085
  0.5370659502896756  0.8275494321848965  0.8083675114025506
  0.3246688806993274  0.0588134873730700  0.9951830980988712
  0.2262965048566206  0.0447915981010338  0.2794638592593491
  0.2069365878831205  0.9211238356762868  0.5264081614915533
  0.1692451214507063  0.0408211534304715  0.7598837927035379
  0.8122248907442778  0.9938420844728839  0.0039943557845951
  0.7334806168412399  0.9244743918929866  0.2951592176475837
  0.6712003829282376  0.9841223487628613  0.5330671548688417
  0.7414622612772820  0.8965045411313731  0.7684319155008187
  0.1014677445062388  0.1628760556597117  0.1912548490051810
  0.0611623740276888  0.1196125493409259  0.3641899338110207
  0.1060877751185011  0.0760920969501021  0.6022823349168008
  0.1184712210668905  0.1680583183248258  0.8678674345702309
  0.5672442526434207  0.1130746334385421  0.0642255208336788
  0.5989018320817178  0.0269046953472739  0.3855638801181818
  0.5354946514549462  0.1289020049905010  0.6034546748163386
  0.6567699254784740  0.1724927451192630  0.9099341925232403
  0.3795947087374649  0.3953169992074723  0.1455097361170473
  0.3813668153859273  0.3548600904141833  0.4054547687489587
  0.3293591357055790  0.4056808985642868  0.5756983097755832
  0.4265292610056836  0.4296786753525525  0.8801882197350575
  0.1244723882486951  0.6809095552767487  0.0885056155601936
  0.1573260695239374  0.6548330374363885  0.3040296785637325
  0.1508062308750801  0.7035563813275671  0.5955993727532831
  0.1036040335791822  0.6368472190822473  0.8276145318060689
  0.7958233950725595  0.3383754541715703  0.1714323578998830
  0.7978586554980018  0.3499616178459512  0.3518356353265407
  0.8743388719552398  0.3316655495481275  0.5768217114314756
  0.8224523426193066  0.3336266224728383  0.8982673425720568
  0.5986391040343669  0.6918678299943855  0.1568418876032273
  0.5897528037922141  0.6458114352626136  0.3517438614315890
  0.5814733208736781  0.5152884049765373  0.6077024063520762
  0.5801744165523889  0.6834186959973788  0.9072268631751976
  0.4217527288572392  0.9471584727472799  0.0971089585030026
  0.3975650015489602  0.9357461833690950  0.3371446547249578
  0.3593903432495736  0.8248948377514160  0.6106330090909752
  0.3467773843381496  0.9253853127418952  0.8100484200418471
  0.8348698502230603  0.8642056693787322  0.1314519236900714
  0.8525053405308237  0.7900607618928914  0.4276318724719511
  0.7582983451650156  0.8215227156922567  0.6086235563710680
  0.9145786965719028  0.9362173593814007  0.8679748083693264
  0.9348216133922672  0.0925977272646867  0.1088012447605747
  0.8659950827731684  0.1644318726691921  0.4184235817986023
  0.8859516939775852  0.1154100184786878  0.5813962912567933
  0.9219865074459578  0.1540011168422003  0.9273446045247177
  0.3679780449816571  0.1672951923966218  0.1375553643552390
  0.3822293729651183  0.1497915117768546  0.3493015308721728
  0.3384995461574165  0.1902923995953833  0.5629964164462000
  0.3227921370617768  0.1344807949554502  0.8339838780440595
  0.1745214398300451  0.3341253191400180  0.1107969969369563
  0.1168937654482055  0.4740708042801851  0.3600877442661017
  0.1231525664577892  0.3596773335832942  0.5943432721368711
  0.2053984362352858  0.3597159484807210  0.8599428120693409
  0.9131380531687081  0.6743289153491461  0.0679989292635826
  0.9376014957021435  0.6229858100825025  0.3429636865324640
  0.9643321821510445  0.5975293906504379  0.5877544461149193
  0.9180326168125013  0.5246954472255470  0.8755219658537555
  0.6178548713158960  0.4397897945942734  0.1226270178583496
  0.5903017404544711  0.4172792552919211  0.3730010280375312
  0.6795391081137817  0.3294011610447983  0.6430855090525428
  0.6220481360619946  0.3692575208032522  0.9417810231982356
  0.3884150983458012  0.6071461613296594  0.1204973058651126
  0.3684628730531515  0.7010232229596743  0.3047111520675698
  0.3660865849715141  0.6151506181042228  0.5983463607666151
  0.4082860577677394  0.6397895150833914  0.8294184196281120
  0.2371923880842488  0.8686667669246324  0.0364328096081312
  0.2027099611819748  0.8697449647864529  0.3623507297002686
  0.1377043202762225  0.8877705335098515  0.6653739991273122
  0.0933018115083529  0.8477491625867893  0.8142851811316527
  0.6458356366867759  0.9041325880934687  0.0685690782524520
  0.6509612502700129  0.8300641890682181  0.4261462436153504
  0.5660012971833553  0.9170320635244920  0.6545407117654219
  0.7369291350865539  0.8228100196102025  0.9050932899882173
  0.0028128077281691  0.0087990092202557  0.9873420185956743
  0.0447520544656334  0.0220696187568571  0.2569021132253252
  0.9896771904692130  0.0315632228071559  0.4931030396120885
  0.0060902470731253  0.9747423182259444  0.7346402977499719
  0.5175864108911183  0.9814011820561573  0.9938091311028471
  0.5361708466580225  0.0071604930177381  0.2686003583917760
  0.4931889931830110  0.9878602825448154  0.5306173095303870
  0.5001971314907994  0.9994831002773185  0.7766697124908910
  0.2713976838670446  0.2666703969378618  0.9998116969275037
  0.2714151217250646  0.2427785101484602  0.2486434969916503
  0.2314797669339494  0.2876681228596587  0.4832677487939729
  0.2140373573151538  0.2419371081371677  0.7625706049247151
  0.9830055085541015  0.5307341467182092  0.0118870699171086
  0.0240869153136343  0.5455309539305280  0.2476800191885067
  0.9983456548479182  0.5071449327211650  0.4748811636111070
  0.9702599928770729  0.4723429808825035  0.7519482393357749
  0.7643480853585388  0.2360149122677788  0.9974134236185546
  0.7428829966244141  0.2281873229403956  0.2630965794515250
  0.7364850087564563  0.2218480646212648  0.5174816825944627
  0.7487642692356687  0.2534034188910537  0.7523050597769427
  0.4990027271413290  0.4924838029850587  0.0197643291691153
  0.4838513613090598  0.4873761484087820  0.2446057646398389
  0.4710433422308317  0.4995439446495634  0.5021074872531572
  0.5096619483453333  0.4977587111875900  0.7659478190452247
  0.2163947576861738  0.7107703193704618  0.9859866994099977
  0.2357582519240183  0.8016371342918466  0.2512689231203343
  0.2638898172779685  0.7513984425584451  0.5015998964993084
  0.2027427782042067  0.7362673642639141  0.7346476168479237
  0.6901861112752652  0.7267081603956567  0.0260736918505093
  0.7162987058410195  0.7431334366921900  0.2584945653313535
  0.7165278243771875  0.7090062714154588  0.5108596347193408
  0.6898418832800314  0.7243593639185968  0.7997868691434932
  0.0121260727753889  0.2385941121072414  0.1165628993310202
  0.9752062954305756  0.2573409650572128  0.3727495602051889
  0.9922864066388329  0.2352817543520485  0.6165953013381495
  0.0190802592290302  0.2804115728159758  0.9085677756612364
  0.5126624795993079  0.2361215995431177  0.1302395693777788
  0.5026388672498148  0.2595931225049096  0.3810166119811375
  0.4523469620991812  0.2627140194282097  0.6233096895868682
  0.5218013480774126  0.2611799630051308  0.8949747228703221
  0.2483113380345694  0.4842603139055283  0.1262393283154459
  0.2553161606006546  0.5519157421630122  0.3638370613380972
  0.2111384504701781  0.4965220170400825  0.6194084300025948
  0.2816683693349834  0.5042998002464459  0.8635152442276736
  0.0036154037107209  0.7896945159059134  0.1108628277881216
  0.9871752746051903  0.7704284633577712  0.3690698088049152
  0.9977204700638639  0.7505597984303022  0.5954302511763222
  0.9834608369889644  0.7376769051485598  0.8469832784169825
  0.7617725720283484  0.4893866919327235  0.1494453031119119
  0.7292166785804031  0.4928925687949715  0.3788425546811305
  0.7370136450528992  0.4706721942834391  0.6090030013403863
  0.7595764622324179  0.4800262406308508  0.8887909739658159
  0.4522038483053017  0.7524836666914502  0.1424605648749368
  0.4849345758940949  0.7610530256389459  0.3782040484163211
  0.4685041975875269  0.7205848071275999  0.6455139293651145
  0.4456349182309590  0.7656448342258840  0.8957880725549486
  0.2723795938603357  0.0036253746709017  0.0934198180347311
  0.2760203276521501  0.0165493635564835  0.3850275074674135
  0.2414895449824719  0.9949577861289263  0.6228868946140541
  0.2304810479564916  0.0127530872655725  0.8657869372173009
  0.7628772351869142  0.0018784780637414  0.1125284338251760
  0.7427138930188475  0.9605955445128428  0.4061554402819757
  0.7200184304339255  0.9660862354831572  0.6444157874871240
  0.7618084543346046  0.9740530881043962  0.8737463228802678
 
  0.00000000E+00  0.00000000E+00  0.00000000E+00
  0.00000000E+00  0.00000000E+00  0.00000000E+00
  0.00000000E+00  0.00000000E+00  0.00000000E+00
  0.00000000E+00  0.00000000E+00  0.00000000E+00
  0.00000000E+00  0.00000000E+00  0.00000000E+00
  0.00000000E+00  0.00000000E+00  0.00000000E+00
  0.00000000E+00  0.00000000E+00  0.00000000E+00
  0.00000000E+00  0.00000000E+00  0.00000000E+00
  0.00000000E+00  0.00000000E+00  0.00000000E+00
  0.00000000E+00  0.00000000E+00  0.00000000E+00
  0.00000000E+00  0.00000000E+00  0.00000000E+00
  0.00000000E+00  0.00000000E+00  0.00000000E+00
  0.00000000E+00  0.00000000E+00  0.00000000E+00
  0.00000000E+00  0.00000000E+00  0.00000000E+00
  0.00000000E+00  0.00000000E+00  0.00000000E+00
  0.00000000E+00  0.00000000E+00  0.00000000E+00
  0.00000000E+00  0.00000000E+00  0.00000000E+00
  0.00000000E+00  0.00000000E+00  0.00000000E+00
  0.00000000E+00  0.00000000E+00  0.00000000E+00
  0.00000000E+00  0.00000000E+00  0.00000000E+00
  0.00000000E+00  0.00000000E+00  0.00000000E+00
  0.00000000E+00  0.00000000E+00  0.00000000E+00
  0.00000000E+00  0.00000000E+00  0.00000000E+00
  0.00000000E+00  0.00000000E+00  0.00000000E+00
  0.00000000E+00  0.00000000E+00  0.00000000E+00
  0.00000000E+00  0.00000000E+00  0.00000000E+00
  0.00000000E+00  0.00000000E+00  0.00000000E+00
  0.00000000E+00  0.00000000E+00  0.00000000E+00
  0.00000000E+00  0.00000000E+00  0.00000000E+00
  0.00000000E+00  0.00000000E+00  0.00000000E+00
  0.00000000E+00  0.00000000E+00  0.00000000E+00
  0.00000000E+00  0.00000000E+00  0.00000000E+00
  0.00000000E+00  0.00000000E+00  0.00000000E+00
  0.00000000E+00  0.00000000E+00  0.00000000E+00
  0.00000000E+00  0.00000000E+00  0.00000000E+00
  0.00000000E+00  0.00000000E+00  0.00000000E+00
  0.00000000E+00  0.00000000E+00  0.00000000E+00
  0.00000000E+00  0.00000000E+00  0.00000000E+00
  0.00000000E+00  0.00000000E+00  0.00000000E+00
  0.00000000E+00  0.00000000E+00  0.00000000E+00
  0.00000000E+00  0.00000000E+00  0.00000000E+00
  0.00000000E+00  0.00000000E+00  0.00000000E+00
  0.00000000E+00  0.00000000E+00  0.00000000E+00
  0.00000000E+00  0.00000000E+00  0.00000000E+00
  0.00000000E+00  0.00000000E+00  0.00000000E+00
  0.00000000E+00  0.00000000E+00  0.00000000E+00
  0.00000000E+00  0.00000000E+00  0.00000000E+00
  0.00000000E+00  0.00000000E+00  0.00000000E+00
  0.00000000E+00  0.00000000E+00  0.00000000E+00
  0.00000000E+00  0.00000000E+00  0.00000000E+00
  0.00000000E+00  0.00000000E+00  0.00000000E+00
  0.00000000E+00  0.00000000E+00  0.00000000E+00
  0.00000000E+00  0.00000000E+00  0.00000000E+00
  0.00000000E+00  0.00000000E+00  0.00000000E+00
  0.00000000E+00  0.00000000E+00  0.00000000E+00
  0.00000000E+00  0.00000000E+00  0.00000000E+00
  0.00000000E+00  0.00000000E+00  0.00000000E+00
  0.00000000E+00  0.00000000E+00  0.00000000E+00
  0.00000000E+00  0.00000000E+00  0.00000000E+00
  0.00000000E+00  0.00000000E+00  0.00000000E+00
  0.00000000E+00  0.00000000E+00  0.00000000E+00
  0.00000000E+00  0.00000000E+00  0.00000000E+00
  0.00000000E+00  0.00000000E+00  0.00000000E+00
  0.00000000E+00  0.00000000E+00  0.00000000E+00
  0.00000000E+00  0.00000000E+00  0.00000000E+00
  0.00000000E+00  0.00000000E+00  0.00000000E+00
  0.00000000E+00  0.00000000E+00  0.00000000E+00
  0.00000000E+00  0.00000000E+00  0.00000000E+00
  0.00000000E+00  0.00000000E+00  0.00000000E+00
  0.00000000E+00  0.00000000E+00  0.00000000E+00
  0.00000000E+00  0.00000000E+00  0.00000000E+00
  0.00000000E+00  0.00000000E+00  0.00000000E+00
  0.00000000E+00  0.00000000E+00  0.00000000E+00
  0.00000000E+00  0.00000000E+00  0.00000000E+00
  0.00000000E+00  0.00000000E+00  0.00000000E+00
  0.00000000E+00  0.00000000E+00  0.00000000E+00
  0.00000000E+00  0.00000000E+00  0.00000000E+00
  0.00000000E+00  0.00000000E+00  0.00000000E+00
  0.00000000E+00  0.00000000E+00  0.00000000E+00
  0.00000000E+00  0.00000000E+00  0.00000000E+00
  0.00000000E+00  0.00000000E+00  0.00000000E+00
  0.00000000E+00  0.00000000E+00  0.00000000E+00
  0.00000000E+00  0.00000000E+00  0.00000000E+00
  0.00000000E+00  0.00000000E+00  0.00000000E+00
  0.00000000E+00  0.00000000E+00  0.00000000E+00
  0.00000000E+00  0.00000000E+00  0.00000000E+00
  0.00000000E+00  0.00000000E+00  0.00000000E+00
  0.00000000E+00  0.00000000E+00  0.00000000E+00
  0.00000000E+00  0.00000000E+00  0.00000000E+00
  0.00000000E+00  0.00000000E+00  0.00000000E+00
  0.00000000E+00  0.00000000E+00  0.00000000E+00
  0.00000000E+00  0.00000000E+00  0.00000000E+00
  0.00000000E+00  0.00000000E+00  0.00000000E+00
  0.00000000E+00  0.00000000E+00  0.00000000E+00
  0.00000000E+00  0.00000000E+00  0.00000000E+00
  0.00000000E+00  0.00000000E+00  0.00000000E+00
  0.00000000E+00  0.00000000E+00  0.00000000E+00
  0.00000000E+00  0.00000000E+00  0.00000000E+00
  0.00000000E+00  0.00000000E+00  0.00000000E+00
  0.00000000E+00  0.00000000E+00  0.00000000E+00
  0.00000000E+00  0.00000000E+00  0.00000000E+00
  0.00000000E+00  0.00000000E+00  0.00000000E+00
  0.00000000E+00  0.00000000E+00  0.00000000E+00
  0.00000000E+00  0.00000000E+00  0.00000000E+00
  0.00000000E+00  0.00000000E+00  0.00000000E+00
  0.00000000E+00  0.00000000E+00  0.00000000E+00
  0.00000000E+00  0.00000000E+00  0.00000000E+00
  0.00000000E+00  0.00000000E+00  0.00000000E+00
  0.00000000E+00  0.00000000E+00  0.00000000E+00
  0.00000000E+00  0.00000000E+00  0.00000000E+00
  0.00000000E+00  0.00000000E+00  0.00000000E+00
  0.00000000E+00  0.00000000E+00  0.00000000E+00
  0.00000000E+00  0.00000000E+00  0.00000000E+00
  0.00000000E+00  0.00000000E+00  0.00000000E+00
  0.00000000E+00  0.00000000E+00  0.00000000E+00
  0.00000000E+00  0.00000000E+00  0.00000000E+00
  0.00000000E+00  0.00000000E+00  0.00000000E+00
  0.00000000E+00  0.00000000E+00  0.00000000E+00
  0.00000000E+00  0.00000000E+00  0.00000000E+00
  0.00000000E+00  0.00000000E+00  0.00000000E+00
  0.00000000E+00  0.00000000E+00  0.00000000E+00
  0.00000000E+00  0.00000000E+00  0.00000000E+00
  0.00000000E+00  0.00000000E+00  0.00000000E+00
  0.00000000E+00  0.00000000E+00  0.00000000E+00
  0.00000000E+00  0.00000000E+00  0.00000000E+00
  0.00000000E+00  0.00000000E+00  0.00000000E+00
  0.00000000E+00  0.00000000E+00  0.00000000E+00
  0.00000000E+00  0.00000000E+00  0.00000000E+00
  0.00000000E+00  0.00000000E+00  0.00000000E+00
  0.00000000E+00  0.00000000E+00  0.00000000E+00
  0.00000000E+00  0.00000000E+00  0.00000000E+00
  0.00000000E+00  0.00000000E+00  0.00000000E+00
  0.00000000E+00  0.00000000E+00  0.00000000E+00
  0.00000000E+00  0.00000000E+00  0.00000000E+00
  0.00000000E+00  0.00000000E+00  0.00000000E+00
  0.00000000E+00  0.00000000E+00  0.00000000E+00
  0.00000000E+00  0.00000000E+00  0.00000000E+00
  0.00000000E+00  0.00000000E+00  0.00000000E+00
  0.00000000E+00  0.00000000E+00  0.00000000E+00
  0.00000000E+00  0.00000000E+00  0.00000000E+00
  0.00000000E+00  0.00000000E+00  0.00000000E+00
  0.00000000E+00  0.00000000E+00  0.00000000E+00
  0.00000000E+00  0.00000000E+00  0.00000000E+00
  0.00000000E+00  0.00000000E+00  0.00000000E+00
  0.00000000E+00  0.00000000E+00  0.00000000E+00
  0.00000000E+00  0.00000000E+00  0.00000000E+00
  0.00000000E+00  0.00000000E+00  0.00000000E+00
  0.00000000E+00  0.00000000E+00  0.00000000E+00
  0.00000000E+00  0.00000000E+00  0.00000000E+00
  0.00000000E+00  0.00000000E+00  0.00000000E+00
  0.00000000E+00  0.00000000E+00  0.00000000E+00
  0.00000000E+00  0.00000000E+00  0.00000000E+00
  0.00000000E+00  0.00000000E+00  0.00000000E+00
  0.00000000E+00  0.00000000E+00  0.00000000E+00
  0.00000000E+00  0.00000000E+00  0.00000000E+00
  0.00000000E+00  0.00000000E+00  0.00000000E+00
  0.00000000E+00  0.00000000E+00  0.00000000E+00
  0.00000000E+00  0.00000000E+00  0.00000000E+00
  0.00000000E+00  0.00000000E+00  0.00000000E+00
  0.00000000E+00  0.00000000E+00  0.00000000E+00
