Cs Be F                                 
   1.00000000000000     
     8.0720519999999993   -8.0720519999999993    0.0000000000000000
     8.0720519999999993    8.0720519999999993    0.0000000000000000
     0.0000000000000000    0.0000000000000000   16.1441030000000012
   Be   Cs   F 
    32    32    96
Direct
  0.9976410022079211  0.2903455246348713  0.0930598636742094
  0.0315261728111005  0.1731793099847560  0.3932308941331256
  0.0558411776055036  0.2503882965943388  0.5877371481350036
  0.9761469709669117  0.2584853938800733  0.9014921503932183
  0.5400311338306986  0.2589019387916926  0.0954620792466777
  0.5329192012224986  0.3171796604009697  0.3582722301361955
  0.5122088262899168  0.2031215355576237  0.6427811414296719
  0.4908831295495590  0.2065120898191113  0.9005631417087856
  0.2573064111921233  0.5615833961293449  0.1434230182174168
  0.2990451763731085  0.4810783304603310  0.3332901489570550
  0.2865218205666189  0.5053800277700498  0.6393082830856094
  0.2458692570258424  0.5434102103324630  0.8304379139157227
  0.9522389040145240  0.7679763079797697  0.1192814318304751
  0.9832284330915096  0.7874121097924986  0.4008149176598155
  0.9639183686366833  0.7064100832553127  0.6460713103670950
  0.9602418402203993  0.7598550690556249  0.8400264275902994
  0.7721611671709218  0.4474505681078181  0.0814145744567596
  0.7633098028555111  0.4607295341047146  0.3624160180419509
  0.8012407493619012  0.4869047475460131  0.5948678758063954
  0.7599086267697353  0.4316096890160162  0.8977375826127371
  0.4508052574336877  0.7568435913108770  0.1685786892291246
  0.5257614171737023  0.7426895039964836  0.3608483314260111
  0.4609928776302796  0.7221442582407911  0.6561282766607228
  0.4760391720824977  0.6998688215443960  0.8500727361260644
  0.2931975718663201  0.9754640789391897  0.1548116207982562
  0.2680292942172875  0.0370231893683381  0.3549129519801825
  0.2710520897331090  0.0708309032104633  0.6082591191997883
  0.2694150483013986  0.0237002874109925  0.9052475769218600
  0.7699143370507372  0.9577245546493008  0.1621551004123336
  0.8143370427884354  0.9877416192136748  0.3610112285921844
  0.7070945956806834  0.9988837083687926  0.6602029229459222
  0.7484629388549865  0.9325377178546795  0.8450011834284508
  0.0107484971316668  0.9920410260981607  0.0000736260843052
  0.0252444015479275  0.9954892385109601  0.2362796323777127
  0.0150344258258674  0.9800569390147956  0.5350090866175436
  0.0121417422678584  0.0167354439322262  0.7463528871786483
  0.5196332013481793  0.9688543491450589  0.0079578705168727
  0.5239868892505045  0.0320548915473283  0.2719305298214265
  0.5090738890651217  0.9862406849837599  0.4927607761684462
  0.4731642771648994  0.9829606200979284  0.7591942362509247
  0.2537036473130853  0.2600441166080958  0.0047731586979972
  0.2461612706171822  0.2576956720611551  0.2249431753675699
  0.2929120239736869  0.2899375796470023  0.4858067823848331
  0.2543161145428209  0.2527669948718598  0.7601385735092716
  0.0378280948564863  0.5172208117413620  0.9824200858621501
  0.9972785189487560  0.4878033175984958  0.2512376962800624
  0.0261305753699391  0.5080600977743298  0.4724344633359064
  0.9892809653953532  0.4615534117784847  0.7427359099365869
  0.7532225657793282  0.1824351193127033  0.9947035367731918
  0.7889359259659294  0.2283766355805474  0.2504863799865578
  0.7535533258413415  0.2302818004057711  0.5071987102446432
  0.7598688918785759  0.2505645158194484  0.7445019977702557
  0.4842528116969490  0.5021618383485362  0.9898374000167055
  0.5361500200734112  0.5075458784376926  0.2126308397958278
  0.4933699635932998  0.5139776087163546  0.5029359719149290
  0.5250632886133875  0.4600563634813487  0.7487501333074200
  0.2353806179506692  0.7518758004779378  0.9902845200670481
  0.2150405486321521  0.7548629274755662  0.2784296156248104
  0.2390389725415905  0.7571861511032331  0.5019227306435100
  0.2153880607350133  0.7851300190940280  0.7323089309155356
  0.7214837824054144  0.7334984203237601  0.9913168801624568
  0.7556511870824925  0.7124558611185083  0.2541090586092243
  0.7252579073265610  0.7526889041903458  0.5047840845760354
  0.7275754339369644  0.6995855302091974  0.7377259423652610
  0.0008989228703757  0.2490734626917848 -0.0010752398509919
  0.0300511755003776  0.2468031697655050  0.3183125992371317
  0.0295658848976221  0.2294737625117215  0.4838470082653899
  0.0789752307476017  0.3119795400891464  0.8625379270812761
  0.5111117132498221  0.2288995749583976  0.0015037836654506
  0.5510963105500185  0.2721092566901236  0.2723878512049899
  0.5548746612538967  0.3021673359492004  0.5925121726417721
  0.4991518632801645  0.2239774650310427  0.7336614652549627
  0.2827190498845224  0.4856521226028135  0.0716132798290438
  0.2826017407524339  0.5060628349093060  0.2334606448005249
  0.2405424617902037  0.5259080700784700  0.5538535315067412
  0.2326220582356397  0.5072935854109930  0.7336609072716705
  0.9884955182414050  0.7433483930246838  0.0364682150189600
  0.9925249637437898  0.7478759118779112  0.2013834765003331
  0.9721595139822157  0.7510284314004626  0.4897589022919977
  0.9777887020806728  0.7064361230632568  0.7492087949102328
  0.7693199583028741  0.4844836113262964  0.9875143063412508
  0.7570038566919636  0.4620370586426361  0.2647617479111640
  0.7300064268419405  0.5005552783246493  0.5190446516541908
  0.7750414250010320  0.5066271634666710  0.8257811561641090
  0.4563806670029453  0.7699819738602349  0.9269646204698447
  0.4651858779054581  0.7536631935605549  0.2653055945496386
  0.4596840083634027  0.7559739231227187  0.4404362484598029
  0.4779779149429242  0.7420477634222331  0.7558348327001589
  0.2622559827385651  0.9993881943524192  0.9967665164126116
  0.2620812560356107  0.0069086626365545  0.2527227059521848
  0.2673769421331424  0.0017827737329597  0.5309292185290234
  0.2483376961867005  0.0131932460677024  0.6898831470496833
  0.7752042938519730  0.9734493335308880  0.9320517039542310
  0.7868783105217407  0.9724293999724117  0.2629552591286317
  0.7124215925432079  0.0392604465835149  0.4019309556049963
  0.7392161747504771  0.0076273954433861  0.7595443885714448
  0.0149327677207186  0.1837974336621309  0.1429959001744787
  0.1443450181745322  0.0904570503744069  0.3871316651852791
  0.1646323681029197  0.1595917540337950  0.6007133944394715
  0.1620063976365454  0.0899364180779705  0.8761920935821255
  0.6008841112138387  0.1578134934288379  0.1320903263339151
  0.5251919625706342  0.2325920382331327  0.4282804033143345
  0.6128511209940656  0.1025697119046645  0.6382398151139265
  0.5937834893101978  0.1360611382351213  0.8709207130666244
  0.4381382301997199  0.3237653790063874  0.1268456209533615
  0.4105147880380856  0.3970665206421805  0.3456294028798102
  0.3560241138249178  0.3935030531221265  0.6384560347311337
  0.4348817753750980  0.3173333656612646  0.8743097827745548
  0.1396482457566963  0.6165570627048682  0.1368813697835507
  0.0023274929198944  0.6843978627929709  0.3464835026732536
  0.0824145429878205  0.6659845720996034  0.6205712399430670
  0.1407975135876420  0.6184615781524008  0.8475314455508596
  0.8742304259590299  0.3565178840794490  0.1009272997155123
  0.8537184178906355  0.3670441015410540  0.3866264217786680
  0.8928992936677853  0.3919131367703521  0.5879040965539848
  0.8756727539109327  0.3524837742062901  0.8972612713773140
  0.5530271347792660  0.7197350470168029  0.1175351461336169
  0.5801713826468087  0.6227938831020926  0.3577178155881840
  0.5664036721933384  0.6669651425154093  0.6193357975653851
  0.5829979459935083  0.6254890097609123  0.8656456398323145
  0.3955144309415354  0.8789467219401644  0.1509900123970787
  0.3187523976001377  0.9252930234005277  0.3836792682590229
  0.4106512175086251  0.8315120636986391  0.6199368212947328
  0.2957761613664068  0.9130391798905019  0.8596865123171071
  0.8516376689240817  0.8555280037907546  0.1217058770180456
  0.8650617666831945  0.8664414576149261  0.3813605159680181
  0.8096701480548171  0.0315490878791093  0.6097796142016211
  0.8614889417607677  0.8590289485287176  0.8243785894342985
  0.8266643535487833  0.0616027153445812  0.1259355799276649
  0.9187703202716553  0.0833229805494048  0.3839553878185494
  0.9632973576933793  0.2007006358046941  0.6422193704676713
  0.9231446396910932  0.1481088949432980  0.8686626577608794
  0.3490772576136079  0.0863433873782129  0.1256131541252277
  0.3471224489745002  0.1405875155136297  0.3593192840596549
  0.3929975436356876  0.1413018071273332  0.6120547288234033
  0.3819117971069881  0.1126919346374351  0.8950314701726866
  0.0913174497623723  0.3763307256467039  0.1138300907650441
  0.1898641661424727  0.4160110112450618  0.3562956301324999
  0.1138307739644513  0.3621682131274224  0.6095467431992174
  0.2568177286941239  0.4472672743920820  0.8913693926938823
  0.7985922973574148  0.5627600675962029  0.1210979944309571
  0.8069043776399087  0.5798711518683703  0.3876825408500877
  0.8756560958353670  0.6091253631049104  0.6139713956090548
  0.9056670419197100  0.6680817950698543  0.8918556099282019
  0.6565083995213404  0.3725415006002703  0.0946142244107071
  0.6356360740844009  0.4039703926596849  0.3818331112278864
  0.7294501183933230  0.4664555226898685  0.6707924505614963
  0.6519642755922533  0.3585039840106755  0.8954280320695903
  0.3526685764139234  0.6660005124147333  0.1420052005725982
  0.3186073355126974  0.5912422617602073  0.3786691011526447
  0.3659195419874114  0.6210466591459313  0.6530817364400824
  0.3605705634521353  0.6192033956840579  0.8414507151975700
  0.1835121225529402  0.9114189719167645  0.1273075282213977
  0.0790161984000150  0.8781605463964960  0.3870308464548618
  0.9112123256978121  0.8257316653409568  0.6378359540854770
  0.0618465796609212  0.8325233680944494  0.8704436795462476
  0.6503767840994474  0.9175100904792085  0.1469227812579554
  0.6156012431634423  0.8421384810411897  0.3568129672446372
  0.6434048816799596  0.8889252983533025  0.6420542570315485
  0.6374818235190486  0.8625408932674394  0.8509724884607480
 
  0.00000000E+00  0.00000000E+00  0.00000000E+00
  0.00000000E+00  0.00000000E+00  0.00000000E+00
  0.00000000E+00  0.00000000E+00  0.00000000E+00
  0.00000000E+00  0.00000000E+00  0.00000000E+00
  0.00000000E+00  0.00000000E+00  0.00000000E+00
  0.00000000E+00  0.00000000E+00  0.00000000E+00
  0.00000000E+00  0.00000000E+00  0.00000000E+00
  0.00000000E+00  0.00000000E+00  0.00000000E+00
  0.00000000E+00  0.00000000E+00  0.00000000E+00
  0.00000000E+00  0.00000000E+00  0.00000000E+00
  0.00000000E+00  0.00000000E+00  0.00000000E+00
  0.00000000E+00  0.00000000E+00  0.00000000E+00
  0.00000000E+00  0.00000000E+00  0.00000000E+00
  0.00000000E+00  0.00000000E+00  0.00000000E+00
  0.00000000E+00  0.00000000E+00  0.00000000E+00
  0.00000000E+00  0.00000000E+00  0.00000000E+00
  0.00000000E+00  0.00000000E+00  0.00000000E+00
  0.00000000E+00  0.00000000E+00  0.00000000E+00
  0.00000000E+00  0.00000000E+00  0.00000000E+00
  0.00000000E+00  0.00000000E+00  0.00000000E+00
  0.00000000E+00  0.00000000E+00  0.00000000E+00
  0.00000000E+00  0.00000000E+00  0.00000000E+00
  0.00000000E+00  0.00000000E+00  0.00000000E+00
  0.00000000E+00  0.00000000E+00  0.00000000E+00
  0.00000000E+00  0.00000000E+00  0.00000000E+00
  0.00000000E+00  0.00000000E+00  0.00000000E+00
  0.00000000E+00  0.00000000E+00  0.00000000E+00
  0.00000000E+00  0.00000000E+00  0.00000000E+00
  0.00000000E+00  0.00000000E+00  0.00000000E+00
  0.00000000E+00  0.00000000E+00  0.00000000E+00
  0.00000000E+00  0.00000000E+00  0.00000000E+00
  0.00000000E+00  0.00000000E+00  0.00000000E+00
  0.00000000E+00  0.00000000E+00  0.00000000E+00
  0.00000000E+00  0.00000000E+00  0.00000000E+00
  0.00000000E+00  0.00000000E+00  0.00000000E+00
  0.00000000E+00  0.00000000E+00  0.00000000E+00
  0.00000000E+00  0.00000000E+00  0.00000000E+00
  0.00000000E+00  0.00000000E+00  0.00000000E+00
  0.00000000E+00  0.00000000E+00  0.00000000E+00
  0.00000000E+00  0.00000000E+00  0.00000000E+00
  0.00000000E+00  0.00000000E+00  0.00000000E+00
  0.00000000E+00  0.00000000E+00  0.00000000E+00
  0.00000000E+00  0.00000000E+00  0.00000000E+00
  0.00000000E+00  0.00000000E+00  0.00000000E+00
  0.00000000E+00  0.00000000E+00  0.00000000E+00
  0.00000000E+00  0.00000000E+00  0.00000000E+00
  0.00000000E+00  0.00000000E+00  0.00000000E+00
  0.00000000E+00  0.00000000E+00  0.00000000E+00
  0.00000000E+00  0.00000000E+00  0.00000000E+00
  0.00000000E+00  0.00000000E+00  0.00000000E+00
  0.00000000E+00  0.00000000E+00  0.00000000E+00
  0.00000000E+00  0.00000000E+00  0.00000000E+00
  0.00000000E+00  0.00000000E+00  0.00000000E+00
  0.00000000E+00  0.00000000E+00  0.00000000E+00
  0.00000000E+00  0.00000000E+00  0.00000000E+00
  0.00000000E+00  0.00000000E+00  0.00000000E+00
  0.00000000E+00  0.00000000E+00  0.00000000E+00
  0.00000000E+00  0.00000000E+00  0.00000000E+00
  0.00000000E+00  0.00000000E+00  0.00000000E+00
  0.00000000E+00  0.00000000E+00  0.00000000E+00
  0.00000000E+00  0.00000000E+00  0.00000000E+00
  0.00000000E+00  0.00000000E+00  0.00000000E+00
  0.00000000E+00  0.00000000E+00  0.00000000E+00
  0.00000000E+00  0.00000000E+00  0.00000000E+00
  0.00000000E+00  0.00000000E+00  0.00000000E+00
  0.00000000E+00  0.00000000E+00  0.00000000E+00
  0.00000000E+00  0.00000000E+00  0.00000000E+00
  0.00000000E+00  0.00000000E+00  0.00000000E+00
  0.00000000E+00  0.00000000E+00  0.00000000E+00
  0.00000000E+00  0.00000000E+00  0.00000000E+00
  0.00000000E+00  0.00000000E+00  0.00000000E+00
  0.00000000E+00  0.00000000E+00  0.00000000E+00
  0.00000000E+00  0.00000000E+00  0.00000000E+00
  0.00000000E+00  0.00000000E+00  0.00000000E+00
  0.00000000E+00  0.00000000E+00  0.00000000E+00
  0.00000000E+00  0.00000000E+00  0.00000000E+00
  0.00000000E+00  0.00000000E+00  0.00000000E+00
  0.00000000E+00  0.00000000E+00  0.00000000E+00
  0.00000000E+00  0.00000000E+00  0.00000000E+00
  0.00000000E+00  0.00000000E+00  0.00000000E+00
  0.00000000E+00  0.00000000E+00  0.00000000E+00
  0.00000000E+00  0.00000000E+00  0.00000000E+00
  0.00000000E+00  0.00000000E+00  0.00000000E+00
  0.00000000E+00  0.00000000E+00  0.00000000E+00
  0.00000000E+00  0.00000000E+00  0.00000000E+00
  0.00000000E+00  0.00000000E+00  0.00000000E+00
  0.00000000E+00  0.00000000E+00  0.00000000E+00
  0.00000000E+00  0.00000000E+00  0.00000000E+00
  0.00000000E+00  0.00000000E+00  0.00000000E+00
  0.00000000E+00  0.00000000E+00  0.00000000E+00
  0.00000000E+00  0.00000000E+00  0.00000000E+00
  0.00000000E+00  0.00000000E+00  0.00000000E+00
  0.00000000E+00  0.00000000E+00  0.00000000E+00
  0.00000000E+00  0.00000000E+00  0.00000000E+00
  0.00000000E+00  0.00000000E+00  0.00000000E+00
  0.00000000E+00  0.00000000E+00  0.00000000E+00
  0.00000000E+00  0.00000000E+00  0.00000000E+00
  0.00000000E+00  0.00000000E+00  0.00000000E+00
  0.00000000E+00  0.00000000E+00  0.00000000E+00
  0.00000000E+00  0.00000000E+00  0.00000000E+00
  0.00000000E+00  0.00000000E+00  0.00000000E+00
  0.00000000E+00  0.00000000E+00  0.00000000E+00
  0.00000000E+00  0.00000000E+00  0.00000000E+00
  0.00000000E+00  0.00000000E+00  0.00000000E+00
  0.00000000E+00  0.00000000E+00  0.00000000E+00
  0.00000000E+00  0.00000000E+00  0.00000000E+00
  0.00000000E+00  0.00000000E+00  0.00000000E+00
  0.00000000E+00  0.00000000E+00  0.00000000E+00
  0.00000000E+00  0.00000000E+00  0.00000000E+00
  0.00000000E+00  0.00000000E+00  0.00000000E+00
  0.00000000E+00  0.00000000E+00  0.00000000E+00
  0.00000000E+00  0.00000000E+00  0.00000000E+00
  0.00000000E+00  0.00000000E+00  0.00000000E+00
  0.00000000E+00  0.00000000E+00  0.00000000E+00
  0.00000000E+00  0.00000000E+00  0.00000000E+00
  0.00000000E+00  0.00000000E+00  0.00000000E+00
  0.00000000E+00  0.00000000E+00  0.00000000E+00
  0.00000000E+00  0.00000000E+00  0.00000000E+00
  0.00000000E+00  0.00000000E+00  0.00000000E+00
  0.00000000E+00  0.00000000E+00  0.00000000E+00
  0.00000000E+00  0.00000000E+00  0.00000000E+00
  0.00000000E+00  0.00000000E+00  0.00000000E+00
  0.00000000E+00  0.00000000E+00  0.00000000E+00
  0.00000000E+00  0.00000000E+00  0.00000000E+00
  0.00000000E+00  0.00000000E+00  0.00000000E+00
  0.00000000E+00  0.00000000E+00  0.00000000E+00
  0.00000000E+00  0.00000000E+00  0.00000000E+00
  0.00000000E+00  0.00000000E+00  0.00000000E+00
  0.00000000E+00  0.00000000E+00  0.00000000E+00
  0.00000000E+00  0.00000000E+00  0.00000000E+00
  0.00000000E+00  0.00000000E+00  0.00000000E+00
  0.00000000E+00  0.00000000E+00  0.00000000E+00
  0.00000000E+00  0.00000000E+00  0.00000000E+00
  0.00000000E+00  0.00000000E+00  0.00000000E+00
  0.00000000E+00  0.00000000E+00  0.00000000E+00
  0.00000000E+00  0.00000000E+00  0.00000000E+00
  0.00000000E+00  0.00000000E+00  0.00000000E+00
  0.00000000E+00  0.00000000E+00  0.00000000E+00
  0.00000000E+00  0.00000000E+00  0.00000000E+00
  0.00000000E+00  0.00000000E+00  0.00000000E+00
  0.00000000E+00  0.00000000E+00  0.00000000E+00
  0.00000000E+00  0.00000000E+00  0.00000000E+00
  0.00000000E+00  0.00000000E+00  0.00000000E+00
  0.00000000E+00  0.00000000E+00  0.00000000E+00
  0.00000000E+00  0.00000000E+00  0.00000000E+00
  0.00000000E+00  0.00000000E+00  0.00000000E+00
  0.00000000E+00  0.00000000E+00  0.00000000E+00
  0.00000000E+00  0.00000000E+00  0.00000000E+00
  0.00000000E+00  0.00000000E+00  0.00000000E+00
  0.00000000E+00  0.00000000E+00  0.00000000E+00
  0.00000000E+00  0.00000000E+00  0.00000000E+00
  0.00000000E+00  0.00000000E+00  0.00000000E+00
  0.00000000E+00  0.00000000E+00  0.00000000E+00
  0.00000000E+00  0.00000000E+00  0.00000000E+00
  0.00000000E+00  0.00000000E+00  0.00000000E+00
  0.00000000E+00  0.00000000E+00  0.00000000E+00
  0.00000000E+00  0.00000000E+00  0.00000000E+00
  0.00000000E+00  0.00000000E+00  0.00000000E+00
  0.00000000E+00  0.00000000E+00  0.00000000E+00
  0.00000000E+00  0.00000000E+00  0.00000000E+00
