Hg Bi Cl                                
   1.00000000000000     
    10.9125060000000005  -10.9125060000000005    0.0000000000000000
    10.9125060000000005   10.9125060000000005    0.0000000000000000
     0.0000000000000000    0.0000000000000000   21.8250109999999999
   Hg   Bi   Cl
    32    32    96
Direct
 -0.0028338815721690 -0.0044857641430861  0.9966221762430213
 -0.0018741176196656  0.0064475993433905  0.2463128132891031
  0.0070145815389850  0.0036270354038772  0.4970321978080043
  0.0087813729824220 -0.0047322572802920  0.7469900291940887
  0.4932613482632379 -0.0064155788101793 -0.0002501847765545
  0.4922248246170835  0.0033321934840145  0.2465242047512428
  0.5036326783465142  0.0075331627413573  0.4967733034233114
  0.5009163513804370 -0.0017664986655163  0.7470917745272774
  0.2468782018155528  0.2490680547879328 -0.0028388808919703
  0.2431820101297016  0.2575702335105418  0.2493551463234443
  0.2529350985368854  0.2590809559738424  0.4962378952495766
  0.2567154188091650  0.2467161664043512  0.7469246990524714
  0.9932823739632665  0.4957615711014718 -0.0019801808996663
  0.9915211847524710  0.5044991547613008  0.2468840390916687
  0.0027907557072770  0.5047121588943270  0.4970050505468755
  0.0020518550637923  0.4935196782171698  0.7461897244257755
  0.7469606948311580  0.2416314173536046  0.9967374306842708
  0.7428135234185831  0.2535612546317402  0.2465798414690243
  0.7519952137106606  0.2510286169851811  0.4970552818968524
  0.7567163204294731  0.2431601482984364  0.7489805032176087
  0.4963936776615649  0.4942033313809023 -0.0033676923422643
  0.4986626649707226  0.5042945825597410  0.2470249707404512
  0.5072559458927804  0.5073661150790528  0.4992189432115524
  0.5084542876640428  0.4973747946140643  0.7468697260528535
  0.2458271482535005  0.7422348899811451 -0.0033414381570605
  0.2451424754220619  0.7533160227380585  0.2468956890767061
  0.2565891496534744  0.7519040291436027  0.4963890180604318
  0.2539924266016402  0.7439444581633369  0.7477698707852352
  0.7435456934455146  0.7478224694530687 -0.0038911452386306
  0.7467665602638087  0.7567567981965314  0.2474423777531759
  0.7552158732813288  0.7590727577635481  0.4969760154082265
  0.7547788287213097  0.7472494669144896  0.7469732153558130
  0.0003438728846353  0.2595558195507812  0.1340900549966814
  0.0096184922278762  0.2482669157806816  0.3840861615034776
 -0.0013331003979769  0.2389688701207538  0.6341181748075526
  0.9895801355901462  0.2502986820012563  0.8838724663413567
  0.5097813525781676  0.2541766581807368  0.1254835207776707
  0.5041386329858319  0.2392329535814921  0.3755125275669331
  0.4897664602283375  0.2448458036420320  0.6254254038251473
  0.4949369392840932  0.2598109433691828  0.8753660123156463
  0.2571596625362148  0.5031662979944009  0.1336740240407375
  0.2615814566785374  0.4969278300596084  0.3836312681691295
  0.2411650918513622  0.4958751516390100  0.6330376009603201
  0.2372896526839889  0.5023114553056744  0.8835195855706819
  0.0091535899588645  0.7548217432454570  0.1329630931721616
  0.0047761865300439  0.7398225511897979  0.3829688419266768
 -0.0095826069398554  0.7443906513964469  0.6328981908068431
 -0.0056284292335965  0.7591027237032602  0.8828717220653826
  0.7526704517157495  0.5118624613015218  0.1334474296910171
  0.7529998601613384  0.4913800791589684  0.3834245941947638
  0.7474875866957844  0.4878463708260690  0.6335611650661903
  0.7463456725136339  0.5076856104641232  0.8832013598290004
  0.5004020244742338  0.7591610932275626  0.1341464922020482
  0.5099832699473436  0.7485192627058349  0.3843072961573165
  0.4985973534897943  0.7393548805054828  0.6339807122928872
  0.4892522498604237  0.7503105429778316  0.8839134016472463
  0.2520690526869158  0.0114550723342715  0.1335831067079221
  0.2530456374382092  0.9911059841601597  0.3830799860953019
  0.2469367629508699  0.9876038864442285  0.6333413624784336
  0.2459571919175891  0.0071753721282188  0.8835117777544391
  0.7577110798212947  0.0026777664719344  0.1331433459137480
  0.7618371923040335 -0.0037075743501245  0.3835269169480968
  0.7418647800096237 -0.0042324538431851  0.6334761723147008
  0.7374779869535095  0.0016482748377426  0.8834767701270807
 -0.0037010086973905  0.2410623267735868  0.0011661422085034
 -0.0116937529052540  0.2553824757547833  0.2513282204248863
  0.0026684234874396  0.2595414472087461  0.5012775874530703
  0.0118564885790557  0.2431139089039460  0.7513317574569878
  0.4905442550805987  0.2471463293653136  0.0067347053276003
  0.4961735715764736  0.2589515901568650  0.2567511546033051
  0.5082322984007200  0.2550244464734833  0.5066799257652054
  0.5037768399233256  0.2409290787493539  0.7566145879736736
  0.2364832573195660  0.4951704790677542  0.0011276765329004
  0.2434385549112067  0.5057369462359280  0.2509215483515617
  0.2634217949186914  0.5063938120602250  0.5010845797558545
  0.2536788319035900  0.4970120179495026  0.7503742553135567
 -0.0123823981819797  0.7500349060733248  0.0003178360506735
 -0.0002239208644548  0.7619659082335902  0.2503837736194984
  0.0124120632751590  0.7504851467237205  0.5002989860449737
  0.0000558180958603  0.7374393124460484  0.7503127109903550
  0.7457306384058502  0.4940685304309138  0.0004544409328563
  0.7452611052893277  0.5136642675404103  0.2510214782462381
  0.7540185765176146  0.5055342579099619  0.5006183800024584
  0.7573435225309014  0.4880818089181686  0.7509339766603054
  0.4929379747507018  0.7393491109930150  0.0012638973460858
  0.4905947043622107  0.7535328401065212  0.2514647313885511
  0.5066457539593666  0.7622713549046500  0.5015116112350049
  0.5101620598884481  0.7469309693003019  0.7511678876091743
  0.2457023321279786  0.9930304713425682  0.0007960797330424
  0.2433962816616845  0.0134672018982783  0.2511005746731865
  0.2544085613902726  0.0048210713210837  0.5004144134653860
  0.2548479610810847 -0.0122225806148697  0.7509647054948422
  0.7371968085997982  0.9922114581248576  0.0009330496213415
  0.7453803746878176  0.0042545909953741  0.2504738268861406
  0.7635999019300138  0.0046358345063081  0.5010992663413238
  0.7557406392630871  0.9966440580737808  0.7507593474672395
  0.1232838016623802  0.1161761236225498  0.1194646622938085
  0.1292700576162643  0.1334180244052129  0.3731902485748840
  0.1277240917211427  0.1346752250848326  0.6198481110604787
  0.1290164532854245  0.1243856978890621  0.8708385603216915
  0.6131996534229071  0.1231227308213874  0.1219994405681401
  0.6218075201135136  0.1225253758631528  0.3671888231502317
  0.6368100891208629  0.1252636682225320  0.6245595413548370
  0.6178387920664224  0.1162592096496330  0.8748864734321731
  0.3642876154061151  0.3751914777278641  0.1255752128185165
  0.3828507278277939  0.3842432141057879  0.3738424514599767
  0.3877618307564425  0.3768582601177000  0.6237478435888498
  0.3795241779172955  0.3786339301607974  0.8667580973100319
  0.1133590717885255  0.6245518284647369  0.1217777774321570
  0.1226036330971862  0.6240744088565705  0.3689530158832548
  0.1358445399944899  0.6246528653010822  0.6212120302903001
  0.1182663217631591  0.6168496457213458  0.8704738898610505
  0.8719837330483515  0.3650182947428298  0.1204601132160414
  0.8708308072307039  0.3752518823606519  0.3702307125169697
  0.8762861690358005  0.3831825722759970  0.6198421725937646
  0.8725890269589127  0.3678155248572431  0.8725601538451917
  0.6231469649624042  0.6158208630951924  0.1197641565300588
  0.6307711318721005  0.6350661970283286  0.3730045015607341
  0.6283709123224474  0.6355440225087073  0.6211877918205223
  0.6281843042909686  0.6235124619562110  0.8700306491677057
  0.3719504941515184  0.8647455127992506  0.1214536004753467
  0.3725853889214499  0.8768054724849753  0.3695502728814725
  0.3772081869863654  0.8845988010954540  0.6204842399204918
  0.3725097327179256  0.8677505450257468  0.8715327916339299
  0.8650782826914161  0.8754148445422067  0.1213470875324640
  0.8820337113765370  0.8830135106302203  0.3700775131594302
  0.8872886696759956  0.8754692382990648  0.6226380644176728
  0.8783963116755615  0.8765732673812973  0.8681475612163210
  0.8727811327482827  0.1214565005706148  0.1194093446944531
  0.8649503483487010  0.1264974375336758  0.3703086757047777
  0.8837104046319048  0.1196328291517920  0.6224281219738980
  0.8840856538055833  0.1218862094547999  0.8712523404318152
  0.3655263209858453  0.1320251259880530  0.1242956575693667
  0.3723565523535091  0.1367795079674477  0.3723228428304292
  0.3709458107543779  0.1293575983648153  0.6166306999534922
  0.3740816449936956  0.1141222163821594  0.8752065040034658
  0.1158212957034994  0.3785606951916464  0.1226964639386218
  0.1135566873982502  0.3779967584091869  0.3712568811405019
  0.1253248555986305  0.3777888482984419  0.6195029389911018
  0.1340883179191753  0.3723584334732893  0.8700711109813088
  0.8666846327379085  0.6312275725183716  0.1198371187882604
  0.8740876354666467  0.6360700413722125  0.3727354813486324
  0.8732932251100661  0.6280807624887903  0.6180676921637875
  0.8741482854270719  0.6145691903510060  0.8719533917427880
  0.6266027559250992  0.3716370319108707  0.1173927473846445
  0.6238204637109687  0.3857344799925325  0.3748094844080639
  0.6330765029310869  0.3679807654730948  0.6249693147300431
  0.6268973602205113  0.3620566421746378  0.8724916944196965
  0.3730919871391107  0.6211738621590496  0.1199551128355712
  0.3657175352920324  0.6263038952620134  0.3700533392139473
  0.3827546379818628  0.6205866169539516  0.6232692667964592
  0.3831713532387294  0.6226699647986288  0.8699540994912156
  0.1253017687356639  0.8721222850464653  0.1187770299630837
  0.1250955263611320  0.8845659598186284  0.3713840206506062
  0.1328742343584722  0.8679979607052886  0.6203473957583433
  0.1252843044711909  0.8625639835230673  0.8718117348745924
  0.6169839200942844  0.8770722728507061  0.1230016034319253
  0.6142494376234365  0.8777780412932298  0.3702021556269124
  0.6244340554839990  0.8791433819266036  0.6207349287884341
  0.6328517503785035  0.8729653544776032  0.8693631749069639
 
  0.00000000E+00  0.00000000E+00  0.00000000E+00
  0.00000000E+00  0.00000000E+00  0.00000000E+00
  0.00000000E+00  0.00000000E+00  0.00000000E+00
  0.00000000E+00  0.00000000E+00  0.00000000E+00
  0.00000000E+00  0.00000000E+00  0.00000000E+00
  0.00000000E+00  0.00000000E+00  0.00000000E+00
  0.00000000E+00  0.00000000E+00  0.00000000E+00
  0.00000000E+00  0.00000000E+00  0.00000000E+00
  0.00000000E+00  0.00000000E+00  0.00000000E+00
  0.00000000E+00  0.00000000E+00  0.00000000E+00
  0.00000000E+00  0.00000000E+00  0.00000000E+00
  0.00000000E+00  0.00000000E+00  0.00000000E+00
  0.00000000E+00  0.00000000E+00  0.00000000E+00
  0.00000000E+00  0.00000000E+00  0.00000000E+00
  0.00000000E+00  0.00000000E+00  0.00000000E+00
  0.00000000E+00  0.00000000E+00  0.00000000E+00
  0.00000000E+00  0.00000000E+00  0.00000000E+00
  0.00000000E+00  0.00000000E+00  0.00000000E+00
  0.00000000E+00  0.00000000E+00  0.00000000E+00
  0.00000000E+00  0.00000000E+00  0.00000000E+00
  0.00000000E+00  0.00000000E+00  0.00000000E+00
  0.00000000E+00  0.00000000E+00  0.00000000E+00
  0.00000000E+00  0.00000000E+00  0.00000000E+00
  0.00000000E+00  0.00000000E+00  0.00000000E+00
  0.00000000E+00  0.00000000E+00  0.00000000E+00
  0.00000000E+00  0.00000000E+00  0.00000000E+00
  0.00000000E+00  0.00000000E+00  0.00000000E+00
  0.00000000E+00  0.00000000E+00  0.00000000E+00
  0.00000000E+00  0.00000000E+00  0.00000000E+00
  0.00000000E+00  0.00000000E+00  0.00000000E+00
  0.00000000E+00  0.00000000E+00  0.00000000E+00
  0.00000000E+00  0.00000000E+00  0.00000000E+00
  0.00000000E+00  0.00000000E+00  0.00000000E+00
  0.00000000E+00  0.00000000E+00  0.00000000E+00
  0.00000000E+00  0.00000000E+00  0.00000000E+00
  0.00000000E+00  0.00000000E+00  0.00000000E+00
  0.00000000E+00  0.00000000E+00  0.00000000E+00
  0.00000000E+00  0.00000000E+00  0.00000000E+00
  0.00000000E+00  0.00000000E+00  0.00000000E+00
  0.00000000E+00  0.00000000E+00  0.00000000E+00
  0.00000000E+00  0.00000000E+00  0.00000000E+00
  0.00000000E+00  0.00000000E+00  0.00000000E+00
  0.00000000E+00  0.00000000E+00  0.00000000E+00
  0.00000000E+00  0.00000000E+00  0.00000000E+00
  0.00000000E+00  0.00000000E+00  0.00000000E+00
  0.00000000E+00  0.00000000E+00  0.00000000E+00
  0.00000000E+00  0.00000000E+00  0.00000000E+00
  0.00000000E+00  0.00000000E+00  0.00000000E+00
  0.00000000E+00  0.00000000E+00  0.00000000E+00
  0.00000000E+00  0.00000000E+00  0.00000000E+00
  0.00000000E+00  0.00000000E+00  0.00000000E+00
  0.00000000E+00  0.00000000E+00  0.00000000E+00
  0.00000000E+00  0.00000000E+00  0.00000000E+00
  0.00000000E+00  0.00000000E+00  0.00000000E+00
  0.00000000E+00  0.00000000E+00  0.00000000E+00
  0.00000000E+00  0.00000000E+00  0.00000000E+00
  0.00000000E+00  0.00000000E+00  0.00000000E+00
  0.00000000E+00  0.00000000E+00  0.00000000E+00
  0.00000000E+00  0.00000000E+00  0.00000000E+00
  0.00000000E+00  0.00000000E+00  0.00000000E+00
  0.00000000E+00  0.00000000E+00  0.00000000E+00
  0.00000000E+00  0.00000000E+00  0.00000000E+00
  0.00000000E+00  0.00000000E+00  0.00000000E+00
  0.00000000E+00  0.00000000E+00  0.00000000E+00
  0.00000000E+00  0.00000000E+00  0.00000000E+00
  0.00000000E+00  0.00000000E+00  0.00000000E+00
  0.00000000E+00  0.00000000E+00  0.00000000E+00
  0.00000000E+00  0.00000000E+00  0.00000000E+00
  0.00000000E+00  0.00000000E+00  0.00000000E+00
  0.00000000E+00  0.00000000E+00  0.00000000E+00
  0.00000000E+00  0.00000000E+00  0.00000000E+00
  0.00000000E+00  0.00000000E+00  0.00000000E+00
  0.00000000E+00  0.00000000E+00  0.00000000E+00
  0.00000000E+00  0.00000000E+00  0.00000000E+00
  0.00000000E+00  0.00000000E+00  0.00000000E+00
  0.00000000E+00  0.00000000E+00  0.00000000E+00
  0.00000000E+00  0.00000000E+00  0.00000000E+00
  0.00000000E+00  0.00000000E+00  0.00000000E+00
  0.00000000E+00  0.00000000E+00  0.00000000E+00
  0.00000000E+00  0.00000000E+00  0.00000000E+00
  0.00000000E+00  0.00000000E+00  0.00000000E+00
  0.00000000E+00  0.00000000E+00  0.00000000E+00
  0.00000000E+00  0.00000000E+00  0.00000000E+00
  0.00000000E+00  0.00000000E+00  0.00000000E+00
  0.00000000E+00  0.00000000E+00  0.00000000E+00
  0.00000000E+00  0.00000000E+00  0.00000000E+00
  0.00000000E+00  0.00000000E+00  0.00000000E+00
  0.00000000E+00  0.00000000E+00  0.00000000E+00
  0.00000000E+00  0.00000000E+00  0.00000000E+00
  0.00000000E+00  0.00000000E+00  0.00000000E+00
  0.00000000E+00  0.00000000E+00  0.00000000E+00
  0.00000000E+00  0.00000000E+00  0.00000000E+00
  0.00000000E+00  0.00000000E+00  0.00000000E+00
  0.00000000E+00  0.00000000E+00  0.00000000E+00
  0.00000000E+00  0.00000000E+00  0.00000000E+00
  0.00000000E+00  0.00000000E+00  0.00000000E+00
  0.00000000E+00  0.00000000E+00  0.00000000E+00
  0.00000000E+00  0.00000000E+00  0.00000000E+00
  0.00000000E+00  0.00000000E+00  0.00000000E+00
  0.00000000E+00  0.00000000E+00  0.00000000E+00
  0.00000000E+00  0.00000000E+00  0.00000000E+00
  0.00000000E+00  0.00000000E+00  0.00000000E+00
  0.00000000E+00  0.00000000E+00  0.00000000E+00
  0.00000000E+00  0.00000000E+00  0.00000000E+00
  0.00000000E+00  0.00000000E+00  0.00000000E+00
  0.00000000E+00  0.00000000E+00  0.00000000E+00
  0.00000000E+00  0.00000000E+00  0.00000000E+00
  0.00000000E+00  0.00000000E+00  0.00000000E+00
  0.00000000E+00  0.00000000E+00  0.00000000E+00
  0.00000000E+00  0.00000000E+00  0.00000000E+00
  0.00000000E+00  0.00000000E+00  0.00000000E+00
  0.00000000E+00  0.00000000E+00  0.00000000E+00
  0.00000000E+00  0.00000000E+00  0.00000000E+00
  0.00000000E+00  0.00000000E+00  0.00000000E+00
  0.00000000E+00  0.00000000E+00  0.00000000E+00
  0.00000000E+00  0.00000000E+00  0.00000000E+00
  0.00000000E+00  0.00000000E+00  0.00000000E+00
  0.00000000E+00  0.00000000E+00  0.00000000E+00
  0.00000000E+00  0.00000000E+00  0.00000000E+00
  0.00000000E+00  0.00000000E+00  0.00000000E+00
  0.00000000E+00  0.00000000E+00  0.00000000E+00
  0.00000000E+00  0.00000000E+00  0.00000000E+00
  0.00000000E+00  0.00000000E+00  0.00000000E+00
  0.00000000E+00  0.00000000E+00  0.00000000E+00
  0.00000000E+00  0.00000000E+00  0.00000000E+00
  0.00000000E+00  0.00000000E+00  0.00000000E+00
  0.00000000E+00  0.00000000E+00  0.00000000E+00
  0.00000000E+00  0.00000000E+00  0.00000000E+00
  0.00000000E+00  0.00000000E+00  0.00000000E+00
  0.00000000E+00  0.00000000E+00  0.00000000E+00
  0.00000000E+00  0.00000000E+00  0.00000000E+00
  0.00000000E+00  0.00000000E+00  0.00000000E+00
  0.00000000E+00  0.00000000E+00  0.00000000E+00
  0.00000000E+00  0.00000000E+00  0.00000000E+00
  0.00000000E+00  0.00000000E+00  0.00000000E+00
  0.00000000E+00  0.00000000E+00  0.00000000E+00
  0.00000000E+00  0.00000000E+00  0.00000000E+00
  0.00000000E+00  0.00000000E+00  0.00000000E+00
  0.00000000E+00  0.00000000E+00  0.00000000E+00
  0.00000000E+00  0.00000000E+00  0.00000000E+00
  0.00000000E+00  0.00000000E+00  0.00000000E+00
  0.00000000E+00  0.00000000E+00  0.00000000E+00
  0.00000000E+00  0.00000000E+00  0.00000000E+00
  0.00000000E+00  0.00000000E+00  0.00000000E+00
  0.00000000E+00  0.00000000E+00  0.00000000E+00
  0.00000000E+00  0.00000000E+00  0.00000000E+00
  0.00000000E+00  0.00000000E+00  0.00000000E+00
  0.00000000E+00  0.00000000E+00  0.00000000E+00
  0.00000000E+00  0.00000000E+00  0.00000000E+00
  0.00000000E+00  0.00000000E+00  0.00000000E+00
  0.00000000E+00  0.00000000E+00  0.00000000E+00
  0.00000000E+00  0.00000000E+00  0.00000000E+00
  0.00000000E+00  0.00000000E+00  0.00000000E+00
  0.00000000E+00  0.00000000E+00  0.00000000E+00
  0.00000000E+00  0.00000000E+00  0.00000000E+00
  0.00000000E+00  0.00000000E+00  0.00000000E+00
  0.00000000E+00  0.00000000E+00  0.00000000E+00
  0.00000000E+00  0.00000000E+00  0.00000000E+00
  0.00000000E+00  0.00000000E+00  0.00000000E+00
  0.00000000E+00  0.00000000E+00  0.00000000E+00
