Cs F Cd                                 
   1.00000000000000     
     9.1177670000000006   -9.1177670000000006    0.0000000000000000
     9.1177670000000006    9.1177670000000006    0.0000000000000000
     0.0000000000000000    0.0000000000000000   18.2355349999999987
   Cd   Cs   F 
    32    32    96
Direct
  0.0003996512979615  0.2495531659736444  0.1255776345728768
  0.0004272683213408  0.2495863155212387  0.3753781177231562
  0.0006249454696566  0.2495750314830163  0.6254926632965258
  0.0004962704763583  0.2496178182356166  0.8751868086531503
  0.5005219303206444  0.2497364552520925  0.1254239489388867
  0.5003615050421200  0.2496019733085951  0.3750709980555330
  0.5004668020541959  0.2496736268323780  0.6252750781577402
  0.5005321262692199  0.2497308694817765  0.8750057852546630
  0.2504989661528494  0.4996128981730862  0.1254422285991673
  0.2504590087552861  0.4996534483130075  0.3751314750097986
  0.2505014541255806  0.4997055716829008  0.6254190998307967
  0.2504248862393706  0.4996634894642672  0.8751123659049065
  0.0004703309571768  0.7496039994861181  0.1254323726781414
  0.0003594661624333  0.7495605168112524  0.3751313462275691
  0.0005681748604253  0.7497715796873946  0.6255508134456308
  0.0004712494306723  0.7496511677940623  0.8752509678026194
  0.7504396818916049  0.4996389680314764  0.1254396853233326
  0.7504589621000872  0.4996229168928310  0.3752538709040096
  0.7506037438642207  0.4996136896009606  0.6255347257280901
  0.7505175606244032  0.4996273612222777  0.8752381155615688
  0.5004093395677739  0.7498047966798099  0.1252476958130545
  0.5003866751157294  0.7495886417602071  0.3749892665873159
  0.5006543523649041  0.7495992653593262  0.6253948076429278
  0.5005122641977220  0.7496959423946283  0.8750703161468245
  0.2504253692877499  0.9997768949296445  0.1253493346106001
  0.2503060239140626  0.9994910452220434  0.3750689649715843
  0.2506592490714415  0.9996318823289135  0.6253344181808913
  0.2505750663894443  0.9996971223356460  0.8750192318105287
  0.7504412536147091  0.9997240233932684  0.1253345322879115
  0.7503650663987215  0.9995444212321685  0.3749838361147921
  0.7505209524390697  0.9996216231845625  0.6253216131812264
  0.7504941703640535  0.9997668728093776  0.8750128822644306
  0.0007041966381680  0.9995244410790821  0.0002787148020419
  0.0002930017416639  0.9998359347259296  0.2503237434080695
  0.0004890558347338  0.9994513871318450  0.5003386968634075
  0.0003834009592048  0.9997130594277153  0.7502361946847104
  0.5005962259683852  0.9999411327375320  0.0001694436004888
  0.5000912489931895  0.9997366265131492  0.2501012646642758
  0.5005429667980351  0.9994571528717529  0.4999232251066700
  0.5003156058308417  0.9998172043249202  0.7499991415727082
  0.2505238322451809  0.2497886258780031  0.0002061755529088
  0.2503254136341220  0.2497631272483516  0.2503186230891258
  0.2504927280878919  0.2496425137258000  0.5002199060340482
  0.2502677020187641  0.2497480696131200  0.7501682821082567
  0.0005213320612497  0.4994599205314144  0.0004319202126764
  0.0004307321932587  0.4995984689743152  0.2503049277554345
  0.0005628963621167  0.4996783883898275  0.5004055153777269
  0.0003091773835924  0.4997987233144662  0.7502656477925640
  0.7506829395318064  0.2496144852101225  0.0002691701251863
  0.7503717059957657  0.2497029346702340  0.2504533236522820
  0.7505011035431228  0.2495109416380335  0.5003076310784511
  0.7503529228211663  0.2497279435821149  0.7501728595564701
  0.5005191305386865  0.4997048022905740  0.0001769345223969
  0.5004018392833128  0.4998995549498251  0.2501618185437178
  0.5005245256314304  0.4994407482970065  0.5002489089552264
  0.5003561953469633  0.4998157895223645  0.7503307254530661
  0.2505712141566009  0.7496805754482952  0.0001816725814917
  0.2502062952644744  0.7498028810733014  0.2500910106808470
  0.2504571122103660  0.7495297179514849  0.5001938576098466
  0.2503311501355347  0.7498191497124715  0.7502389615075430
  0.7505427206220474  0.7498019403432115  0.0002034269157000
  0.7502094153150662  0.7498060516496708  0.2500359492295530
  0.7505250693158960  0.7494840549327141  0.5003036996448357
  0.7504804337782988  0.7497131907022097  0.7503826951090392
  0.0001668345258662  0.2500349687226859  0.0003635848102217
  0.0004096411605506  0.2493635190673071  0.2504565189972510
  0.0002454295135194  0.2499816732325849  0.5004254315353758
  0.0006690097422490  0.2491679483221456  0.7502525464962749
  0.5005114302821732  0.2495310918117151  0.0002274371564093
  0.5004282134873093  0.2500475744847119  0.2502757593397320
  0.5000126077248372  0.2496022019929986  0.5001339704119566
  0.5004343108829510  0.2500933211975237  0.7501150647841411
  0.2495162693239665  0.4996156305966958  0.0002636068651754
  0.2509423261326231  0.4996967853382079  0.2502477345773983
  0.2500179407280325  0.4996912928012492  0.5002744000022114
  0.2510807925376335  0.4998686490860605  0.7502566692626658
  0.0007788930531931  0.7493565905188184  0.0003206601891502
  0.0003934079656886  0.7496326095678788  0.2502133898557945
  0.0000793324655172  0.7497697791411480  0.5003225434867798
  0.0005087701158634  0.7500290198269186  0.7503841238130426
  0.7502616367455114  0.4995222853784840  0.0003165467923552
  0.7504494185072714  0.4996726241222020  0.2503269441248474
  0.7503890494441432  0.4999744670709237  0.5004073444566757
  0.7505308923756756  0.4998889019381273  0.7503467469990904
  0.5000351187041854  0.7500176327932742  0.0001375684458762
  0.5002899237699705  0.7495283993441202  0.2500721092180103
  0.5003935161023451  0.7500599555380373  0.5002060838502764
  0.5007780767518214  0.7493422073951826  0.7502400082941044
  0.2512230081519458  0.9996588466586286  0.0001947468573468
  0.2495093500779344  0.9996745105869833  0.2502151118056781
  0.2511051596464745  0.9994501056224679  0.5001676928212064
  0.2497673424655710  0.0000243242028000  0.7501788853464320
  0.7504425735741369  0.0002472013612479  0.0001717431110835
  0.7501963968916295  0.9997335654632491  0.2501547552388056
  0.7505844637601521  0.9993486125262305  0.5001398910623647
  0.7502900652370785  0.9998029451073362  0.7501902439036972
  0.1253605857383073  0.1246755268252325  0.1250476009244337
  0.1253054659951059  0.1245900649793861  0.3758039547486319
  0.1257223567130391  0.1247055268784397  0.6246991077188543
  0.1256586011498190  0.1247898965255283  0.8756114122763342
  0.6253328043219503  0.1246457810222880  0.1254858231598489
  0.6254497946566439  0.1247414618759086  0.3751214462093965
  0.6255189595800855  0.1246309940286274  0.6249935822183837
  0.6255968596137921  0.1249135148362791  0.8748617217052709
  0.3754844831166406  0.3747474543162105  0.1250212605143017
  0.3753251430982185  0.3745888225681707  0.3754285040407930
  0.3754985858259003  0.3747587833105752  0.6250162210896919
  0.3754070120968827  0.3746565623361864  0.8756104929752014
  0.1253733935819524  0.6245176543393340  0.1259423011296584
  0.1257523840294088  0.6249637004399994  0.3751296282999701
  0.1253999629347246  0.6246621447705331  0.6255568481670308
  0.1254867367662611  0.6247595119187649  0.8745376874779097
  0.8754110553994109  0.3745771395517147  0.1255429775377883
  0.8755107813805203  0.3746580197667266  0.3753426113025272
  0.8756165883001468  0.3747280688768719  0.6255128630253572
  0.8753854652329528  0.3745177494144460  0.8751039569047333
  0.6252594257630214  0.6245815563087124  0.1251149705589741
  0.6257347162010768  0.6249758490457336  0.3749328066767165
  0.6254109342353162  0.6244303369072181  0.6255933897501647
  0.6253960973617581  0.6245758347772860  0.8752158277534675
  0.3755958849458969  0.8750051941787198  0.1257936913057985
  0.3750136406681772  0.8742089480784717  0.3744987961587891
  0.3758197429964594  0.8748420166529112  0.6258253735737672
  0.3754048273803381  0.8746516532124415  0.8742997907397113
  0.8754069639848616  0.8746584204857066  0.1250441698776422
  0.8752220508536783  0.8744642633996428  0.3743801683921765
  0.8758032739516864  0.8749413639018006  0.6259893463901971
  0.8753759715454927  0.8746393124233827  0.8752252841282042
  0.8752673427196480  0.1247735254861659  0.1257643149524400
  0.8753827718632146  0.1245367237506276  0.3752940316771749
  0.8755111877483238  0.1246392769243184  0.6252272350059773
  0.8756281605862501  0.1246200929626561  0.8748068394912624
  0.3752894587292422  0.1249524808979649  0.1258006992717832
  0.3754552474410111  0.1243488549956982  0.3744904579361396
  0.3755491578672832  0.1246882888999791  0.6255609203332989
  0.3756289764917914  0.1246642310718332  0.8746778758762407
  0.1253512867915648  0.3746285202909460  0.1259102493171403
  0.1254145887007619  0.3747193236187003  0.3749460799425900
  0.1255185140666422  0.3746905567451901  0.6257671016404892
  0.1253495962410977  0.3747096536091880  0.8744193553125481
  0.8753768830697860  0.6246279672726495  0.1251545239031453
  0.8755760569366478  0.6244998014940163  0.3752538683620775
  0.8753649187294082  0.6249489081369506  0.6254770751020950
  0.8754968801701758  0.6246199466448560  0.8753870647297658
  0.6254049622730838  0.3747484045872752  0.1255963174048049
  0.6253337707723525  0.3747966867989012  0.3753682433388497
  0.6256685288976743  0.3744266315383865  0.6252034891805435
  0.6254918930717666  0.3747147911366728  0.8749473239306240
  0.3754344597758559  0.6247415487953332  0.1247843552034861
  0.3757030683466325  0.6243811150751982  0.3752290820150964
  0.3753876002921603  0.6248877028688938  0.6251024458688740
  0.3752589617603167  0.6248521834460155  0.8754744232282816
  0.1254482771862157  0.8746942894180546  0.1249597265632419
  0.1249725720661305  0.8748491565872865  0.3752686591528016
  0.1257290900920009  0.8746022348370743  0.6250496143302068
  0.1252496792058058  0.8749419478196050  0.8755531998296995
  0.6255055260420370  0.8746896433868406  0.1249268741101184
  0.6249827027479309  0.8749435634393216  0.3748200233274900
  0.6257766534798954  0.8744798855236217  0.6252396318859492
  0.6253934171880648  0.8748247598301692  0.8753883480615489
 
  0.00000000E+00  0.00000000E+00  0.00000000E+00
  0.00000000E+00  0.00000000E+00  0.00000000E+00
  0.00000000E+00  0.00000000E+00  0.00000000E+00
  0.00000000E+00  0.00000000E+00  0.00000000E+00
  0.00000000E+00  0.00000000E+00  0.00000000E+00
  0.00000000E+00  0.00000000E+00  0.00000000E+00
  0.00000000E+00  0.00000000E+00  0.00000000E+00
  0.00000000E+00  0.00000000E+00  0.00000000E+00
  0.00000000E+00  0.00000000E+00  0.00000000E+00
  0.00000000E+00  0.00000000E+00  0.00000000E+00
  0.00000000E+00  0.00000000E+00  0.00000000E+00
  0.00000000E+00  0.00000000E+00  0.00000000E+00
  0.00000000E+00  0.00000000E+00  0.00000000E+00
  0.00000000E+00  0.00000000E+00  0.00000000E+00
  0.00000000E+00  0.00000000E+00  0.00000000E+00
  0.00000000E+00  0.00000000E+00  0.00000000E+00
  0.00000000E+00  0.00000000E+00  0.00000000E+00
  0.00000000E+00  0.00000000E+00  0.00000000E+00
  0.00000000E+00  0.00000000E+00  0.00000000E+00
  0.00000000E+00  0.00000000E+00  0.00000000E+00
  0.00000000E+00  0.00000000E+00  0.00000000E+00
  0.00000000E+00  0.00000000E+00  0.00000000E+00
  0.00000000E+00  0.00000000E+00  0.00000000E+00
  0.00000000E+00  0.00000000E+00  0.00000000E+00
  0.00000000E+00  0.00000000E+00  0.00000000E+00
  0.00000000E+00  0.00000000E+00  0.00000000E+00
  0.00000000E+00  0.00000000E+00  0.00000000E+00
  0.00000000E+00  0.00000000E+00  0.00000000E+00
  0.00000000E+00  0.00000000E+00  0.00000000E+00
  0.00000000E+00  0.00000000E+00  0.00000000E+00
  0.00000000E+00  0.00000000E+00  0.00000000E+00
  0.00000000E+00  0.00000000E+00  0.00000000E+00
  0.00000000E+00  0.00000000E+00  0.00000000E+00
  0.00000000E+00  0.00000000E+00  0.00000000E+00
  0.00000000E+00  0.00000000E+00  0.00000000E+00
  0.00000000E+00  0.00000000E+00  0.00000000E+00
  0.00000000E+00  0.00000000E+00  0.00000000E+00
  0.00000000E+00  0.00000000E+00  0.00000000E+00
  0.00000000E+00  0.00000000E+00  0.00000000E+00
  0.00000000E+00  0.00000000E+00  0.00000000E+00
  0.00000000E+00  0.00000000E+00  0.00000000E+00
  0.00000000E+00  0.00000000E+00  0.00000000E+00
  0.00000000E+00  0.00000000E+00  0.00000000E+00
  0.00000000E+00  0.00000000E+00  0.00000000E+00
  0.00000000E+00  0.00000000E+00  0.00000000E+00
  0.00000000E+00  0.00000000E+00  0.00000000E+00
  0.00000000E+00  0.00000000E+00  0.00000000E+00
  0.00000000E+00  0.00000000E+00  0.00000000E+00
  0.00000000E+00  0.00000000E+00  0.00000000E+00
  0.00000000E+00  0.00000000E+00  0.00000000E+00
  0.00000000E+00  0.00000000E+00  0.00000000E+00
  0.00000000E+00  0.00000000E+00  0.00000000E+00
  0.00000000E+00  0.00000000E+00  0.00000000E+00
  0.00000000E+00  0.00000000E+00  0.00000000E+00
  0.00000000E+00  0.00000000E+00  0.00000000E+00
  0.00000000E+00  0.00000000E+00  0.00000000E+00
  0.00000000E+00  0.00000000E+00  0.00000000E+00
  0.00000000E+00  0.00000000E+00  0.00000000E+00
  0.00000000E+00  0.00000000E+00  0.00000000E+00
  0.00000000E+00  0.00000000E+00  0.00000000E+00
  0.00000000E+00  0.00000000E+00  0.00000000E+00
  0.00000000E+00  0.00000000E+00  0.00000000E+00
  0.00000000E+00  0.00000000E+00  0.00000000E+00
  0.00000000E+00  0.00000000E+00  0.00000000E+00
  0.00000000E+00  0.00000000E+00  0.00000000E+00
  0.00000000E+00  0.00000000E+00  0.00000000E+00
  0.00000000E+00  0.00000000E+00  0.00000000E+00
  0.00000000E+00  0.00000000E+00  0.00000000E+00
  0.00000000E+00  0.00000000E+00  0.00000000E+00
  0.00000000E+00  0.00000000E+00  0.00000000E+00
  0.00000000E+00  0.00000000E+00  0.00000000E+00
  0.00000000E+00  0.00000000E+00  0.00000000E+00
  0.00000000E+00  0.00000000E+00  0.00000000E+00
  0.00000000E+00  0.00000000E+00  0.00000000E+00
  0.00000000E+00  0.00000000E+00  0.00000000E+00
  0.00000000E+00  0.00000000E+00  0.00000000E+00
  0.00000000E+00  0.00000000E+00  0.00000000E+00
  0.00000000E+00  0.00000000E+00  0.00000000E+00
  0.00000000E+00  0.00000000E+00  0.00000000E+00
  0.00000000E+00  0.00000000E+00  0.00000000E+00
  0.00000000E+00  0.00000000E+00  0.00000000E+00
  0.00000000E+00  0.00000000E+00  0.00000000E+00
  0.00000000E+00  0.00000000E+00  0.00000000E+00
  0.00000000E+00  0.00000000E+00  0.00000000E+00
  0.00000000E+00  0.00000000E+00  0.00000000E+00
  0.00000000E+00  0.00000000E+00  0.00000000E+00
  0.00000000E+00  0.00000000E+00  0.00000000E+00
  0.00000000E+00  0.00000000E+00  0.00000000E+00
  0.00000000E+00  0.00000000E+00  0.00000000E+00
  0.00000000E+00  0.00000000E+00  0.00000000E+00
  0.00000000E+00  0.00000000E+00  0.00000000E+00
  0.00000000E+00  0.00000000E+00  0.00000000E+00
  0.00000000E+00  0.00000000E+00  0.00000000E+00
  0.00000000E+00  0.00000000E+00  0.00000000E+00
  0.00000000E+00  0.00000000E+00  0.00000000E+00
  0.00000000E+00  0.00000000E+00  0.00000000E+00
  0.00000000E+00  0.00000000E+00  0.00000000E+00
  0.00000000E+00  0.00000000E+00  0.00000000E+00
  0.00000000E+00  0.00000000E+00  0.00000000E+00
  0.00000000E+00  0.00000000E+00  0.00000000E+00
  0.00000000E+00  0.00000000E+00  0.00000000E+00
  0.00000000E+00  0.00000000E+00  0.00000000E+00
  0.00000000E+00  0.00000000E+00  0.00000000E+00
  0.00000000E+00  0.00000000E+00  0.00000000E+00
  0.00000000E+00  0.00000000E+00  0.00000000E+00
  0.00000000E+00  0.00000000E+00  0.00000000E+00
  0.00000000E+00  0.00000000E+00  0.00000000E+00
  0.00000000E+00  0.00000000E+00  0.00000000E+00
  0.00000000E+00  0.00000000E+00  0.00000000E+00
  0.00000000E+00  0.00000000E+00  0.00000000E+00
  0.00000000E+00  0.00000000E+00  0.00000000E+00
  0.00000000E+00  0.00000000E+00  0.00000000E+00
  0.00000000E+00  0.00000000E+00  0.00000000E+00
  0.00000000E+00  0.00000000E+00  0.00000000E+00
  0.00000000E+00  0.00000000E+00  0.00000000E+00
  0.00000000E+00  0.00000000E+00  0.00000000E+00
  0.00000000E+00  0.00000000E+00  0.00000000E+00
  0.00000000E+00  0.00000000E+00  0.00000000E+00
  0.00000000E+00  0.00000000E+00  0.00000000E+00
  0.00000000E+00  0.00000000E+00  0.00000000E+00
  0.00000000E+00  0.00000000E+00  0.00000000E+00
  0.00000000E+00  0.00000000E+00  0.00000000E+00
  0.00000000E+00  0.00000000E+00  0.00000000E+00
  0.00000000E+00  0.00000000E+00  0.00000000E+00
  0.00000000E+00  0.00000000E+00  0.00000000E+00
  0.00000000E+00  0.00000000E+00  0.00000000E+00
  0.00000000E+00  0.00000000E+00  0.00000000E+00
  0.00000000E+00  0.00000000E+00  0.00000000E+00
  0.00000000E+00  0.00000000E+00  0.00000000E+00
  0.00000000E+00  0.00000000E+00  0.00000000E+00
  0.00000000E+00  0.00000000E+00  0.00000000E+00
  0.00000000E+00  0.00000000E+00  0.00000000E+00
  0.00000000E+00  0.00000000E+00  0.00000000E+00
  0.00000000E+00  0.00000000E+00  0.00000000E+00
  0.00000000E+00  0.00000000E+00  0.00000000E+00
  0.00000000E+00  0.00000000E+00  0.00000000E+00
  0.00000000E+00  0.00000000E+00  0.00000000E+00
  0.00000000E+00  0.00000000E+00  0.00000000E+00
  0.00000000E+00  0.00000000E+00  0.00000000E+00
  0.00000000E+00  0.00000000E+00  0.00000000E+00
  0.00000000E+00  0.00000000E+00  0.00000000E+00
  0.00000000E+00  0.00000000E+00  0.00000000E+00
  0.00000000E+00  0.00000000E+00  0.00000000E+00
  0.00000000E+00  0.00000000E+00  0.00000000E+00
  0.00000000E+00  0.00000000E+00  0.00000000E+00
  0.00000000E+00  0.00000000E+00  0.00000000E+00
  0.00000000E+00  0.00000000E+00  0.00000000E+00
  0.00000000E+00  0.00000000E+00  0.00000000E+00
  0.00000000E+00  0.00000000E+00  0.00000000E+00
  0.00000000E+00  0.00000000E+00  0.00000000E+00
  0.00000000E+00  0.00000000E+00  0.00000000E+00
  0.00000000E+00  0.00000000E+00  0.00000000E+00
  0.00000000E+00  0.00000000E+00  0.00000000E+00
  0.00000000E+00  0.00000000E+00  0.00000000E+00
  0.00000000E+00  0.00000000E+00  0.00000000E+00
  0.00000000E+00  0.00000000E+00  0.00000000E+00
  0.00000000E+00  0.00000000E+00  0.00000000E+00
  0.00000000E+00  0.00000000E+00  0.00000000E+00
  0.00000000E+00  0.00000000E+00  0.00000000E+00
  0.00000000E+00  0.00000000E+00  0.00000000E+00
