F Tl Ge                                 
   1.00000000000000     
     8.9205749999999995   -8.9205749999999995    0.0000000000000000
     8.9205749999999995    8.9205749999999995    0.0000000000000000
     0.0000000000000000    0.0000000000000000   17.8411499999999990
   F    Ge   Tl
    96    32    32
Direct
  0.9737726336649574  0.2646912173899703  0.0405601286718129
  0.0075503343547599  0.2184011040728586  0.2909242430764851
  0.9966473988166807  0.2877744681735087  0.5387427812668335
  0.9671567870168800  0.2123150782608219  0.7866918251842659
  0.5055677834773974  0.2302668074325840  0.9646790915983924
  0.4771299453735405  0.2779941557788491  0.2126905998890245
  0.5520373530594946  0.2661886882237531  0.4636065420961449
  0.4640006076013099  0.3053513622387505  0.7201436365197859
  0.2707776829382457  0.4314220366999626  0.9735967994306006
  0.2293831227374314  0.5379563934514247  0.2192515087430531
  0.2785222877604834  0.4492925908340720  0.4721271840159831
  0.2397650455292727  0.5379513052587060  0.7144035761795546
  0.0147365139554832  0.7195984575770882  0.9762867290332585
  0.9629687258053204  0.7643363505674096  0.2183633391263213
  0.0351584499989491  0.7447552096511950  0.4678884012768256
  0.0036873994819708  0.7838377402706481  0.7257660791452054
  0.6984835385759075  0.4794927297000963  0.9693157068147622
  0.8020537266079911  0.5365980611271756  0.2181800219807334
  0.7345632379207415  0.4639358991017879  0.4663186308869232
  0.8168615712466664  0.5569471390437295  0.7221795930360844
  0.5352309603437689  0.7791711909819798  0.0448808737534028
  0.4618308195681837  0.7459602060574634  0.2940583194910316
  0.5520614643086973  0.7716334529027709  0.5459170904493494
  0.4443584468218153  0.7470258649140311  0.7939458345791789
  0.2104792941648367  0.9918352739406001  0.9521694517619326
  0.3016862491421479  0.0385770790341106  0.2182518228618971
  0.2111363983226332  0.9677438405812585  0.4703745597274445
  0.3373738273190983  0.0393754344562591  0.7101732062025504
  0.7822760048671269  0.9293992539889793  0.9829526207686508
  0.7246940737974451  0.0350900610614529  0.2216062382423090
  0.7678410604271765  0.9349820321851295  0.4750083304651118
  0.7710309323894002  0.0400152859865527  0.7293860545503666
  0.1699460471156266  0.1200215650736120  0.1138745335678622
  0.0807587715467240  0.1478559568857483  0.4228863499627703
  0.0834455082107097  0.1599601634776644  0.6433064132648808
  0.1849472522415601  0.1104336601083939  0.8289067855934243
  0.6121208163035462  0.1856028334981903  0.1136651745801972
  0.6701255431970122  0.0913884347285417  0.4016116855955549
  0.6023408745635267  0.1666817785556249  0.6605991124898929
  0.6549673654002395  0.0711702437478178  0.9071128711332749
  0.3196784730238155  0.3921431555989147  0.1333951759538420
  0.3836869613336100  0.3073191535246272  0.3750869934336380
  0.3821946606797924  0.4540255376856470  0.6165785217443934
  0.3615877003733466  0.2831540288684869  0.8604504607000878
  0.1018660478238829  0.6775925845165907  0.1245304497714319
  0.1792320428197469  0.6018188355697394  0.3973333384202464
  0.0518300993170146  0.6172587694842613  0.6345047607648184
  0.1260726920392092  0.5537967412512663  0.8970205852504085
  0.8779310889766906  0.3229292904628677  0.1702644650784531
  0.8306229430740275  0.3915915220810449  0.3415114354383074
  0.8421327457838707  0.4165766425429099  0.6084795737188254
  0.9130599296863816  0.3406326726825618  0.8980912290790506
  0.6678431330597613  0.6060251583223086  0.1106487004685022
  0.5833507575925850  0.6582100112858056  0.4010886849649671
  0.6046440811700038  0.6771309627868785  0.6795069794857245
  0.6608689987138874  0.6053265128774488  0.8460126000142998
  0.3877859800872342  0.8369072571104289  0.1502786236373676
  0.3206273221651834  0.8960788516723508  0.3518129925735928
  0.3659573841141566  0.9217452349477245  0.5825547348477151
  0.3951692073639836  0.8457051036009663  0.9229945742726493
  0.8101307708942590  0.8809789717756543  0.1394480009823610
  0.8968361107942848  0.8177986903159230  0.3683707700448932
  0.9018058998090216  0.9517372133882273  0.6271924784242539
  0.9667926030465728  0.8851003689822734  0.8845186673693284
  0.8269003553951977  0.0887046590570904  0.0934923278668798
  0.8731978099764676  0.0489178164336465  0.3678105360885598
  0.8704483130351568  0.1979694732774245  0.6418743683430574
  0.8614296675951096  0.0970152208752852  0.9063643530880842
  0.3968529255266027  0.1687588854023823  0.0965684584756706
  0.4248323319337900  0.1049989104102409  0.4168724840082922
  0.4099345736553032  0.1950658459158824  0.5948763915727038
  0.3857375566209013  0.0622489479777889  0.8774949536817398
  0.0908480342394415  0.3339852101997895  0.1582877428007222
  0.0598572460807725  0.3623680284119223  0.3946612833555981
  0.1741351211988379  0.3991816620846960  0.6080715880174462
  0.1167625229538774  0.3398430426393705  0.8473831274236460
  0.8886773522723259  0.6612215316895207  0.0963330431864377
  0.9335547033315612  0.6062005890959586  0.3761872667295900
  0.8674363774267944  0.7187067773417150  0.6157843742123380
  0.8580280377514190  0.5675357393611381  0.8953939901106658
  0.6549288688528497  0.4067291783546085  0.1592640097274875
  0.6152385720645007  0.4213810374721708  0.3414137786216164
  0.6589830237874211  0.4261268663216179  0.6904922886347769
  0.5355834105803368  0.3993735377651662  0.8728038904128711
  0.3312848202034858  0.6009452846173136  0.0933575906073999
  0.3825568589343418  0.5503367134890530  0.3631459029483956
  0.3988100515056821  0.6902663555231090  0.6326514995386225
  0.3295932317950633  0.6173850246560939  0.9141940501489187
  0.1534920502013223  0.9138260382635427  0.1548368384356465
  0.1105335991284907  0.9354989128237996  0.3404585798609880
  0.1745513697229460  0.9251009651109979  0.6513468686821668
  0.1496723894593380  0.7797920292215926  0.8682475837402931
  0.5962412143770399  0.8384641749765234  0.1824484523209069
  0.5474552267099949  0.8716404691651761  0.4006111838211642
  0.6971430185313591  0.8864972662225795  0.6419035944372697
  0.5967300585145624  0.8518763306612166  0.8715060290437219
  0.9880671081615373  0.2240471401052737  0.1434707951629993
  0.9685925557657551  0.2396240607626254  0.3924523615837378
  0.9964570274320218  0.2836682025730494  0.6457358741286189
  0.0197358569041157  0.2346999753809372  0.8858399786540285
  0.4960584596471287  0.2828010307264746  0.1057003201090307
  0.5039868129726572  0.2166666902948473  0.3688395791309033
  0.5228223825878071  0.2859908106384600  0.6226006588901414
  0.5076823038918415  0.2511644186738211  0.8590690996915814
  0.2183513728301968  0.5027311085231766  0.1144369492476639
  0.2501921928281747  0.4748709632316277  0.3677819743359026
  0.2519003162167465  0.5293459446523172  0.6068354737610587
  0.2605112305995240  0.4914715581386065  0.8756418497141440
  0.9871754928165638  0.7743881434851103  0.1115874864418097
  0.0209779623211525  0.7299676407416524  0.3612323042469646
  0.0108257515565646  0.7634218837677058  0.6196103972766309
  0.0051155068206866  0.7383007058611653  0.8703570450567928
  0.7679032375603524  0.4912090675954702  0.1191108046528400
  0.7382286684140046  0.5080234780809111  0.3626478178427628
  0.7410650822681430  0.5239817667133432  0.6324543427096608
  0.7409085262590350  0.4805947606157741  0.8656899614834633
  0.4996264626265499  0.7343839531783999  0.1440696480515965
  0.4609673193422925  0.7461142401828610  0.4000708451204125
  0.5116726589894083  0.7897936400330936  0.6479720449260866
  0.4970553530253575  0.7407297962639383  0.8945846670623226
  0.2662267388168256  0.0020648389682976  0.1176376076105176
  0.2326722511276549  0.0177529829876851  0.3693070402538683
  0.2691657847080834  0.0308151651544268  0.6138635013436130
  0.2617726649872633  0.9826126757443310  0.8515860332977794
  0.7122769611397610  0.9925392517899130  0.1183952064100557
  0.7454987064478770  0.9673018830869353  0.3703731473724946
  0.7664893100873862  0.0189519772648697  0.6226538995580511
  0.7698602660682070  0.9779999632122290  0.8819065319821212
  0.9972796573062284  0.0033135970799340  0.0081065964791443
  0.9721677482140995  0.9944614943350095  0.2371933293922674
  0.9958601431370957  0.9685513641167207  0.4856200874476284
  0.0143185015824050  0.0081851045199949  0.7464721410789336
  0.4982182933849258  0.0044801651488235  0.0029041010580798
  0.4927219482155026  0.9742652201875602  0.2703891179790250
  0.5402938184354258  0.0099874050681537  0.5177906031779620
  0.5325307045442391  0.0096199395387843  0.7639643557127030
  0.2549211617855163  0.2192036114284576  0.9832783985268793
  0.2555099021731787  0.2498944646386875  0.2388528675788504
  0.2379651920907220  0.2454910000298004  0.5022969095524265
  0.2533646077786537  0.2646772474355985  0.7341165198623427
  0.9904599769174777  0.4940553330841314  0.0051490722445001
  0.9990768604498722  0.4718150987821031  0.2596483839044263
  0.0011525163473214  0.5010682349287875  0.5037780515626235
  0.0159487120383372  0.5024736332740816  0.7609410177138689
  0.7590807318175724  0.2415850416094212 -0.0000158490529752
  0.7130364979519995  0.2462609549923769  0.2517189030554890
  0.7644657840317698  0.2585470362400089  0.5069546283753528
  0.7546990709047102  0.2455788447900249  0.7635887625348448
  0.4901548284566920  0.5072552263988939  0.0037108417628572
  0.4800404214422234  0.4979177255347420  0.2351931111984061
  0.5029237786180977  0.4774348783271612  0.4824660795679387
  0.4783569001170958  0.5258126351967681  0.7489657362018991
  0.2391840413006774  0.7630675405037587  0.0063049752019272
  0.2327122753975298  0.7535694605497452  0.2460507734131826
  0.2521375704821495  0.7623586188672959  0.5080977500765660
  0.2495858023048349  0.7604651658796637  0.7389705693453112
  0.7394368096290517  0.7178056403815789  0.9930217120384868
  0.7585811795812051  0.7416932429125371  0.2538952930090720
  0.7438891286433047  0.7277071832396129  0.4944072850436161
  0.7706409266200648  0.7596209693765716  0.7561646544507091
 
  0.00000000E+00  0.00000000E+00  0.00000000E+00
  0.00000000E+00  0.00000000E+00  0.00000000E+00
  0.00000000E+00  0.00000000E+00  0.00000000E+00
  0.00000000E+00  0.00000000E+00  0.00000000E+00
  0.00000000E+00  0.00000000E+00  0.00000000E+00
  0.00000000E+00  0.00000000E+00  0.00000000E+00
  0.00000000E+00  0.00000000E+00  0.00000000E+00
  0.00000000E+00  0.00000000E+00  0.00000000E+00
  0.00000000E+00  0.00000000E+00  0.00000000E+00
  0.00000000E+00  0.00000000E+00  0.00000000E+00
  0.00000000E+00  0.00000000E+00  0.00000000E+00
  0.00000000E+00  0.00000000E+00  0.00000000E+00
  0.00000000E+00  0.00000000E+00  0.00000000E+00
  0.00000000E+00  0.00000000E+00  0.00000000E+00
  0.00000000E+00  0.00000000E+00  0.00000000E+00
  0.00000000E+00  0.00000000E+00  0.00000000E+00
  0.00000000E+00  0.00000000E+00  0.00000000E+00
  0.00000000E+00  0.00000000E+00  0.00000000E+00
  0.00000000E+00  0.00000000E+00  0.00000000E+00
  0.00000000E+00  0.00000000E+00  0.00000000E+00
  0.00000000E+00  0.00000000E+00  0.00000000E+00
  0.00000000E+00  0.00000000E+00  0.00000000E+00
  0.00000000E+00  0.00000000E+00  0.00000000E+00
  0.00000000E+00  0.00000000E+00  0.00000000E+00
  0.00000000E+00  0.00000000E+00  0.00000000E+00
  0.00000000E+00  0.00000000E+00  0.00000000E+00
  0.00000000E+00  0.00000000E+00  0.00000000E+00
  0.00000000E+00  0.00000000E+00  0.00000000E+00
  0.00000000E+00  0.00000000E+00  0.00000000E+00
  0.00000000E+00  0.00000000E+00  0.00000000E+00
  0.00000000E+00  0.00000000E+00  0.00000000E+00
  0.00000000E+00  0.00000000E+00  0.00000000E+00
  0.00000000E+00  0.00000000E+00  0.00000000E+00
  0.00000000E+00  0.00000000E+00  0.00000000E+00
  0.00000000E+00  0.00000000E+00  0.00000000E+00
  0.00000000E+00  0.00000000E+00  0.00000000E+00
  0.00000000E+00  0.00000000E+00  0.00000000E+00
  0.00000000E+00  0.00000000E+00  0.00000000E+00
  0.00000000E+00  0.00000000E+00  0.00000000E+00
  0.00000000E+00  0.00000000E+00  0.00000000E+00
  0.00000000E+00  0.00000000E+00  0.00000000E+00
  0.00000000E+00  0.00000000E+00  0.00000000E+00
  0.00000000E+00  0.00000000E+00  0.00000000E+00
  0.00000000E+00  0.00000000E+00  0.00000000E+00
  0.00000000E+00  0.00000000E+00  0.00000000E+00
  0.00000000E+00  0.00000000E+00  0.00000000E+00
  0.00000000E+00  0.00000000E+00  0.00000000E+00
  0.00000000E+00  0.00000000E+00  0.00000000E+00
  0.00000000E+00  0.00000000E+00  0.00000000E+00
  0.00000000E+00  0.00000000E+00  0.00000000E+00
  0.00000000E+00  0.00000000E+00  0.00000000E+00
  0.00000000E+00  0.00000000E+00  0.00000000E+00
  0.00000000E+00  0.00000000E+00  0.00000000E+00
  0.00000000E+00  0.00000000E+00  0.00000000E+00
  0.00000000E+00  0.00000000E+00  0.00000000E+00
  0.00000000E+00  0.00000000E+00  0.00000000E+00
  0.00000000E+00  0.00000000E+00  0.00000000E+00
  0.00000000E+00  0.00000000E+00  0.00000000E+00
  0.00000000E+00  0.00000000E+00  0.00000000E+00
  0.00000000E+00  0.00000000E+00  0.00000000E+00
  0.00000000E+00  0.00000000E+00  0.00000000E+00
  0.00000000E+00  0.00000000E+00  0.00000000E+00
  0.00000000E+00  0.00000000E+00  0.00000000E+00
  0.00000000E+00  0.00000000E+00  0.00000000E+00
  0.00000000E+00  0.00000000E+00  0.00000000E+00
  0.00000000E+00  0.00000000E+00  0.00000000E+00
  0.00000000E+00  0.00000000E+00  0.00000000E+00
  0.00000000E+00  0.00000000E+00  0.00000000E+00
  0.00000000E+00  0.00000000E+00  0.00000000E+00
  0.00000000E+00  0.00000000E+00  0.00000000E+00
  0.00000000E+00  0.00000000E+00  0.00000000E+00
  0.00000000E+00  0.00000000E+00  0.00000000E+00
  0.00000000E+00  0.00000000E+00  0.00000000E+00
  0.00000000E+00  0.00000000E+00  0.00000000E+00
  0.00000000E+00  0.00000000E+00  0.00000000E+00
  0.00000000E+00  0.00000000E+00  0.00000000E+00
  0.00000000E+00  0.00000000E+00  0.00000000E+00
  0.00000000E+00  0.00000000E+00  0.00000000E+00
  0.00000000E+00  0.00000000E+00  0.00000000E+00
  0.00000000E+00  0.00000000E+00  0.00000000E+00
  0.00000000E+00  0.00000000E+00  0.00000000E+00
  0.00000000E+00  0.00000000E+00  0.00000000E+00
  0.00000000E+00  0.00000000E+00  0.00000000E+00
  0.00000000E+00  0.00000000E+00  0.00000000E+00
  0.00000000E+00  0.00000000E+00  0.00000000E+00
  0.00000000E+00  0.00000000E+00  0.00000000E+00
  0.00000000E+00  0.00000000E+00  0.00000000E+00
  0.00000000E+00  0.00000000E+00  0.00000000E+00
  0.00000000E+00  0.00000000E+00  0.00000000E+00
  0.00000000E+00  0.00000000E+00  0.00000000E+00
  0.00000000E+00  0.00000000E+00  0.00000000E+00
  0.00000000E+00  0.00000000E+00  0.00000000E+00
  0.00000000E+00  0.00000000E+00  0.00000000E+00
  0.00000000E+00  0.00000000E+00  0.00000000E+00
  0.00000000E+00  0.00000000E+00  0.00000000E+00
  0.00000000E+00  0.00000000E+00  0.00000000E+00
  0.00000000E+00  0.00000000E+00  0.00000000E+00
  0.00000000E+00  0.00000000E+00  0.00000000E+00
  0.00000000E+00  0.00000000E+00  0.00000000E+00
  0.00000000E+00  0.00000000E+00  0.00000000E+00
  0.00000000E+00  0.00000000E+00  0.00000000E+00
  0.00000000E+00  0.00000000E+00  0.00000000E+00
  0.00000000E+00  0.00000000E+00  0.00000000E+00
  0.00000000E+00  0.00000000E+00  0.00000000E+00
  0.00000000E+00  0.00000000E+00  0.00000000E+00
  0.00000000E+00  0.00000000E+00  0.00000000E+00
  0.00000000E+00  0.00000000E+00  0.00000000E+00
  0.00000000E+00  0.00000000E+00  0.00000000E+00
  0.00000000E+00  0.00000000E+00  0.00000000E+00
  0.00000000E+00  0.00000000E+00  0.00000000E+00
  0.00000000E+00  0.00000000E+00  0.00000000E+00
  0.00000000E+00  0.00000000E+00  0.00000000E+00
  0.00000000E+00  0.00000000E+00  0.00000000E+00
  0.00000000E+00  0.00000000E+00  0.00000000E+00
  0.00000000E+00  0.00000000E+00  0.00000000E+00
  0.00000000E+00  0.00000000E+00  0.00000000E+00
  0.00000000E+00  0.00000000E+00  0.00000000E+00
  0.00000000E+00  0.00000000E+00  0.00000000E+00
  0.00000000E+00  0.00000000E+00  0.00000000E+00
  0.00000000E+00  0.00000000E+00  0.00000000E+00
  0.00000000E+00  0.00000000E+00  0.00000000E+00
  0.00000000E+00  0.00000000E+00  0.00000000E+00
  0.00000000E+00  0.00000000E+00  0.00000000E+00
  0.00000000E+00  0.00000000E+00  0.00000000E+00
  0.00000000E+00  0.00000000E+00  0.00000000E+00
  0.00000000E+00  0.00000000E+00  0.00000000E+00
  0.00000000E+00  0.00000000E+00  0.00000000E+00
  0.00000000E+00  0.00000000E+00  0.00000000E+00
  0.00000000E+00  0.00000000E+00  0.00000000E+00
  0.00000000E+00  0.00000000E+00  0.00000000E+00
  0.00000000E+00  0.00000000E+00  0.00000000E+00
  0.00000000E+00  0.00000000E+00  0.00000000E+00
  0.00000000E+00  0.00000000E+00  0.00000000E+00
  0.00000000E+00  0.00000000E+00  0.00000000E+00
  0.00000000E+00  0.00000000E+00  0.00000000E+00
  0.00000000E+00  0.00000000E+00  0.00000000E+00
  0.00000000E+00  0.00000000E+00  0.00000000E+00
  0.00000000E+00  0.00000000E+00  0.00000000E+00
  0.00000000E+00  0.00000000E+00  0.00000000E+00
  0.00000000E+00  0.00000000E+00  0.00000000E+00
  0.00000000E+00  0.00000000E+00  0.00000000E+00
  0.00000000E+00  0.00000000E+00  0.00000000E+00
  0.00000000E+00  0.00000000E+00  0.00000000E+00
  0.00000000E+00  0.00000000E+00  0.00000000E+00
  0.00000000E+00  0.00000000E+00  0.00000000E+00
  0.00000000E+00  0.00000000E+00  0.00000000E+00
  0.00000000E+00  0.00000000E+00  0.00000000E+00
  0.00000000E+00  0.00000000E+00  0.00000000E+00
  0.00000000E+00  0.00000000E+00  0.00000000E+00
  0.00000000E+00  0.00000000E+00  0.00000000E+00
  0.00000000E+00  0.00000000E+00  0.00000000E+00
  0.00000000E+00  0.00000000E+00  0.00000000E+00
  0.00000000E+00  0.00000000E+00  0.00000000E+00
  0.00000000E+00  0.00000000E+00  0.00000000E+00
  0.00000000E+00  0.00000000E+00  0.00000000E+00
  0.00000000E+00  0.00000000E+00  0.00000000E+00
  0.00000000E+00  0.00000000E+00  0.00000000E+00
  0.00000000E+00  0.00000000E+00  0.00000000E+00
  0.00000000E+00  0.00000000E+00  0.00000000E+00
  0.00000000E+00  0.00000000E+00  0.00000000E+00
