Mg In F                                 
   1.00000000000000     
     8.2235589999999998   -8.2235589999999998    0.0000000000000000
     8.2235589999999998    8.2235589999999998    0.0000000000000000
     0.0000000000000000    0.0000000000000000   16.4471179999999997
   F    In   Mg
    96    32    32
Direct
  0.9997538317382275  0.2501696382229494  0.0004400965308041
  0.9999672674019239  0.2500368697437711  0.2503943575632523
  0.0000780274643113  0.2502838989018835  0.5004869099867154
 -0.0003655972129560  0.2501582952432684  0.7504206851734659
  0.4997983814461245  0.2503410501134278  0.0004525011038701
  0.4998504713438610  0.2501975378817167  0.2504702247486627
  0.5000578575883085  0.2504337902722215  0.5004859269479887
  0.4996691285188191  0.2502462889542246  0.7504981512036266
  0.2497444821474781  0.5002911996200191  0.0004400417661355
  0.2501423601630016  0.5002583049729681  0.2504619302716398
  0.2500129383777052  0.5003928314705535  0.5004593916035847
  0.2498824451336718  0.5003716509785828  0.7504843577777071
 -0.0000442813497656  0.7501949245249240  0.0004584026339218
  0.0000887045647167  0.7500651092930302  0.2504406036932543
  0.0001960267933719  0.7501597757972195  0.5004596148164359
  0.9998397839055710  0.7502486751859013  0.7504519580160468
  0.7497610499127565  0.5001285414138793  0.0004407113062602
  0.7499825987624043  0.5000813689608111  0.2504513640466932
  0.7501003230430995  0.5003061557587675  0.5004547390665359
  0.7498349943648853  0.5001048204609572  0.7504628367280189
  0.4999865721485071  0.7503644917312288  0.0004898583602715
  0.5001470787720840  0.7501946381456339  0.2505158656862723
  0.5001320028943276  0.7504027700677727  0.5004985130224235
  0.4997767496565230  0.7503778208405063  0.7504838698456838
  0.2497542715725408  0.0003512344528444  0.0004715793775877
  0.2500592423758765  0.0001971317432572  0.2504838645035855
  0.2499014507598314  0.0003124356556243  0.5004834929022782
  0.2499631203530268  0.0002924411807023  0.7504632841290241
  0.7498133889947197  0.0001367603955261  0.0004942246204441
  0.7500829641417559  0.0000265532315673  0.2504839914995240
  0.7499439632652634  0.0003040010285544  0.5004836174570821
  0.7498536327060203  0.0002480714101634  0.7504528028868468
  0.1251455513169055  0.1248862533489392  0.1253047007915609
  0.1251137605527202  0.1250358359256356  0.3753618244426605
  0.1249384000528318  0.1253482453248465  0.6253641639387973
  0.1247788494218372  0.1249907252645405  0.8752533076360441
  0.6251607612995563  0.1249564068329508  0.1252886105269156
  0.6251610084865958  0.1251283822079823  0.3753157751039229
  0.6248168332603621  0.1252999156087130  0.6252654622328274
  0.6247681494271917  0.1250931130030672  0.8753455351306035
  0.3750597455480483  0.3748899589135845  0.1252961625496289
  0.3753024370657096  0.3752884515883379  0.3753964385810243
  0.3748588101134284  0.3752661200338734  0.6253255135185719
  0.3747463162104370  0.3750875715852149  0.8753066248483549
  0.1253208301297509  0.6249410684449018  0.1253113538884190
  0.1254189621599576  0.6251910264760843  0.3752358907408809
  0.1249969012844949  0.6252821379404462  0.6252997537852241
  0.1249195359991855  0.6250923229078269  0.8752789386543205
  0.8750946254062376  0.3750119598819341  0.1253057702391241
  0.8751358449961950  0.3750142643431660  0.3752722558324078
  0.8746710216702522  0.3752090585624436  0.6252974515680522
  0.8746317214517072  0.3748993672671510  0.8752866107677059
  0.6251975215409554  0.6249900665615663  0.1252802046135106
  0.6253933025940103  0.6251731494208893  0.3753213543484691
  0.6250803854194072  0.6253570424392202  0.6253473911502681
  0.6249132578509347  0.6251178455090766  0.8753244520765535
  0.3753175620712190  0.8750100251351073  0.1252700712009693
  0.3753978434271501  0.8752456650255397  0.3752833773899732
  0.3749494891432489  0.8751648635824012  0.6252336683727018
  0.3749066595566362  0.8750897836478765  0.8753520121507938
  0.8752374579239313  0.8749005405326243  0.1253092467971635
  0.8753233127411136  0.8750369654468273  0.3753629011954461
  0.8749653255612678  0.8752346157817321  0.6253374067218539
  0.8748089874590187  0.8749023638679998  0.8753018235113512
  0.8749873273215331  0.1250496576037161  0.1252910650910905
  0.8750932618061924  0.1250696425209558  0.3752848758299958
  0.8747545170509934  0.1250954399350274  0.6252276370763458
  0.8745982739525584  0.1249726037409011  0.8753547480236830
  0.3749854310242347  0.1249760963199945  0.1253015981450642
  0.3749206880161610  0.1252848054916977  0.3753669115369438
  0.3746712379769394  0.1252210214932551  0.6253069805720481
  0.3745538739436816  0.1250648032015788  0.8753828743916281
  0.1249533322690023  0.3749543377003821  0.1253464200096776
  0.1249256152223102  0.3752675123873175  0.3753149171530063
  0.1246020707947978  0.3752987879042315  0.6252882370357487
  0.1244641754770576  0.3750880065904862  0.8752919304896257
  0.8750762042871748  0.6250071497456264  0.1252703688937368
  0.8752571904066921  0.6250865968838794  0.3753224229557791
  0.8748519491271606  0.6252664676017070  0.6253642760633873
  0.8749044528969792  0.6248212791249488  0.8753421849169850
  0.6248931197373118  0.3750725776651819  0.1252643385942132
  0.6250861576446656  0.3751404406369012  0.3752742129959356
  0.6245406328369908  0.3752665747602502  0.6253317074118848
  0.6245101314996304  0.3751146885393163  0.8752447825940359
  0.3750470421716498  0.6251329574261753  0.1252566114754262
  0.3752047410624642  0.6252212982241081  0.3753271011423387
  0.3748137769883669  0.6251835606640527  0.6253436582161983
  0.3747146853590910  0.6251728170030857  0.8753549838300920
  0.1250450025439623  0.8750693425461514  0.1253123620771955
  0.1252244615895305  0.8750899580905345  0.3752485959981777
  0.1247816682676762  0.8752108471591087  0.6252976092728351
  0.1246343816282858  0.8751783235701162  0.8753629262399975
  0.6251168353671201  0.8750366592545439  0.1253442901456034
  0.6250894667894160  0.8752581223749342  0.3752936425173839
  0.6247627535703759  0.8753204500487836  0.6253655937364201
  0.6246428682533162  0.8751732272344054  0.8753189004319269
  0.0006016166847726  0.9989348215420241  0.0008157424447712
  0.0012224699729212 -0.0003088113809867  0.2508241166790445
 -0.0002153067421635 -0.0001362261740037  0.5009956284476902
  0.9991401450873697  0.9992914837845578  0.7508308122064277
  0.5000092401677092  0.9989341259713833  0.0009802175130441
  0.5008729230850051  0.9991979747273341  0.2511069238858354
  0.5005252847845941  0.9994673438052186  0.5009369758255018
  0.4993186405930020  0.9996779188908150  0.7510593538152422
  0.2496890420138609  0.2489267186572194  0.0007988191841117
  0.2512748149613861  0.2493375770275996  0.2505837195037722
  0.2494327168805929  0.2492191888364498  0.5008836884526908
  0.2489276634160281  0.2492849104802481  0.7507213685188020
  0.9996676239330848  0.4990900768954384  0.0008796348955262
  0.0010161821233934  0.4991998062917778  0.2508043196661572
  0.0003717324531554  0.4993788350318506  0.5009213878988945
  0.9990361359258801  0.5000510120168010  0.7509949197777747
  0.7500903272278451  0.2487253272701630  0.0008553194133688
  0.7506944197946642  0.2495296124981336  0.2509790814069405
  0.7494578039766188  0.2500410046740559  0.5009010757415188
  0.7489411240921792  0.2499716508317968  0.7509554954837367
  0.5004417800687074  0.4988802120722995  0.0009512461523483
  0.5010400934508261  0.4997210885678490  0.2510242226843351
  0.4994858936432429  0.4994653710593469  0.5009925763159213
  0.4991366044453505  0.4993023984301583  0.7510275376970114
  0.2505600107545807  0.7486274771838647  0.0008804028802612
  0.2509989758204367  0.7492377335967094  0.2510805399499467
  0.2500380835070635  0.7498943067498683  0.5009154315850268
  0.2500845598498513  0.7492008752548358  0.7509500300182833
  0.7503867842655761  0.7493425666757201  0.0010239078265139
  0.7513802140206365  0.7498092440394429  0.2508363249401914
  0.7506763588158959  0.7492098295183269  0.5008164841148000
  0.7492817025854414  0.7498717388177325  0.7508230104931535
  0.0000791617799925  0.2497985558213633  0.1255475851994164
  0.0001000590708243  0.2499597420842797  0.3755019791673400
 -0.0004504953102011  0.2501341327006744  0.6256345354202373
  0.9995807304879236  0.2498076232868452  0.8755079839275380
  0.5001129506881946  0.2497948052995911  0.1255393302216702
  0.5000815772768877  0.2500178640248037  0.3755985000909517
  0.4995899325258917  0.2500485036423974  0.6255513191863776
  0.4995715100188603  0.2498280400413395  0.8756005700936945
  0.2502028581455175  0.4997642416023423  0.1255316942817206
  0.2502568467613564  0.4999447651699295  0.3755563792300038
  0.2497193697252334  0.5000158268453408  0.6255789508146518
  0.2496284098223132  0.4997791335682001  0.8755639140598455
  0.0003661972703210  0.7497694695825554  0.1255311050243592
  0.0003779516870242  0.7499963328298987  0.3755612086048383
 -0.0000021252361669  0.7500585164322160  0.6255602649316281
 -0.0001059330716212  0.7499365391494466  0.8755743691257464
  0.7501493417868058  0.4998314678514948  0.1256161172387794
  0.7502567849122171  0.5000665451148100  0.3755030977261279
  0.7497007701187233  0.5001556849323087  0.6255629095820046
  0.7497032121004717  0.4999298559295807  0.8755776136442017
  0.5002781418909925  0.7498195600411671  0.1255658210776030
  0.5004078802211400  0.7500212417114472  0.3756490777278378
  0.4999784330648089  0.7500441058432737  0.6255272276634855
  0.4998882622617523  0.7498777881142410  0.8755852476294573
  0.2502635943253116  0.9996966615606939  0.1255358589726921
  0.2502298894589401 -0.0000586305625294  0.3755763464905524
  0.2498308839905022 -0.0000385559713734  0.6255711663462921
  0.2497571832645208 -0.0001826739781885  0.8755273398239579
  0.7502222996300746  0.9999297953966576  0.1255609308805489
  0.7503285948070038 -0.0000256463126600  0.3755772558362059
  0.7497916365387257  0.0001776713142063  0.6255704783423400
  0.7497386985525327 -0.0000834002206667  0.8755649177731026
 
  0.00000000E+00  0.00000000E+00  0.00000000E+00
  0.00000000E+00  0.00000000E+00  0.00000000E+00
  0.00000000E+00  0.00000000E+00  0.00000000E+00
  0.00000000E+00  0.00000000E+00  0.00000000E+00
  0.00000000E+00  0.00000000E+00  0.00000000E+00
  0.00000000E+00  0.00000000E+00  0.00000000E+00
  0.00000000E+00  0.00000000E+00  0.00000000E+00
  0.00000000E+00  0.00000000E+00  0.00000000E+00
  0.00000000E+00  0.00000000E+00  0.00000000E+00
  0.00000000E+00  0.00000000E+00  0.00000000E+00
  0.00000000E+00  0.00000000E+00  0.00000000E+00
  0.00000000E+00  0.00000000E+00  0.00000000E+00
  0.00000000E+00  0.00000000E+00  0.00000000E+00
  0.00000000E+00  0.00000000E+00  0.00000000E+00
  0.00000000E+00  0.00000000E+00  0.00000000E+00
  0.00000000E+00  0.00000000E+00  0.00000000E+00
  0.00000000E+00  0.00000000E+00  0.00000000E+00
  0.00000000E+00  0.00000000E+00  0.00000000E+00
  0.00000000E+00  0.00000000E+00  0.00000000E+00
  0.00000000E+00  0.00000000E+00  0.00000000E+00
  0.00000000E+00  0.00000000E+00  0.00000000E+00
  0.00000000E+00  0.00000000E+00  0.00000000E+00
  0.00000000E+00  0.00000000E+00  0.00000000E+00
  0.00000000E+00  0.00000000E+00  0.00000000E+00
  0.00000000E+00  0.00000000E+00  0.00000000E+00
  0.00000000E+00  0.00000000E+00  0.00000000E+00
  0.00000000E+00  0.00000000E+00  0.00000000E+00
  0.00000000E+00  0.00000000E+00  0.00000000E+00
  0.00000000E+00  0.00000000E+00  0.00000000E+00
  0.00000000E+00  0.00000000E+00  0.00000000E+00
  0.00000000E+00  0.00000000E+00  0.00000000E+00
  0.00000000E+00  0.00000000E+00  0.00000000E+00
  0.00000000E+00  0.00000000E+00  0.00000000E+00
  0.00000000E+00  0.00000000E+00  0.00000000E+00
  0.00000000E+00  0.00000000E+00  0.00000000E+00
  0.00000000E+00  0.00000000E+00  0.00000000E+00
  0.00000000E+00  0.00000000E+00  0.00000000E+00
  0.00000000E+00  0.00000000E+00  0.00000000E+00
  0.00000000E+00  0.00000000E+00  0.00000000E+00
  0.00000000E+00  0.00000000E+00  0.00000000E+00
  0.00000000E+00  0.00000000E+00  0.00000000E+00
  0.00000000E+00  0.00000000E+00  0.00000000E+00
  0.00000000E+00  0.00000000E+00  0.00000000E+00
  0.00000000E+00  0.00000000E+00  0.00000000E+00
  0.00000000E+00  0.00000000E+00  0.00000000E+00
  0.00000000E+00  0.00000000E+00  0.00000000E+00
  0.00000000E+00  0.00000000E+00  0.00000000E+00
  0.00000000E+00  0.00000000E+00  0.00000000E+00
  0.00000000E+00  0.00000000E+00  0.00000000E+00
  0.00000000E+00  0.00000000E+00  0.00000000E+00
  0.00000000E+00  0.00000000E+00  0.00000000E+00
  0.00000000E+00  0.00000000E+00  0.00000000E+00
  0.00000000E+00  0.00000000E+00  0.00000000E+00
  0.00000000E+00  0.00000000E+00  0.00000000E+00
  0.00000000E+00  0.00000000E+00  0.00000000E+00
  0.00000000E+00  0.00000000E+00  0.00000000E+00
  0.00000000E+00  0.00000000E+00  0.00000000E+00
  0.00000000E+00  0.00000000E+00  0.00000000E+00
  0.00000000E+00  0.00000000E+00  0.00000000E+00
  0.00000000E+00  0.00000000E+00  0.00000000E+00
  0.00000000E+00  0.00000000E+00  0.00000000E+00
  0.00000000E+00  0.00000000E+00  0.00000000E+00
  0.00000000E+00  0.00000000E+00  0.00000000E+00
  0.00000000E+00  0.00000000E+00  0.00000000E+00
  0.00000000E+00  0.00000000E+00  0.00000000E+00
  0.00000000E+00  0.00000000E+00  0.00000000E+00
  0.00000000E+00  0.00000000E+00  0.00000000E+00
  0.00000000E+00  0.00000000E+00  0.00000000E+00
  0.00000000E+00  0.00000000E+00  0.00000000E+00
  0.00000000E+00  0.00000000E+00  0.00000000E+00
  0.00000000E+00  0.00000000E+00  0.00000000E+00
  0.00000000E+00  0.00000000E+00  0.00000000E+00
  0.00000000E+00  0.00000000E+00  0.00000000E+00
  0.00000000E+00  0.00000000E+00  0.00000000E+00
  0.00000000E+00  0.00000000E+00  0.00000000E+00
  0.00000000E+00  0.00000000E+00  0.00000000E+00
  0.00000000E+00  0.00000000E+00  0.00000000E+00
  0.00000000E+00  0.00000000E+00  0.00000000E+00
  0.00000000E+00  0.00000000E+00  0.00000000E+00
  0.00000000E+00  0.00000000E+00  0.00000000E+00
  0.00000000E+00  0.00000000E+00  0.00000000E+00
  0.00000000E+00  0.00000000E+00  0.00000000E+00
  0.00000000E+00  0.00000000E+00  0.00000000E+00
  0.00000000E+00  0.00000000E+00  0.00000000E+00
  0.00000000E+00  0.00000000E+00  0.00000000E+00
  0.00000000E+00  0.00000000E+00  0.00000000E+00
  0.00000000E+00  0.00000000E+00  0.00000000E+00
  0.00000000E+00  0.00000000E+00  0.00000000E+00
  0.00000000E+00  0.00000000E+00  0.00000000E+00
  0.00000000E+00  0.00000000E+00  0.00000000E+00
  0.00000000E+00  0.00000000E+00  0.00000000E+00
  0.00000000E+00  0.00000000E+00  0.00000000E+00
  0.00000000E+00  0.00000000E+00  0.00000000E+00
  0.00000000E+00  0.00000000E+00  0.00000000E+00
  0.00000000E+00  0.00000000E+00  0.00000000E+00
  0.00000000E+00  0.00000000E+00  0.00000000E+00
  0.00000000E+00  0.00000000E+00  0.00000000E+00
  0.00000000E+00  0.00000000E+00  0.00000000E+00
  0.00000000E+00  0.00000000E+00  0.00000000E+00
  0.00000000E+00  0.00000000E+00  0.00000000E+00
  0.00000000E+00  0.00000000E+00  0.00000000E+00
  0.00000000E+00  0.00000000E+00  0.00000000E+00
  0.00000000E+00  0.00000000E+00  0.00000000E+00
  0.00000000E+00  0.00000000E+00  0.00000000E+00
  0.00000000E+00  0.00000000E+00  0.00000000E+00
  0.00000000E+00  0.00000000E+00  0.00000000E+00
  0.00000000E+00  0.00000000E+00  0.00000000E+00
  0.00000000E+00  0.00000000E+00  0.00000000E+00
  0.00000000E+00  0.00000000E+00  0.00000000E+00
  0.00000000E+00  0.00000000E+00  0.00000000E+00
  0.00000000E+00  0.00000000E+00  0.00000000E+00
  0.00000000E+00  0.00000000E+00  0.00000000E+00
  0.00000000E+00  0.00000000E+00  0.00000000E+00
  0.00000000E+00  0.00000000E+00  0.00000000E+00
  0.00000000E+00  0.00000000E+00  0.00000000E+00
  0.00000000E+00  0.00000000E+00  0.00000000E+00
  0.00000000E+00  0.00000000E+00  0.00000000E+00
  0.00000000E+00  0.00000000E+00  0.00000000E+00
  0.00000000E+00  0.00000000E+00  0.00000000E+00
  0.00000000E+00  0.00000000E+00  0.00000000E+00
  0.00000000E+00  0.00000000E+00  0.00000000E+00
  0.00000000E+00  0.00000000E+00  0.00000000E+00
  0.00000000E+00  0.00000000E+00  0.00000000E+00
  0.00000000E+00  0.00000000E+00  0.00000000E+00
  0.00000000E+00  0.00000000E+00  0.00000000E+00
  0.00000000E+00  0.00000000E+00  0.00000000E+00
  0.00000000E+00  0.00000000E+00  0.00000000E+00
  0.00000000E+00  0.00000000E+00  0.00000000E+00
  0.00000000E+00  0.00000000E+00  0.00000000E+00
  0.00000000E+00  0.00000000E+00  0.00000000E+00
  0.00000000E+00  0.00000000E+00  0.00000000E+00
  0.00000000E+00  0.00000000E+00  0.00000000E+00
  0.00000000E+00  0.00000000E+00  0.00000000E+00
  0.00000000E+00  0.00000000E+00  0.00000000E+00
  0.00000000E+00  0.00000000E+00  0.00000000E+00
  0.00000000E+00  0.00000000E+00  0.00000000E+00
  0.00000000E+00  0.00000000E+00  0.00000000E+00
  0.00000000E+00  0.00000000E+00  0.00000000E+00
  0.00000000E+00  0.00000000E+00  0.00000000E+00
  0.00000000E+00  0.00000000E+00  0.00000000E+00
  0.00000000E+00  0.00000000E+00  0.00000000E+00
  0.00000000E+00  0.00000000E+00  0.00000000E+00
  0.00000000E+00  0.00000000E+00  0.00000000E+00
  0.00000000E+00  0.00000000E+00  0.00000000E+00
  0.00000000E+00  0.00000000E+00  0.00000000E+00
  0.00000000E+00  0.00000000E+00  0.00000000E+00
  0.00000000E+00  0.00000000E+00  0.00000000E+00
  0.00000000E+00  0.00000000E+00  0.00000000E+00
  0.00000000E+00  0.00000000E+00  0.00000000E+00
  0.00000000E+00  0.00000000E+00  0.00000000E+00
  0.00000000E+00  0.00000000E+00  0.00000000E+00
  0.00000000E+00  0.00000000E+00  0.00000000E+00
  0.00000000E+00  0.00000000E+00  0.00000000E+00
  0.00000000E+00  0.00000000E+00  0.00000000E+00
  0.00000000E+00  0.00000000E+00  0.00000000E+00
  0.00000000E+00  0.00000000E+00  0.00000000E+00
  0.00000000E+00  0.00000000E+00  0.00000000E+00
  0.00000000E+00  0.00000000E+00  0.00000000E+00
  0.00000000E+00  0.00000000E+00  0.00000000E+00
  0.00000000E+00  0.00000000E+00  0.00000000E+00
