Li Ge Cl                                
   1.00000000000000     
    10.4025020000000001  -10.4025020000000001    0.0000000000000000
    10.4025020000000001   10.4025020000000001    0.0000000000000000
     0.0000000000000000    0.0000000000000000   20.8050029999999992
   Li   Ge   Cl
    32    32    96
Direct
  0.9826722001448686  0.9767472300177706  0.1002187488961717
  0.9683602453546882  0.9181229671186523  0.3277186430507250
  0.9024423979621941  0.0274216354082350  0.5025784366470680
  0.0477409015878132  0.0382607080805524  0.7528338233669603
  0.4080222528258525  0.1572826734705222  0.0136891519915915
  0.3817494037816257  0.1080879174337695  0.2414038523444136
  0.5136450344602779  0.9591534766816703  0.6382359406499524
  0.5316096699922660  0.0067108376167905  0.8315516957599969
  0.1332118245408217  0.2282757297616706  0.0456643387665382
  0.1332724985889491  0.1283310771211468  0.2273580039580704
  0.2347097558675465  0.1983992352271854  0.4319761416011114
  0.1838998615785600  0.3536451502747166  0.7246240453117487
  0.0536729155037060  0.4774608876663624  0.0561304358337743
  0.0939369770638485  0.4208527390069254  0.2183762486714863
  0.9495787198459189  0.4501067976666115  0.4138408103828798
  0.0731256664213940  0.5720058258933908  0.8693333185618820
  0.6683375128532238  0.3045683399184192  0.0150013701538668
  0.6918711901214002  0.1379366675547938  0.1980605371237829
  0.6751705107607014  0.2285963496071734  0.5864140731441724
  0.8520352198257511  0.3113806500316870  0.7461033475144440
  0.5865060285659724  0.5988956783742210  0.9629616522743611
  0.4040766804479979  0.4666654260403118  0.2923369259485597
  0.5277335055554152  0.3907656991482690  0.5187925855687024
  0.4395362120853738  0.5487661058667914  0.6428002484954667
  0.1563188830262845  0.7417617039436899  0.0340733808733994
  0.4855467251102851  0.6458543767887555  0.2096003028968716
  0.2916162715616001  0.7743868783968161  0.5312346903762901
  0.2301117210716306  0.8529236217628722  0.8184242224661371
  0.7468375237201250  0.7423510835465141  0.0409121227377101
  0.7682554396110506  0.6418022739993853  0.2881148679356784
  0.6387466999550504  0.8016511657963712  0.4783254418716638
  0.8243215735395744  0.6093888560246901  0.7362452268049978
  0.9439850667377703  0.2401635696628188  0.1516067892708275
  0.9460520571722446  0.1540023393467293  0.3708435653656717
  0.0376370797660415  0.2566211843182040  0.6153641978673677
  0.0301338926435920  0.3155416326997482  0.8948325226803472
  0.5377335236057686  0.3009637475322554  0.1606737799126873
  0.4520297454076325  0.2204526013227809  0.3921452563357875
  0.4628085550631666  0.1864179284988181  0.6960327857763271
  0.5320516126309321  0.2669109576495510  0.8922977663689939
  0.2804502406808310  0.4861215962324266  0.0900412009482456
  0.1924886494801116  0.4629786410735490  0.3734018067689633
  0.2513666382864198  0.5511271819076637  0.5737718589678632
  0.3142253083595865  0.4614307394425990  0.8175601204241574
  0.9761762426035110  0.7586488553783304  0.1715846350351866
  0.9065461226994158  0.6976322625369100  0.4228082053981648
  0.9846569488611971  0.6254669773349762  0.5638115489150766
  0.9982145727741557  0.7879162527463536  0.8606062912402840
  0.7877204311293475  0.4966078538433972  0.1251800240306629
  0.6932686397276764  0.3765319854406786  0.4053679905372167
  0.7128265810670565  0.4547856734867708  0.6366873874912514
  0.7955911192700775  0.5428391210275312  0.9122622557497743
  0.4770151746748659  0.7634808125893934  0.0707025624520354
  0.4926477833182177  0.7488330769260356  0.3461141731398724
  0.6201131485210797  0.7219195216143838  0.6410750193720568
  0.4768663751972930  0.7386475927164401  0.8378627901451847
  0.2574036985951966  0.9920233401124435  0.0781589275295526
  0.2241415343628290  0.9297246754174701  0.3672590764190995
  0.2490629225686766  0.9978029273028747  0.5834719292427026
  0.2213092535395422  0.0772494603247783  0.8635537664126436
  0.7468245830967053  0.9725553237322302  0.0969355417565978
  0.6078339038683455  0.0313711466814372  0.3439694752970175
  0.7774938464388490  0.9738652246981009  0.6297850355556879
  0.8149174516991770  0.0583203094652807  0.8313743300248295
  0.9924220325680864  0.2498699411925744  0.9948987600561129
  0.0371168104340757  0.2746533769019489  0.2446829609161718
  0.0079528975125653  0.1420950042667021  0.4748709557064970
  0.0195650658681713  0.3172233137804091  0.7229238783700052
  0.5006093308797125  0.2947795387468850  0.0126140356032719
  0.5938881892587622  0.2322624944994028  0.2599412362314129
  0.3710277431372732  0.2297866031523965  0.4897728234008960
  0.5820591962788707  0.2130368226317890  0.7675251454247777
  0.2819064948142909  0.4685302163220969  0.9822024094406128
  0.2478789716881921  0.4198839541513090  0.2680550776605864
  0.2214154366731091  0.6391170152262072  0.4823038394390238
  0.3505148824420596  0.4433846047000622  0.7065138205707158
  0.0123119191280352  0.8178214349169162  0.0664784061865679
  0.8607113648715045  0.7754018266654317  0.3260946992462556
  0.0258600548110366  0.4857369328915819  0.5121662963091417
  0.0910660988259512  0.7900588896201274  0.7726786565792296
  0.8519176695719587  0.6345444082731324  0.9986262189640887
  0.7573067840471367  0.4934007700676959  0.2348143298263900
  0.6635757008407720  0.4795249183338237  0.4888429853747991
  0.7531875324721582  0.4533024777532316  0.7517025281648927
  0.4439267046246723  0.6524467820931376  0.9353498440004853
  0.5063792193493274  0.8052716940425800  0.1771490057932062
  0.5213298007798975  0.6951565992414583  0.4507483797188683
  0.5681976267016758  0.5903012161677113  0.7002596215754905
  0.2515830060354060  0.1661640884226019  0.9934282040873540
  0.2547004550905468  0.0263195224948544  0.1995194935773056
  0.2232904167878182  0.0344503774019395  0.4637191762239785
  0.2073373079274795  0.9951232247872098  0.7585243245342262
  0.8688299966012993  0.0294327682534568  0.0334663170688052
  0.6746563581490762  0.9940527944483949  0.2458086737784430
  0.6476018924725832  0.9073899407554914  0.5671877982869412
  0.8147785923742920  0.1496055475768819  0.7374082824648442
  0.0618187320539135  0.1186337937897683  0.1240194435510582
  0.0684708939213741  0.0650129011990913  0.3211987581326521
  0.0468063059775078  0.1009287473077394  0.6454656730530830
  0.0638011595935089  0.1178965941800296  0.8551208480947314
  0.6562449563667984  0.1080542803707413  0.0884909284083674
  0.4568754242738055  0.0009501881125075  0.3096711135108015
  0.5553680386379026  0.1200407363178417  0.6131323056992359
  0.6778157181483248  0.2175753885076092  0.9193666212496899
  0.4952873044157389  0.4475193640764020  0.2012130483381963
  0.4565329613524787  0.3832425016199607  0.3831106392363590
  0.4099737771584834  0.4943765363184663  0.5384626976939080
  0.2717718693325792  0.3056318709365052  0.8194971284886294
  0.1539851995195277  0.5975753251343334  0.0922416961563676
  0.0518676916071447  0.5051374868250328  0.3244546940940681
  0.1019174454464302  0.6315155906638708  0.6368778690759629
  0.1161011650912283  0.7052207036159949  0.9242846892445165
  0.9509470159260550  0.4794276001205046  0.1451133812521284
  0.8438201997264404  0.3298603637149239  0.4338397299145638
  0.8028425906839861  0.3217090507374625  0.6209848639150369
  0.0181314532701007  0.4710882426616460  0.9464873873720344
  0.6145571536024931  0.6615784423963046  0.0672000557535010
  0.6094115422795642  0.6566520426283958  0.2926315566738246
  0.7501182515263419  0.7456263460182115  0.7051131695377225
  0.6892158123515479  0.6548891888298324  0.8819286472651043
  0.4130253045230252  0.0128260781511465  0.0698235267497996
  0.3198743361218949  0.8254940612030114  0.4160027711712564
  0.3889672491062875  0.9215738710215504  0.5648475909331691
  0.4558848597741587  0.8838425904674383  0.8851549262973686
  0.9659330659900305  0.9128530386751446  0.2079742659330023
  0.7828838449069278  0.7286216380926011  0.4887157275058250
  0.8986552245096854  0.9055874858074795  0.5749797379457046
  0.9142434680737040  0.9492429355308002  0.7786870503340303
  0.8551943599105252  0.1405979874508459  0.2130361310163569
  0.8611660391866532  0.0142904061002837  0.3882204084322681
  0.7825120829147734  0.1011961626229127  0.5573513368358014
  0.8788183069732133  0.3186102165540553  0.8627178800302002
  0.3928556704295444  0.2327297759664934  0.1663887292901420
  0.3106716509635435  0.1954414991757938  0.3299827852027719
  0.4389232552692117  0.0339418856360272  0.7347237851193542
  0.4642703822928946  0.1205894486114094  0.9043173560972522
  0.1485043988792272  0.3649458546114880  0.1084950163057047
  0.1306645934581445  0.3205687851190047  0.4068348669710187
  0.1960821925590966  0.2842610898902958  0.6208415283889110
  0.1620424398157621  0.5031858945582426  0.7881679712560516
  0.8195436045897723  0.7405403482941645  0.1533521991376319
  0.8371474602551149  0.5618440359571760  0.3819429447742819
  0.8892027966390081  0.5505509151369073  0.6393259131426053
  0.9335855998218616  0.6398766079566431  0.8240219238483938
  0.7586977145652183  0.3345835977246077  0.1116101494909015
  0.6241837300440319  0.2562325060618581  0.4701542312893089
  0.5744802268179882  0.3569941657917974  0.6292000750759084
  0.6730522477233118  0.4620892067761341  0.9732206831439701
  0.3975995825649103  0.6300305739944595  0.1097843530430525
  0.3846663492292814  0.6268106275668971  0.3021983780462753
  0.3343747670550345  0.6735981474187236  0.6228303691380520
  0.3249422604873132  0.7251870007414447  0.8015057240683527
  0.2696691676120465  0.8287468337102155  0.0878652419029183
  0.0893101244755975  0.8459131636718200  0.3873550158263497
  0.1673713199736890  0.8658287768850075  0.5775441708928551
  0.1942725938794823  0.9369321730963663  0.9176006306501572
  0.6841848091708470  0.8866234886597476  0.0122437750916256
  0.6355230777106632  0.8798859904501343  0.3804026565936836
  0.5261319309164755  0.8210182170239320  0.6994680719205769
  0.6848429683498660  0.9724442536636265  0.8050397224015557
 
  0.00000000E+00  0.00000000E+00  0.00000000E+00
  0.00000000E+00  0.00000000E+00  0.00000000E+00
  0.00000000E+00  0.00000000E+00  0.00000000E+00
  0.00000000E+00  0.00000000E+00  0.00000000E+00
  0.00000000E+00  0.00000000E+00  0.00000000E+00
  0.00000000E+00  0.00000000E+00  0.00000000E+00
  0.00000000E+00  0.00000000E+00  0.00000000E+00
  0.00000000E+00  0.00000000E+00  0.00000000E+00
  0.00000000E+00  0.00000000E+00  0.00000000E+00
  0.00000000E+00  0.00000000E+00  0.00000000E+00
  0.00000000E+00  0.00000000E+00  0.00000000E+00
  0.00000000E+00  0.00000000E+00  0.00000000E+00
  0.00000000E+00  0.00000000E+00  0.00000000E+00
  0.00000000E+00  0.00000000E+00  0.00000000E+00
  0.00000000E+00  0.00000000E+00  0.00000000E+00
  0.00000000E+00  0.00000000E+00  0.00000000E+00
  0.00000000E+00  0.00000000E+00  0.00000000E+00
  0.00000000E+00  0.00000000E+00  0.00000000E+00
  0.00000000E+00  0.00000000E+00  0.00000000E+00
  0.00000000E+00  0.00000000E+00  0.00000000E+00
  0.00000000E+00  0.00000000E+00  0.00000000E+00
  0.00000000E+00  0.00000000E+00  0.00000000E+00
  0.00000000E+00  0.00000000E+00  0.00000000E+00
  0.00000000E+00  0.00000000E+00  0.00000000E+00
  0.00000000E+00  0.00000000E+00  0.00000000E+00
  0.00000000E+00  0.00000000E+00  0.00000000E+00
  0.00000000E+00  0.00000000E+00  0.00000000E+00
  0.00000000E+00  0.00000000E+00  0.00000000E+00
  0.00000000E+00  0.00000000E+00  0.00000000E+00
  0.00000000E+00  0.00000000E+00  0.00000000E+00
  0.00000000E+00  0.00000000E+00  0.00000000E+00
  0.00000000E+00  0.00000000E+00  0.00000000E+00
  0.00000000E+00  0.00000000E+00  0.00000000E+00
  0.00000000E+00  0.00000000E+00  0.00000000E+00
  0.00000000E+00  0.00000000E+00  0.00000000E+00
  0.00000000E+00  0.00000000E+00  0.00000000E+00
  0.00000000E+00  0.00000000E+00  0.00000000E+00
  0.00000000E+00  0.00000000E+00  0.00000000E+00
  0.00000000E+00  0.00000000E+00  0.00000000E+00
  0.00000000E+00  0.00000000E+00  0.00000000E+00
  0.00000000E+00  0.00000000E+00  0.00000000E+00
  0.00000000E+00  0.00000000E+00  0.00000000E+00
  0.00000000E+00  0.00000000E+00  0.00000000E+00
  0.00000000E+00  0.00000000E+00  0.00000000E+00
  0.00000000E+00  0.00000000E+00  0.00000000E+00
  0.00000000E+00  0.00000000E+00  0.00000000E+00
  0.00000000E+00  0.00000000E+00  0.00000000E+00
  0.00000000E+00  0.00000000E+00  0.00000000E+00
  0.00000000E+00  0.00000000E+00  0.00000000E+00
  0.00000000E+00  0.00000000E+00  0.00000000E+00
  0.00000000E+00  0.00000000E+00  0.00000000E+00
  0.00000000E+00  0.00000000E+00  0.00000000E+00
  0.00000000E+00  0.00000000E+00  0.00000000E+00
  0.00000000E+00  0.00000000E+00  0.00000000E+00
  0.00000000E+00  0.00000000E+00  0.00000000E+00
  0.00000000E+00  0.00000000E+00  0.00000000E+00
  0.00000000E+00  0.00000000E+00  0.00000000E+00
  0.00000000E+00  0.00000000E+00  0.00000000E+00
  0.00000000E+00  0.00000000E+00  0.00000000E+00
  0.00000000E+00  0.00000000E+00  0.00000000E+00
  0.00000000E+00  0.00000000E+00  0.00000000E+00
  0.00000000E+00  0.00000000E+00  0.00000000E+00
  0.00000000E+00  0.00000000E+00  0.00000000E+00
  0.00000000E+00  0.00000000E+00  0.00000000E+00
  0.00000000E+00  0.00000000E+00  0.00000000E+00
  0.00000000E+00  0.00000000E+00  0.00000000E+00
  0.00000000E+00  0.00000000E+00  0.00000000E+00
  0.00000000E+00  0.00000000E+00  0.00000000E+00
  0.00000000E+00  0.00000000E+00  0.00000000E+00
  0.00000000E+00  0.00000000E+00  0.00000000E+00
  0.00000000E+00  0.00000000E+00  0.00000000E+00
  0.00000000E+00  0.00000000E+00  0.00000000E+00
  0.00000000E+00  0.00000000E+00  0.00000000E+00
  0.00000000E+00  0.00000000E+00  0.00000000E+00
  0.00000000E+00  0.00000000E+00  0.00000000E+00
  0.00000000E+00  0.00000000E+00  0.00000000E+00
  0.00000000E+00  0.00000000E+00  0.00000000E+00
  0.00000000E+00  0.00000000E+00  0.00000000E+00
  0.00000000E+00  0.00000000E+00  0.00000000E+00
  0.00000000E+00  0.00000000E+00  0.00000000E+00
  0.00000000E+00  0.00000000E+00  0.00000000E+00
  0.00000000E+00  0.00000000E+00  0.00000000E+00
  0.00000000E+00  0.00000000E+00  0.00000000E+00
  0.00000000E+00  0.00000000E+00  0.00000000E+00
  0.00000000E+00  0.00000000E+00  0.00000000E+00
  0.00000000E+00  0.00000000E+00  0.00000000E+00
  0.00000000E+00  0.00000000E+00  0.00000000E+00
  0.00000000E+00  0.00000000E+00  0.00000000E+00
  0.00000000E+00  0.00000000E+00  0.00000000E+00
  0.00000000E+00  0.00000000E+00  0.00000000E+00
  0.00000000E+00  0.00000000E+00  0.00000000E+00
  0.00000000E+00  0.00000000E+00  0.00000000E+00
  0.00000000E+00  0.00000000E+00  0.00000000E+00
  0.00000000E+00  0.00000000E+00  0.00000000E+00
  0.00000000E+00  0.00000000E+00  0.00000000E+00
  0.00000000E+00  0.00000000E+00  0.00000000E+00
  0.00000000E+00  0.00000000E+00  0.00000000E+00
  0.00000000E+00  0.00000000E+00  0.00000000E+00
  0.00000000E+00  0.00000000E+00  0.00000000E+00
  0.00000000E+00  0.00000000E+00  0.00000000E+00
  0.00000000E+00  0.00000000E+00  0.00000000E+00
  0.00000000E+00  0.00000000E+00  0.00000000E+00
  0.00000000E+00  0.00000000E+00  0.00000000E+00
  0.00000000E+00  0.00000000E+00  0.00000000E+00
  0.00000000E+00  0.00000000E+00  0.00000000E+00
  0.00000000E+00  0.00000000E+00  0.00000000E+00
  0.00000000E+00  0.00000000E+00  0.00000000E+00
  0.00000000E+00  0.00000000E+00  0.00000000E+00
  0.00000000E+00  0.00000000E+00  0.00000000E+00
  0.00000000E+00  0.00000000E+00  0.00000000E+00
  0.00000000E+00  0.00000000E+00  0.00000000E+00
  0.00000000E+00  0.00000000E+00  0.00000000E+00
  0.00000000E+00  0.00000000E+00  0.00000000E+00
  0.00000000E+00  0.00000000E+00  0.00000000E+00
  0.00000000E+00  0.00000000E+00  0.00000000E+00
  0.00000000E+00  0.00000000E+00  0.00000000E+00
  0.00000000E+00  0.00000000E+00  0.00000000E+00
  0.00000000E+00  0.00000000E+00  0.00000000E+00
  0.00000000E+00  0.00000000E+00  0.00000000E+00
  0.00000000E+00  0.00000000E+00  0.00000000E+00
  0.00000000E+00  0.00000000E+00  0.00000000E+00
  0.00000000E+00  0.00000000E+00  0.00000000E+00
  0.00000000E+00  0.00000000E+00  0.00000000E+00
  0.00000000E+00  0.00000000E+00  0.00000000E+00
  0.00000000E+00  0.00000000E+00  0.00000000E+00
  0.00000000E+00  0.00000000E+00  0.00000000E+00
  0.00000000E+00  0.00000000E+00  0.00000000E+00
  0.00000000E+00  0.00000000E+00  0.00000000E+00
  0.00000000E+00  0.00000000E+00  0.00000000E+00
  0.00000000E+00  0.00000000E+00  0.00000000E+00
  0.00000000E+00  0.00000000E+00  0.00000000E+00
  0.00000000E+00  0.00000000E+00  0.00000000E+00
  0.00000000E+00  0.00000000E+00  0.00000000E+00
  0.00000000E+00  0.00000000E+00  0.00000000E+00
  0.00000000E+00  0.00000000E+00  0.00000000E+00
  0.00000000E+00  0.00000000E+00  0.00000000E+00
  0.00000000E+00  0.00000000E+00  0.00000000E+00
  0.00000000E+00  0.00000000E+00  0.00000000E+00
  0.00000000E+00  0.00000000E+00  0.00000000E+00
  0.00000000E+00  0.00000000E+00  0.00000000E+00
  0.00000000E+00  0.00000000E+00  0.00000000E+00
  0.00000000E+00  0.00000000E+00  0.00000000E+00
  0.00000000E+00  0.00000000E+00  0.00000000E+00
  0.00000000E+00  0.00000000E+00  0.00000000E+00
  0.00000000E+00  0.00000000E+00  0.00000000E+00
  0.00000000E+00  0.00000000E+00  0.00000000E+00
  0.00000000E+00  0.00000000E+00  0.00000000E+00
  0.00000000E+00  0.00000000E+00  0.00000000E+00
  0.00000000E+00  0.00000000E+00  0.00000000E+00
  0.00000000E+00  0.00000000E+00  0.00000000E+00
  0.00000000E+00  0.00000000E+00  0.00000000E+00
  0.00000000E+00  0.00000000E+00  0.00000000E+00
  0.00000000E+00  0.00000000E+00  0.00000000E+00
  0.00000000E+00  0.00000000E+00  0.00000000E+00
  0.00000000E+00  0.00000000E+00  0.00000000E+00
  0.00000000E+00  0.00000000E+00  0.00000000E+00
  0.00000000E+00  0.00000000E+00  0.00000000E+00
  0.00000000E+00  0.00000000E+00  0.00000000E+00
  0.00000000E+00  0.00000000E+00  0.00000000E+00
  0.00000000E+00  0.00000000E+00  0.00000000E+00
