Tl Hg Br                                
   1.00000000000000     
    11.2040710000000008  -11.2040710000000008    0.0000000000000000
    11.2040710000000008   11.2040710000000008    0.0000000000000000
     0.0000000000000000    0.0000000000000000   22.4081420000000016
   Br   Hg   Tl
    96    32    32
Direct
  0.0045828881176212  0.2951412455595519  0.0350313075500285
  0.0844503374275188  0.2815849861794881  0.2543859766462590
  0.8985977817789159  0.2278386081230346  0.4950652933067057
  0.0432930694241370  0.2007982111040476  0.7506382647148980
  0.4121351967237883  0.2726335015743115  0.0026488608537082
  0.5443592029404121  0.1779543161776583  0.2521950144554711
  0.5002096142285488  0.3169785976100621  0.5144586417915411
  0.4449672435658559  0.2205454332656613  0.7271135668912015
  0.3393465087103167  0.5686452595537885  0.9893101245754362
  0.2305125787975084  0.4748775755394539  0.2702418457666474
  0.3028882647553086  0.4808710860881846  0.4879970377420592
  0.1599848000551750  0.4394313720731239  0.7556202168736804
  0.0725550595771406  0.8753747891188699  0.0075170329193730
  0.0130771267973366  0.7129127387622177  0.2569498570605198
  0.9959961149378037  0.8016183493866670  0.4721162558339699
  0.0292049901644534  0.6772840216230552  0.7715412389982645
  0.7956340997029178  0.4740048679705711  0.0259807484544846
  0.7695187885246679  0.5768887827464543  0.2397536476342703
  0.7239103884440294  0.4682129772217553  0.5187596989512122
  0.7418015550588360  0.5545416358577538  0.7332729526205156
  0.4610328291941529  0.7737227812507121  0.9673500770624973
  0.5881273858006469  0.7471083890370067  0.2379959602222469
  0.3932669673575409  0.7250907991733727  0.4749019470536042
  0.5196451501955240  0.7365972759098419  0.7504971262204010
  0.2833180665411211 -0.0002090653880566  0.9934744777149064
  0.2881885952259188  0.0890735763569085  0.2711779737590946
  0.2005325332126231  0.9377890064662384  0.4980751643824181
  0.2341412787228954  0.0095579094955048  0.7097313054519009
  0.8143090157363689  0.0479914784468085  0.0036936540610454
  0.7143575437174955  0.9945490054809297  0.2127405955008514
  0.7809507208539183  0.9740359043901393  0.4922674579333216
  0.6460738181801042  0.9671064691823081  0.7529659270790953
  0.1630418001112387  0.1465493119725068  0.1264702926475059
  0.1055966103345533  0.1536163512150451  0.3932812138790257
  0.0535773260244733  0.0872308509657687  0.5961837536744991
  0.0586093962223935  0.1102658669681586  0.9232011848829496
  0.6203113327175803  0.1532569415129319  0.0660874399383560
  0.6461949096857504  0.1662163205806324  0.4176970248338228
  0.5851266361694987  0.1041521291677088  0.6089036412795690
  0.5367634709031663  0.1093568513007357  0.8671792035283840
  0.4531870259245927  0.3858364808815649  0.1475959301210611
  0.3847596571200168  0.3149252590154318  0.3526613473820132
  0.3622086525678978  0.4225045391542451  0.6483562957667071
  0.4174761000378184  0.3902732245874250  0.8476763176468489
  0.1320267508654523  0.6645977959962783  0.1171545456918358
  0.1587312847321952  0.6510838631580137  0.3884309426601025
  0.0895963003120958  0.5732462486503059  0.6031593585878934
  0.1313547730131604  0.6622715595429550  0.9284369884060241
  0.9683613770417228  0.4649289523810670  0.1631148312334829
  0.8750952691511467  0.3474689533743371  0.3264399016022428
  0.8714226620402848  0.3381229808203117  0.6533434439483902
  0.9267495819720573  0.3761815230195534  0.8698486797363154
  0.6052775182320524  0.5992785624420834  0.0818589841966300
  0.6281885898284354  0.6857232189735180  0.4154592873965341
  0.5526725914520247  0.6176387651720080  0.6066887025112780
  0.5986713156443887  0.5908695850152755  0.8828271089590859
  0.4318654762370963  0.8594563735755121  0.1103895134825351
  0.3850411361236227  0.8431063880750413  0.3147983733213305
  0.4216289253753960  0.9034395538276236  0.6066030171240974
  0.3619964483207821  0.8925352796669818  0.8283446452949715
  0.9446601845437342  0.9149539258524152  0.1625807943304014
  0.8177343199871812  0.8046726444923926  0.3428445910835963
  0.8536983926460200  0.8529912857260062  0.7166244439373325
  0.8700209956198848  0.8290437215570144  0.8981752060792428
  0.8869982161494099  0.1657699719069228  0.1609200672469017
  0.8854706836262491  0.0667699360269102  0.3377699273454463
  0.8189240650309806  0.0973675985322830  0.6534699955487253
  0.8246107489773524  0.1195414192317056  0.8372011435577017
  0.4145437051642376  0.0948359584873376  0.1171319159835306
  0.3987061215193242  0.0659641666717735  0.4294491906329533
  0.3129073021652232  0.1615954991999959  0.5788667169252566
  0.2757407368766231  0.1588214680074527  0.8489437815819868
  0.1990965561839044  0.3991206929237023  0.1029269056415321
  0.0874880481924327  0.4098814702724334  0.4245855000529191
  0.1234781336155262  0.3326416846935035  0.5882926809060044
  0.1602994462175039  0.4003790974682518  0.9272044729791994
  0.8898876174738974  0.6773362552352827  0.0762323526941360
  0.8858551128000822  0.5799350163126041  0.4095851210364657
  0.8734937144516005  0.6405639786374341  0.5956142402132409
  0.8495750799872298  0.5891482534521533  0.8723190521110963
  0.7097435959799252  0.3456651057932774  0.1684473209824115
  0.6274648116230206  0.4232658677135855  0.3531436613249183
  0.6180724338953500  0.3605474305226465  0.6704487267607164
  0.6677070027837795  0.3353717541420266  0.8953624802485451
  0.3787041104621789  0.6280599174195570  0.1685068344245098
  0.4287689016858139  0.5831726125625857  0.3369568702467478
  0.3009990980065452  0.6741240834867651  0.6471536854986291
  0.3327868059739983  0.6141927393895050  0.8145368199647242
  0.1993454584039633  0.8817123061377757  0.1626028039144770
  0.1495918345312215  0.9059310848705057  0.3392993775378071
  0.0823206086602108  0.8400316399196599  0.6331698054809531
  0.1063373401113335  0.9122857999120494  0.8401497478951310
  0.6824376993915279  0.8452461588740402  0.0765374406806051
  0.6014541711704656  0.9414200329931817  0.3565492495038761
  0.6600320596725250  0.8317631193698692  0.6003119919987383
  0.6470957894548235  0.8826715120678226  0.9118677416788254
  0.0109543242627581  0.2909005717035242  0.1515573248515675
  0.9889407224806578  0.2744878889399515  0.3979252733265821
  0.9879389100003252  0.2326855862925781  0.6212912120357941
  0.0019984747537068  0.2366703193459183  0.8674517334440153
  0.5534706019288285  0.2561497006465824  0.1437207615571982
  0.5093083726646843  0.2279965725639249  0.3829783658580810
  0.4688608922185762  0.2420782100287999  0.6137816903453454
  0.4313060194203771  0.2314667885611135  0.8887654843132984
  0.3020730811800952  0.5222447114051938  0.1007732832739626
  0.2707393457105055  0.5157628928520638  0.3786621126870041
  0.2203374356647922  0.4978735815602740  0.6435756189165326
  0.2551601317950779  0.4942964315769884  0.8660264937000871
  0.0149702677460599  0.7879300214278979  0.1036541681882675
  0.9958889724371564  0.7621145134027193  0.3631678195745405
  0.9620882593678283  0.7331763934966702  0.6687581484434632
  0.0149885128762773  0.7652842481936128  0.9052104579961308
  0.7970458583821577  0.4990627273001633  0.1401814091953890
  0.7671491668421399  0.4924445109207098  0.3689817594622897
  0.7128843494212447  0.4997913205887648  0.6292565438978399
  0.7387781317858974  0.4749822794488431  0.8823644699873916
  0.5414787924269705  0.7397400784950160  0.1187532634892641
  0.5000226613220738  0.7467634704860054  0.3602014368921991
  0.4392209346963465  0.7379277959528745  0.5907548663847787
  0.4788599607570372  0.7445626013960215  0.8586769112438677
  0.2811426204007873  0.0189618094577293  0.1528526882522183
  0.2828021096594195  0.9840980733127954  0.3757352967804621
  0.2498892931631063  0.9981439423438593  0.5967519342344476
  0.2434001123056870  0.9938265129382841  0.8789300047336213
  0.7553234075863962  0.0086199041247816  0.1044122569950134
  0.7634860683345113  0.9646761788859206  0.3692950119793555
  0.7388121347829449  0.9592489376932903  0.6411365579560284
  0.7323448613687641 -0.0009313900008916  0.8658899908028186
  0.0051901671598114  0.0565898642258877  0.0611775438895781
  0.0755230997051890  0.0692444113024755  0.2566254888338667
  0.9804214240403513  0.0253260120533234  0.4683441748056801
  0.0054210625129734  0.0000960917187795  0.7236798181353870
  0.4882434806718031  0.9887976681015506  0.9975889741546603
  0.5065244813174545  0.9755563778735060  0.2290192596879878
  0.5629488349931318  0.9699958844560815  0.5032852635489133
  0.4504147961701474  0.0125781918942195  0.7311013801994952
  0.2161867784671257  0.2216653230446168  0.9948078634973386
  0.2881186316039129  0.2817693865431032  0.2140049074719783
  0.2425295617885715  0.2805542621497238  0.4716775494495480
  0.2346391130977886  0.2533047192256613  0.7062532477932539
  0.0288591633268010  0.5180833415598938  0.0295061717950473
  0.0303596575169569  0.5035020236251405  0.3019865953768006
  0.9580314862470400  0.4493463509305345  0.5345527279040552
  0.9646541134702536  0.4863406556566116  0.7477543144736921
  0.7938007953194698  0.2632851325994366  0.0427477158962985
  0.7522755764852126  0.1990489161471769  0.2710431416873494
  0.7041281761768967  0.2553893347515302  0.5534309645357481
  0.6594863822724586  0.1799717062536027  0.7433660153706502
  0.5073015592424472  0.4557947552836324  0.9755309185994946
  0.5563290050984000  0.5343836337391410  0.2276967143919299
  0.5055430630839735  0.5346956956242152  0.4725651220045169
  0.5034141944843767  0.5170293647719093  0.7411503899762359
  0.2566493951040186  0.7814618077666488  0.0304499177390302
  0.2291574610368642  0.7155211380469967  0.2573818731517589
  0.1916084314687137  0.7256602479955350  0.5244750959887101
  0.2098980164888993  0.7873932664693756  0.7487051328632301
  0.7366177607865965  0.6995539065350790  0.9836847856715717
  0.7884384494242612  0.7803572724157193  0.1979644519376188
  0.7879344561546969  0.7647181832658310  0.4916036975655044
  0.7222443018736154  0.7472690624182501  0.7954795529597565
 
  0.00000000E+00  0.00000000E+00  0.00000000E+00
  0.00000000E+00  0.00000000E+00  0.00000000E+00
  0.00000000E+00  0.00000000E+00  0.00000000E+00
  0.00000000E+00  0.00000000E+00  0.00000000E+00
  0.00000000E+00  0.00000000E+00  0.00000000E+00
  0.00000000E+00  0.00000000E+00  0.00000000E+00
  0.00000000E+00  0.00000000E+00  0.00000000E+00
  0.00000000E+00  0.00000000E+00  0.00000000E+00
  0.00000000E+00  0.00000000E+00  0.00000000E+00
  0.00000000E+00  0.00000000E+00  0.00000000E+00
  0.00000000E+00  0.00000000E+00  0.00000000E+00
  0.00000000E+00  0.00000000E+00  0.00000000E+00
  0.00000000E+00  0.00000000E+00  0.00000000E+00
  0.00000000E+00  0.00000000E+00  0.00000000E+00
  0.00000000E+00  0.00000000E+00  0.00000000E+00
  0.00000000E+00  0.00000000E+00  0.00000000E+00
  0.00000000E+00  0.00000000E+00  0.00000000E+00
  0.00000000E+00  0.00000000E+00  0.00000000E+00
  0.00000000E+00  0.00000000E+00  0.00000000E+00
  0.00000000E+00  0.00000000E+00  0.00000000E+00
  0.00000000E+00  0.00000000E+00  0.00000000E+00
  0.00000000E+00  0.00000000E+00  0.00000000E+00
  0.00000000E+00  0.00000000E+00  0.00000000E+00
  0.00000000E+00  0.00000000E+00  0.00000000E+00
  0.00000000E+00  0.00000000E+00  0.00000000E+00
  0.00000000E+00  0.00000000E+00  0.00000000E+00
  0.00000000E+00  0.00000000E+00  0.00000000E+00
  0.00000000E+00  0.00000000E+00  0.00000000E+00
  0.00000000E+00  0.00000000E+00  0.00000000E+00
  0.00000000E+00  0.00000000E+00  0.00000000E+00
  0.00000000E+00  0.00000000E+00  0.00000000E+00
  0.00000000E+00  0.00000000E+00  0.00000000E+00
  0.00000000E+00  0.00000000E+00  0.00000000E+00
  0.00000000E+00  0.00000000E+00  0.00000000E+00
  0.00000000E+00  0.00000000E+00  0.00000000E+00
  0.00000000E+00  0.00000000E+00  0.00000000E+00
  0.00000000E+00  0.00000000E+00  0.00000000E+00
  0.00000000E+00  0.00000000E+00  0.00000000E+00
  0.00000000E+00  0.00000000E+00  0.00000000E+00
  0.00000000E+00  0.00000000E+00  0.00000000E+00
  0.00000000E+00  0.00000000E+00  0.00000000E+00
  0.00000000E+00  0.00000000E+00  0.00000000E+00
  0.00000000E+00  0.00000000E+00  0.00000000E+00
  0.00000000E+00  0.00000000E+00  0.00000000E+00
  0.00000000E+00  0.00000000E+00  0.00000000E+00
  0.00000000E+00  0.00000000E+00  0.00000000E+00
  0.00000000E+00  0.00000000E+00  0.00000000E+00
  0.00000000E+00  0.00000000E+00  0.00000000E+00
  0.00000000E+00  0.00000000E+00  0.00000000E+00
  0.00000000E+00  0.00000000E+00  0.00000000E+00
  0.00000000E+00  0.00000000E+00  0.00000000E+00
  0.00000000E+00  0.00000000E+00  0.00000000E+00
  0.00000000E+00  0.00000000E+00  0.00000000E+00
  0.00000000E+00  0.00000000E+00  0.00000000E+00
  0.00000000E+00  0.00000000E+00  0.00000000E+00
  0.00000000E+00  0.00000000E+00  0.00000000E+00
  0.00000000E+00  0.00000000E+00  0.00000000E+00
  0.00000000E+00  0.00000000E+00  0.00000000E+00
  0.00000000E+00  0.00000000E+00  0.00000000E+00
  0.00000000E+00  0.00000000E+00  0.00000000E+00
  0.00000000E+00  0.00000000E+00  0.00000000E+00
  0.00000000E+00  0.00000000E+00  0.00000000E+00
  0.00000000E+00  0.00000000E+00  0.00000000E+00
  0.00000000E+00  0.00000000E+00  0.00000000E+00
  0.00000000E+00  0.00000000E+00  0.00000000E+00
  0.00000000E+00  0.00000000E+00  0.00000000E+00
  0.00000000E+00  0.00000000E+00  0.00000000E+00
  0.00000000E+00  0.00000000E+00  0.00000000E+00
  0.00000000E+00  0.00000000E+00  0.00000000E+00
  0.00000000E+00  0.00000000E+00  0.00000000E+00
  0.00000000E+00  0.00000000E+00  0.00000000E+00
  0.00000000E+00  0.00000000E+00  0.00000000E+00
  0.00000000E+00  0.00000000E+00  0.00000000E+00
  0.00000000E+00  0.00000000E+00  0.00000000E+00
  0.00000000E+00  0.00000000E+00  0.00000000E+00
  0.00000000E+00  0.00000000E+00  0.00000000E+00
  0.00000000E+00  0.00000000E+00  0.00000000E+00
  0.00000000E+00  0.00000000E+00  0.00000000E+00
  0.00000000E+00  0.00000000E+00  0.00000000E+00
  0.00000000E+00  0.00000000E+00  0.00000000E+00
  0.00000000E+00  0.00000000E+00  0.00000000E+00
  0.00000000E+00  0.00000000E+00  0.00000000E+00
  0.00000000E+00  0.00000000E+00  0.00000000E+00
  0.00000000E+00  0.00000000E+00  0.00000000E+00
  0.00000000E+00  0.00000000E+00  0.00000000E+00
  0.00000000E+00  0.00000000E+00  0.00000000E+00
  0.00000000E+00  0.00000000E+00  0.00000000E+00
  0.00000000E+00  0.00000000E+00  0.00000000E+00
  0.00000000E+00  0.00000000E+00  0.00000000E+00
  0.00000000E+00  0.00000000E+00  0.00000000E+00
  0.00000000E+00  0.00000000E+00  0.00000000E+00
  0.00000000E+00  0.00000000E+00  0.00000000E+00
  0.00000000E+00  0.00000000E+00  0.00000000E+00
  0.00000000E+00  0.00000000E+00  0.00000000E+00
  0.00000000E+00  0.00000000E+00  0.00000000E+00
  0.00000000E+00  0.00000000E+00  0.00000000E+00
  0.00000000E+00  0.00000000E+00  0.00000000E+00
  0.00000000E+00  0.00000000E+00  0.00000000E+00
  0.00000000E+00  0.00000000E+00  0.00000000E+00
  0.00000000E+00  0.00000000E+00  0.00000000E+00
  0.00000000E+00  0.00000000E+00  0.00000000E+00
  0.00000000E+00  0.00000000E+00  0.00000000E+00
  0.00000000E+00  0.00000000E+00  0.00000000E+00
  0.00000000E+00  0.00000000E+00  0.00000000E+00
  0.00000000E+00  0.00000000E+00  0.00000000E+00
  0.00000000E+00  0.00000000E+00  0.00000000E+00
  0.00000000E+00  0.00000000E+00  0.00000000E+00
  0.00000000E+00  0.00000000E+00  0.00000000E+00
  0.00000000E+00  0.00000000E+00  0.00000000E+00
  0.00000000E+00  0.00000000E+00  0.00000000E+00
  0.00000000E+00  0.00000000E+00  0.00000000E+00
  0.00000000E+00  0.00000000E+00  0.00000000E+00
  0.00000000E+00  0.00000000E+00  0.00000000E+00
  0.00000000E+00  0.00000000E+00  0.00000000E+00
  0.00000000E+00  0.00000000E+00  0.00000000E+00
  0.00000000E+00  0.00000000E+00  0.00000000E+00
  0.00000000E+00  0.00000000E+00  0.00000000E+00
  0.00000000E+00  0.00000000E+00  0.00000000E+00
  0.00000000E+00  0.00000000E+00  0.00000000E+00
  0.00000000E+00  0.00000000E+00  0.00000000E+00
  0.00000000E+00  0.00000000E+00  0.00000000E+00
  0.00000000E+00  0.00000000E+00  0.00000000E+00
  0.00000000E+00  0.00000000E+00  0.00000000E+00
  0.00000000E+00  0.00000000E+00  0.00000000E+00
  0.00000000E+00  0.00000000E+00  0.00000000E+00
  0.00000000E+00  0.00000000E+00  0.00000000E+00
  0.00000000E+00  0.00000000E+00  0.00000000E+00
  0.00000000E+00  0.00000000E+00  0.00000000E+00
  0.00000000E+00  0.00000000E+00  0.00000000E+00
  0.00000000E+00  0.00000000E+00  0.00000000E+00
  0.00000000E+00  0.00000000E+00  0.00000000E+00
  0.00000000E+00  0.00000000E+00  0.00000000E+00
  0.00000000E+00  0.00000000E+00  0.00000000E+00
  0.00000000E+00  0.00000000E+00  0.00000000E+00
  0.00000000E+00  0.00000000E+00  0.00000000E+00
  0.00000000E+00  0.00000000E+00  0.00000000E+00
  0.00000000E+00  0.00000000E+00  0.00000000E+00
  0.00000000E+00  0.00000000E+00  0.00000000E+00
  0.00000000E+00  0.00000000E+00  0.00000000E+00
  0.00000000E+00  0.00000000E+00  0.00000000E+00
  0.00000000E+00  0.00000000E+00  0.00000000E+00
  0.00000000E+00  0.00000000E+00  0.00000000E+00
  0.00000000E+00  0.00000000E+00  0.00000000E+00
  0.00000000E+00  0.00000000E+00  0.00000000E+00
  0.00000000E+00  0.00000000E+00  0.00000000E+00
  0.00000000E+00  0.00000000E+00  0.00000000E+00
  0.00000000E+00  0.00000000E+00  0.00000000E+00
  0.00000000E+00  0.00000000E+00  0.00000000E+00
  0.00000000E+00  0.00000000E+00  0.00000000E+00
  0.00000000E+00  0.00000000E+00  0.00000000E+00
  0.00000000E+00  0.00000000E+00  0.00000000E+00
  0.00000000E+00  0.00000000E+00  0.00000000E+00
  0.00000000E+00  0.00000000E+00  0.00000000E+00
  0.00000000E+00  0.00000000E+00  0.00000000E+00
  0.00000000E+00  0.00000000E+00  0.00000000E+00
  0.00000000E+00  0.00000000E+00  0.00000000E+00
  0.00000000E+00  0.00000000E+00  0.00000000E+00
  0.00000000E+00  0.00000000E+00  0.00000000E+00
  0.00000000E+00  0.00000000E+00  0.00000000E+00
  0.00000000E+00  0.00000000E+00  0.00000000E+00
