Cl Ag Cd                                
   1.00000000000000     
    10.3590300000000006  -10.3590300000000006    0.0000000000000000
    10.3590300000000006   10.3590300000000006    0.0000000000000000
     0.0000000000000000    0.0000000000000000   20.7180590000000002
   Ag   Cd   Cl
    32    32    96
Direct
  0.0289916967692583  0.0134955332548987  0.8867612004925428
  0.9726886374379010  0.0300636508450981  0.1698607336869236
  0.9678746932140323  0.0369458861535248  0.4725553293675144
  0.1229660154359319  0.0702084009693834  0.7473348724483363
  0.4374485604695867  0.1285919170271420  0.9896780030859489
  0.4893326763363112  0.9447584314585156  0.1426701490607772
  0.5212324407360778  0.0219910449964832  0.5251619641823347
  0.5208410404554294  0.0214910851763116  0.7656175788253723
  0.2696293706983041  0.3141766847572336  0.0116505011932964
  0.1641465810826485  0.2036561806764628  0.3002299948234630
  0.2552403774671307  0.1603952516348895  0.4874239231352707
  0.2493001544069596  0.3603885082339254  0.7686416679769579
  0.0017705958685832  0.5136878344704333  0.0035806171530152
  0.9937039853674019  0.5192394466485947  0.2652948428712343
 -0.0002159292012697  0.5128797807703399  0.5588814117938796
  0.0766419915443850  0.5795011067292593  0.7598892550135725
  0.7739394946512578  0.2581718714294227  0.0569043117829785
  0.6965610692706633  0.1186989110751026  0.2344426616564636
  0.7107155309734666  0.2259050057777002  0.4102141535474985
  0.7736431263967705  0.2064126476746789  0.7956864646558253
  0.5045568281160158  0.4812252977761889  0.0107406772224525
  0.5084806729447805  0.5186866070137689  0.2550166592245696
  0.4734767042993276  0.5882797798976777  0.5000911835435434
  0.5117616188047531  0.5030971347890186  0.7192543116888566
  0.1311389499933197  0.9047497791281579  0.0000714493925232
  0.2173696880959251  0.7295347618829482  0.2785824546791921
  0.2541252294138920  0.7951519066916353  0.4959852789568536
  0.3170773416049969  0.6710561211197253  0.6994187368004854
  0.6945125454104791  0.7354799976609597  0.9813865790511076
  0.6853757659143074  0.7232968723450550  0.2162230508464252
  0.7747031088685621  0.6668289794738432  0.5401065200188523
  0.8419667554709551  0.6681220792689549  0.7318915375330313
  0.0131422770303678  0.3015809271622204  0.1268824016289545
  0.9823817158167500  0.3119295660787703  0.4134784956544444
  0.9857374360968710  0.2066009047158003  0.6262442248739014
  0.9962094150483187  0.2982921674219183  0.8819733209504721
  0.4924782350361492  0.2886937702161289  0.1627116493483831
  0.4764484758545331  0.3003955484774918  0.4013769562451429
  0.5304549455706957  0.2611506184254888  0.6109971733739963
  0.4909284056073860  0.2845157260737772  0.8617191193482172
  0.2469136451130319  0.5118428480378153  0.1532561504574101
  0.2448997085067997  0.5144714193789465  0.3897151467155505
  0.2739011975707430  0.4263689716585555  0.5877257900003339
  0.2430352323892363  0.5329547557983102  0.9129870955909561
  0.9889201262640678  0.7162786506489366  0.1392449231410225
  0.9639900427857372  0.7411906650138296  0.3774244149002920
  0.0253239192693232  0.7580398812745035  0.5993228171529165
  0.9669365452474807  0.7283712571062573  0.9032823769764561
  0.7507737097067044  0.4923958491366135  0.1203833508578334
  0.7318962642763209  0.5200756131833791  0.3697181226235478
  0.7884125323859158  0.4417404032412188  0.6631550984673514
  0.7360146251986681  0.4830433944363856  0.8827574753855796
  0.4411547240357112  0.7356801128217326  0.1067605072512342
  0.4794752906195556  0.7597104381646994  0.3605515039931483
  0.5216599082546232  0.8204976403746495  0.5849204804828438
  0.4880186774201768  0.7214506757263006  0.8752286198359961
  0.2535077389713113  0.0708723797536821  0.1214589360409624
  0.2153844244994446  0.9679801136989126  0.3581018765190761
  0.2505836231743266  0.9774629863878759  0.6083804945524239
  0.2955799669764081  0.9802222348414062  0.8746787767953175
  0.7724441344476910  0.9647874719283190  0.0826061436352901
  0.7534036957521725  0.9505422509294770  0.3489354929064095
  0.7287977551576591  0.0094045662522818  0.6449041167791504
  0.7444499072153448  0.9325655077129009  0.8505558559513886
  0.9734378507549304  0.3332412191652155  0.0108068122392920
  0.0230157301086764  0.1870943309839783  0.2152986673422836
 -0.0010155867859444  0.3234281671157093  0.5361260183691480
  0.0347608315725897  0.2079928725308945  0.7415403368603241
  0.5470861323146183  0.2462850284289705  0.9756924265720750
  0.5187926116979654  0.3380398287341333  0.2827479539147887
  0.5570203328115945  0.2019448937006850  0.4919703928379924
  0.4252301485026097  0.3530046421854365  0.7580541925722637
  0.1831200253557532  0.4835457788312449  0.0292465975891827
  0.3199539948790901  0.5240507412242958  0.2715448069091005
  0.1664022700307086  0.4934052796833256  0.5037537298438928
  0.2476079755749981  0.5479822837152369  0.7882558921156827
  0.0340287541154301  0.7463718266021313  0.0176553768692457
  0.9199434192644705  0.6883076474058815  0.2608531421054817
  0.0131354157364152  0.6764541783453826  0.4880215045745447
  0.9800833464853772  0.7419832126663687  0.7823723941792159
  0.7409028154379805  0.4138172684505735  0.0037857372442240
  0.7025851229900838  0.5364152181579830  0.2497400971146861
  0.8127246038109363  0.4920123798707935  0.5463251813736086
  0.7211254559703563  0.5502956836335990  0.7508015508725912
  0.5194394513560003  0.7782041499920762  0.0034146040974969
  0.4975668303686405  0.6945449923444619  0.2203733881567431
  0.5192053302879835  0.8579131941279859  0.4620307666857584
  0.4755606132094352  0.6635173012530056  0.7573130240812851
  0.3295896104652785  0.0066985501051819  0.9993853994766314
  0.2424397697800171  0.0628177742617354  0.2538986403960197
  0.3041326640049957  0.9670649106155025  0.4622933710981059
  0.2091579767497322  0.9353712401901965  0.7238001240920672
  0.6968405956762596  0.9214968938556444  0.9817660417279565
  0.8442031963228029  0.0326062596039544  0.2632108338256654
  0.6934063140368383  0.9918396873686378  0.5293536951396588
  0.8259948109889864  0.9731715510011395  0.7394174532240642
  0.1660805254401986  0.2019330104647284  0.0667690061235647
  0.1030409613222310  0.0909898628375292  0.4044343034956040
  0.1608857023087009  0.1302920840192517  0.5863328224341756
  0.1710925570672572  0.1027745021105233  0.8770617056115005
  0.6382264309966371  0.2015603293658922  0.1400518581132661
  0.6388754382172191  0.0820717116234219  0.3519742281640547
  0.6137431514715218  0.1454206732130517  0.6785387295414010
  0.6588603251222922  0.0794761889455071  0.8435010675763600
  0.3344670756267157  0.3473366391856072  0.1393504760364581
  0.3864148577354541  0.4360216427672617  0.4450327200240636
  0.3642811031796678  0.2769179460945671  0.5838816137261134
  0.3752028832834820  0.4018545411766177  0.9353251828864005
  0.1583821892943809  0.6777279860737581  0.1657871319931436
  0.1131245498873460  0.6077240377605970  0.3426252177209305
  0.1475437308686670  0.6701721869193591  0.6526172277210230
  0.0643125895962919  0.5743537876404834  0.8959453617023865
  0.8417257611024440  0.3522172571621699  0.1636096997861434
  0.8938106340946312  0.4373752065962126  0.3535314257705576
  0.8240182297488674  0.2743975017776616  0.6808216607208136
  0.8894753482818827  0.4194470413125538  0.8391920094999714
  0.7067523864236522  0.6616955446808342  0.1023293072049112
  0.5499513810802696  0.6042570102037140  0.3807948381667903
  0.6002118557554768  0.6690280854608031  0.5707911595305943
  0.5800811063953745  0.5625461250562735  0.9138985004187561
  0.3410293295787090  0.8690090840891015  0.1358678089997943
  0.3456538281249191  0.8422846131767501  0.3091760558718394
  0.3523180411750612  0.8049502339838223  0.6090595552814903
  0.4279359431116108  0.8885647384459611  0.8335089796824318
  0.8936126687661932  0.8639172162395705  0.1410021378072262
  0.8789783642035336  0.8918865335469143  0.4220194965963075
  0.8595099782522950  0.7710062490708794  0.6222707185840125
  0.9046345780391614  0.9007594785175150  0.9047518249312071
  0.8630706600147123  0.1070521018427200  0.0695170240044579
  0.8760166559759330  0.1805282739953875  0.4078082792267509
  0.9097607238854147  0.0630810622281826  0.5873380051391959
  0.9009689097060045  0.1593535728156251  0.8816932511637037
  0.4180309403756997  0.1175112435335771  0.1405312171372107
  0.3439433509099927  0.1937605342920048  0.3873993834142193
  0.4087760138763210  0.0445858476484697  0.6143821225664517
  0.4091842533586948  0.1309258068224767  0.8331311865608358
  0.1009522511584580  0.4248054043409146  0.1922685920886805
  0.1351057984347310  0.3474300613581007  0.3642499779545518
  0.1572937270526809  0.3779055290645602  0.6661568761392269
  0.1589601535044683  0.3430987291602068  0.8768764420535514
  0.9264775300476258  0.5596783309297287  0.1098705289643079
  0.7963268443297215  0.6660376516134709  0.4132572004803636
  0.9523041367809666  0.5191047208533200  0.6801215345959717
  0.8218527587530736  0.6336102874563092  0.9317797330142876
  0.5700918315297366  0.4432886666693790  0.1229354765841359
  0.6495152230679330  0.3887146897815707  0.4226545476804184
  0.6067030918790710  0.4112761477433969  0.6319150993467193
  0.6539292722981990  0.3397711028727936  0.8295991924011048
  0.3781607226519466  0.5806578302345461  0.0850597200100016
  0.3296003496372593  0.6715337537041123  0.4331698977676647
  0.3898600824195089  0.5456588062208154  0.6112737206221733
  0.3355633708108738  0.6766262524448298  0.9282503065667673
  0.1193366229645936  0.9624361431501266  0.1108475067814867
  0.0910959174290334  0.8517145284765031  0.3281258939643758
  0.1165303231802633  0.8876608848981179  0.5478406624616008
  0.1682688491988685  0.8582710782984307  0.8901841004583720
  0.6506915852520805  0.9409294750465941  0.1670602161889711
  0.6519986507852310  0.8186893025615104  0.3166773097454548
  0.5946468881332300  0.8948728725023056  0.6819934934993437
  0.6602779715523106  0.7825054588837115  0.8433975320461830
 
  0.00000000E+00  0.00000000E+00  0.00000000E+00
  0.00000000E+00  0.00000000E+00  0.00000000E+00
  0.00000000E+00  0.00000000E+00  0.00000000E+00
  0.00000000E+00  0.00000000E+00  0.00000000E+00
  0.00000000E+00  0.00000000E+00  0.00000000E+00
  0.00000000E+00  0.00000000E+00  0.00000000E+00
  0.00000000E+00  0.00000000E+00  0.00000000E+00
  0.00000000E+00  0.00000000E+00  0.00000000E+00
  0.00000000E+00  0.00000000E+00  0.00000000E+00
  0.00000000E+00  0.00000000E+00  0.00000000E+00
  0.00000000E+00  0.00000000E+00  0.00000000E+00
  0.00000000E+00  0.00000000E+00  0.00000000E+00
  0.00000000E+00  0.00000000E+00  0.00000000E+00
  0.00000000E+00  0.00000000E+00  0.00000000E+00
  0.00000000E+00  0.00000000E+00  0.00000000E+00
  0.00000000E+00  0.00000000E+00  0.00000000E+00
  0.00000000E+00  0.00000000E+00  0.00000000E+00
  0.00000000E+00  0.00000000E+00  0.00000000E+00
  0.00000000E+00  0.00000000E+00  0.00000000E+00
  0.00000000E+00  0.00000000E+00  0.00000000E+00
  0.00000000E+00  0.00000000E+00  0.00000000E+00
  0.00000000E+00  0.00000000E+00  0.00000000E+00
  0.00000000E+00  0.00000000E+00  0.00000000E+00
  0.00000000E+00  0.00000000E+00  0.00000000E+00
  0.00000000E+00  0.00000000E+00  0.00000000E+00
  0.00000000E+00  0.00000000E+00  0.00000000E+00
  0.00000000E+00  0.00000000E+00  0.00000000E+00
  0.00000000E+00  0.00000000E+00  0.00000000E+00
  0.00000000E+00  0.00000000E+00  0.00000000E+00
  0.00000000E+00  0.00000000E+00  0.00000000E+00
  0.00000000E+00  0.00000000E+00  0.00000000E+00
  0.00000000E+00  0.00000000E+00  0.00000000E+00
  0.00000000E+00  0.00000000E+00  0.00000000E+00
  0.00000000E+00  0.00000000E+00  0.00000000E+00
  0.00000000E+00  0.00000000E+00  0.00000000E+00
  0.00000000E+00  0.00000000E+00  0.00000000E+00
  0.00000000E+00  0.00000000E+00  0.00000000E+00
  0.00000000E+00  0.00000000E+00  0.00000000E+00
  0.00000000E+00  0.00000000E+00  0.00000000E+00
  0.00000000E+00  0.00000000E+00  0.00000000E+00
  0.00000000E+00  0.00000000E+00  0.00000000E+00
  0.00000000E+00  0.00000000E+00  0.00000000E+00
  0.00000000E+00  0.00000000E+00  0.00000000E+00
  0.00000000E+00  0.00000000E+00  0.00000000E+00
  0.00000000E+00  0.00000000E+00  0.00000000E+00
  0.00000000E+00  0.00000000E+00  0.00000000E+00
  0.00000000E+00  0.00000000E+00  0.00000000E+00
  0.00000000E+00  0.00000000E+00  0.00000000E+00
  0.00000000E+00  0.00000000E+00  0.00000000E+00
  0.00000000E+00  0.00000000E+00  0.00000000E+00
  0.00000000E+00  0.00000000E+00  0.00000000E+00
  0.00000000E+00  0.00000000E+00  0.00000000E+00
  0.00000000E+00  0.00000000E+00  0.00000000E+00
  0.00000000E+00  0.00000000E+00  0.00000000E+00
  0.00000000E+00  0.00000000E+00  0.00000000E+00
  0.00000000E+00  0.00000000E+00  0.00000000E+00
  0.00000000E+00  0.00000000E+00  0.00000000E+00
  0.00000000E+00  0.00000000E+00  0.00000000E+00
  0.00000000E+00  0.00000000E+00  0.00000000E+00
  0.00000000E+00  0.00000000E+00  0.00000000E+00
  0.00000000E+00  0.00000000E+00  0.00000000E+00
  0.00000000E+00  0.00000000E+00  0.00000000E+00
  0.00000000E+00  0.00000000E+00  0.00000000E+00
  0.00000000E+00  0.00000000E+00  0.00000000E+00
  0.00000000E+00  0.00000000E+00  0.00000000E+00
  0.00000000E+00  0.00000000E+00  0.00000000E+00
  0.00000000E+00  0.00000000E+00  0.00000000E+00
  0.00000000E+00  0.00000000E+00  0.00000000E+00
  0.00000000E+00  0.00000000E+00  0.00000000E+00
  0.00000000E+00  0.00000000E+00  0.00000000E+00
  0.00000000E+00  0.00000000E+00  0.00000000E+00
  0.00000000E+00  0.00000000E+00  0.00000000E+00
  0.00000000E+00  0.00000000E+00  0.00000000E+00
  0.00000000E+00  0.00000000E+00  0.00000000E+00
  0.00000000E+00  0.00000000E+00  0.00000000E+00
  0.00000000E+00  0.00000000E+00  0.00000000E+00
  0.00000000E+00  0.00000000E+00  0.00000000E+00
  0.00000000E+00  0.00000000E+00  0.00000000E+00
  0.00000000E+00  0.00000000E+00  0.00000000E+00
  0.00000000E+00  0.00000000E+00  0.00000000E+00
  0.00000000E+00  0.00000000E+00  0.00000000E+00
  0.00000000E+00  0.00000000E+00  0.00000000E+00
  0.00000000E+00  0.00000000E+00  0.00000000E+00
  0.00000000E+00  0.00000000E+00  0.00000000E+00
  0.00000000E+00  0.00000000E+00  0.00000000E+00
  0.00000000E+00  0.00000000E+00  0.00000000E+00
  0.00000000E+00  0.00000000E+00  0.00000000E+00
  0.00000000E+00  0.00000000E+00  0.00000000E+00
  0.00000000E+00  0.00000000E+00  0.00000000E+00
  0.00000000E+00  0.00000000E+00  0.00000000E+00
  0.00000000E+00  0.00000000E+00  0.00000000E+00
  0.00000000E+00  0.00000000E+00  0.00000000E+00
  0.00000000E+00  0.00000000E+00  0.00000000E+00
  0.00000000E+00  0.00000000E+00  0.00000000E+00
  0.00000000E+00  0.00000000E+00  0.00000000E+00
  0.00000000E+00  0.00000000E+00  0.00000000E+00
  0.00000000E+00  0.00000000E+00  0.00000000E+00
  0.00000000E+00  0.00000000E+00  0.00000000E+00
  0.00000000E+00  0.00000000E+00  0.00000000E+00
  0.00000000E+00  0.00000000E+00  0.00000000E+00
  0.00000000E+00  0.00000000E+00  0.00000000E+00
  0.00000000E+00  0.00000000E+00  0.00000000E+00
  0.00000000E+00  0.00000000E+00  0.00000000E+00
  0.00000000E+00  0.00000000E+00  0.00000000E+00
  0.00000000E+00  0.00000000E+00  0.00000000E+00
  0.00000000E+00  0.00000000E+00  0.00000000E+00
  0.00000000E+00  0.00000000E+00  0.00000000E+00
  0.00000000E+00  0.00000000E+00  0.00000000E+00
  0.00000000E+00  0.00000000E+00  0.00000000E+00
  0.00000000E+00  0.00000000E+00  0.00000000E+00
  0.00000000E+00  0.00000000E+00  0.00000000E+00
  0.00000000E+00  0.00000000E+00  0.00000000E+00
  0.00000000E+00  0.00000000E+00  0.00000000E+00
  0.00000000E+00  0.00000000E+00  0.00000000E+00
  0.00000000E+00  0.00000000E+00  0.00000000E+00
  0.00000000E+00  0.00000000E+00  0.00000000E+00
  0.00000000E+00  0.00000000E+00  0.00000000E+00
  0.00000000E+00  0.00000000E+00  0.00000000E+00
  0.00000000E+00  0.00000000E+00  0.00000000E+00
  0.00000000E+00  0.00000000E+00  0.00000000E+00
  0.00000000E+00  0.00000000E+00  0.00000000E+00
  0.00000000E+00  0.00000000E+00  0.00000000E+00
  0.00000000E+00  0.00000000E+00  0.00000000E+00
  0.00000000E+00  0.00000000E+00  0.00000000E+00
  0.00000000E+00  0.00000000E+00  0.00000000E+00
  0.00000000E+00  0.00000000E+00  0.00000000E+00
  0.00000000E+00  0.00000000E+00  0.00000000E+00
  0.00000000E+00  0.00000000E+00  0.00000000E+00
  0.00000000E+00  0.00000000E+00  0.00000000E+00
  0.00000000E+00  0.00000000E+00  0.00000000E+00
  0.00000000E+00  0.00000000E+00  0.00000000E+00
  0.00000000E+00  0.00000000E+00  0.00000000E+00
  0.00000000E+00  0.00000000E+00  0.00000000E+00
  0.00000000E+00  0.00000000E+00  0.00000000E+00
  0.00000000E+00  0.00000000E+00  0.00000000E+00
  0.00000000E+00  0.00000000E+00  0.00000000E+00
  0.00000000E+00  0.00000000E+00  0.00000000E+00
  0.00000000E+00  0.00000000E+00  0.00000000E+00
  0.00000000E+00  0.00000000E+00  0.00000000E+00
  0.00000000E+00  0.00000000E+00  0.00000000E+00
  0.00000000E+00  0.00000000E+00  0.00000000E+00
  0.00000000E+00  0.00000000E+00  0.00000000E+00
  0.00000000E+00  0.00000000E+00  0.00000000E+00
  0.00000000E+00  0.00000000E+00  0.00000000E+00
  0.00000000E+00  0.00000000E+00  0.00000000E+00
  0.00000000E+00  0.00000000E+00  0.00000000E+00
  0.00000000E+00  0.00000000E+00  0.00000000E+00
  0.00000000E+00  0.00000000E+00  0.00000000E+00
  0.00000000E+00  0.00000000E+00  0.00000000E+00
  0.00000000E+00  0.00000000E+00  0.00000000E+00
  0.00000000E+00  0.00000000E+00  0.00000000E+00
  0.00000000E+00  0.00000000E+00  0.00000000E+00
  0.00000000E+00  0.00000000E+00  0.00000000E+00
  0.00000000E+00  0.00000000E+00  0.00000000E+00
  0.00000000E+00  0.00000000E+00  0.00000000E+00
  0.00000000E+00  0.00000000E+00  0.00000000E+00
  0.00000000E+00  0.00000000E+00  0.00000000E+00
  0.00000000E+00  0.00000000E+00  0.00000000E+00
  0.00000000E+00  0.00000000E+00  0.00000000E+00
  0.00000000E+00  0.00000000E+00  0.00000000E+00
