I Tl Sn                                 
   1.00000000000000     
    12.4060919999999992  -12.4060919999999992    0.0000000000000000
    12.4060919999999992   12.4060919999999992    0.0000000000000000
     0.0000000000000000    0.0000000000000000   24.8121839999999985
   I    Sn   Tl
    96    32    32
Direct
  0.1507295312562769  0.0986872321812994  0.0324398242081721
  0.1592702069937389  0.0843412414061404  0.2367209565598839
  0.1592152820048879  0.0858336897137243  0.5242267692633580
  0.1556835884947742  0.0833660943477996  0.7200533286185922
  0.6271211721605409  0.1289972769174447  0.9730897000606227
  0.6631228267074383  0.0807608850300477  0.2506415953860368
  0.6611922486889511  0.0800865613893164  0.5119319588551464
  0.6526987129354818  0.1025531692078824  0.7418110745424500
  0.3822133306846401  0.3797221054320599  0.9704200121684179
  0.3464693067417331  0.3990178560891843  0.2664639330375426
  0.3402288728913948  0.4066820476522938  0.4770463596550364
  0.3428892298539618  0.3958860680128410  0.7746353193790785
  0.1540306109988559  0.6054994622653400  0.9823047918681801
  0.1498847275445378  0.5889260400004979  0.2681884220206725
  0.1368755434855095  0.6010560551815539  0.4935487513843727
  0.1628277053580262  0.5974355379994543  0.7714960877888619
  0.8597333920626785  0.3989901097178907  0.0277826205601030
  0.8474495685107506  0.3924804844506055  0.2186797290112723
  0.8367400400472094  0.3970995355050668  0.4963650264529603
  0.8590131786985405  0.3996141757406683  0.7490655955573553
  0.6622705853856913  0.6075447855064392  0.0219387985506305
  0.6727997589614405  0.5757291992445031  0.2393737823691785
  0.6568212951811158  0.5833513011300536  0.5290345303549312
  0.6585731415501785  0.5863022700022973  0.7222287893469668
  0.3473184124059313  0.9037928989126517  0.0333308553883232
  0.3442452831456289  0.8968717873113425  0.2267672849128964
  0.3465027581209462  0.8979322781620332  0.4953016957409767
  0.3413171067855542  0.9142628933987014  0.7526471166752857
  0.8415300929909144  0.9163581152361429  0.9695184065061280
  0.8367821920945854  0.9052942890881496  0.2781961748388183
  0.8383710430381573  0.9057179832980177  0.4777609941592442
  0.8263211760728395  0.9178648941040105  0.7612549527769286
  0.8825845918341233  0.1368702599645433  0.0390746413158196
  0.8892405516039923  0.1479587517110920  0.2176435455562488
  0.9142727895360806  0.1446873890641496  0.5299246920788878
  0.9166536715980502  0.1501287928994141  0.7195356227494679
  0.3846531147074249  0.1369491880475762  0.9723469054470165
  0.3846561370472138  0.1515715142726175  0.2865585328581337
  0.3853753935542429  0.1538426242050233  0.4643292010621398
  0.4124298053831955  0.1530205718694916  0.7824671901410770
  0.1121229625415334  0.3702282871806190  0.0200166108918624
  0.0960172855864464  0.3559160708633024  0.2183980321293953
  0.0857299929603749  0.3523535733676174  0.5253965353591922
  0.1100990168522584  0.3483295479417441  0.7182972342532757
  0.8914852302987468  0.6597813542845179  0.9704061954084814
  0.8987217935273222  0.6625463467227772  0.2799642372266745
  0.8954841763689387  0.6617575650991908  0.4675394723951310
  0.8994718887468813  0.6463210619747148  0.7824782907840951
  0.6258334884614487  0.3784908109383679  0.9705589827277877
  0.5945858336509227  0.3500619812927802  0.2815584065312416
  0.5900815768840282  0.3304980933662053  0.4732950028921662
  0.6027091780682349  0.3417898592436500  0.7817782527802355
  0.3806951297135226  0.6408467575557639  0.0390347711336022
  0.3747544520834453  0.6437779585009141  0.2190312041838648
  0.4143904434271271  0.6466624531871789  0.5231885810396836
  0.4124050745880137  0.6502340729028387  0.7244188750971199
  0.0934644052870738  0.8521302106988179  0.9699801271328612
  0.0953593629365620  0.8556847739966358  0.2888286890640421
  0.1048991608272393  0.8394703917134850  0.4715154669357414
  0.1007796497721482  0.8375377165354474  0.7822771048940278
  0.5903433141590375  0.8481390211757073  0.0340186376064931
  0.5924712276187457  0.8492700805945288  0.2215041425375310
  0.5882848660826343  0.8517899469571222  0.5301097509246468
  0.5977374105145833  0.8417208312548669  0.7180879213273214
  0.9942850777382658  0.9471700717644550  0.1175717529105533
  0.0184263832485819  0.0678932724776349  0.3757085280757669
  0.9943227886004767  0.9428129574832139  0.6187699341228599
  0.0247223336651668  0.0524041532363893  0.8673212581617702
  0.5032693687225482  0.0545873122420383  0.1222228942533459
  0.5301030160915186  0.9631845220302656  0.3739604403066693
  0.4604237659336337  0.0484558099280186  0.6221182603771988
  0.5283650361799809  0.9597589197026614  0.8699062440805617
  0.3137072754860288  0.2448141589725458  0.1236196105852899
  0.1962051599181524  0.2585303103386419  0.3720749812568014
  0.3009946079090551  0.2605573012890137  0.6215668135284858
  0.1887187778786932  0.2500317221446426  0.8709188999712573
  0.0151674492848517  0.5568843580078326  0.1224239795833437
  0.9833150210355610  0.4663995353728855  0.3705038907467662
  0.9632831258053355  0.5472763791659612  0.6205516834972266
  0.0148144530158943  0.4661964925478960  0.8714737611642908
  0.6959384454245463  0.2555732783133806  0.1233045304045605
  0.7798317740186320  0.2149343526310413  0.3797663550999448
  0.7013205850508732  0.2857156032742409  0.6302393113159761
  0.8060772267522737  0.2123990579269014  0.8750540941346964
  0.5081406711726716  0.4443029222650445  0.1170543859191922
  0.4945413283413024  0.5419030349614344  0.3716857615325641
  0.4837966223620420  0.4503976535159915  0.6255039681820195
  0.5273804771479069  0.5668764644282051  0.8706172696419731
  0.1884922052606358  0.7533460415029885  0.1285010305923353
  0.2885573169504941  0.7301290914269335  0.3773062075293797
  0.2049351357036902  0.7758535132782449  0.6281563133035394
  0.2988694304750880  0.7620176237601431  0.8796107083070676
  0.8049134685391349  0.7766861114327243  0.1217928371992785
  0.6942694442270984  0.7370648101811018  0.3727590981218487
  0.8028913605637902  0.7634629720099069  0.6183369315968568
  0.6970506598485361  0.7574534832292136  0.8690832077492852
  0.9888757042066957  0.9973939371883621  0.9972734358987938
  0.0133275590880264  0.0013530190283795  0.2650293706698062
  0.0087595498644089  0.0044656665318166  0.5019438164545638
  0.0047412558727674  0.0070996440782841  0.7497172411188345
  0.4971144654103428  0.9907516201034016  0.0106311893361114
  0.5128907792716159  0.9933966697306099  0.2498298373050749
  0.5048515556668872  0.0041526505713321  0.5067250629924325
  0.4925188115013293  0.0039687873732009  0.7537828185080526
  0.2517548547071429  0.2329111550895976  0.0114693065405053
  0.2529292811666756  0.2541912471519705  0.2524121637059396
  0.2569672317920771  0.2583623708966911  0.4988612814085667
  0.2463206017881592  0.2526787556879957  0.7563235109162627
  0.9996418741642861  0.4990179022077570  0.0065100871793890
  0.0040974709553351  0.4931555135041661  0.2467074847435410
  0.9941037506275153  0.4962124711444234  0.5030623471779656
  0.9938059759761131  0.5111864816665648  0.7508116119866278
  0.7598452849602183  0.2405616906389318  0.9930473843107910
  0.7494890030120239  0.2478706125972156  0.2401442740649253
  0.7341316197823446  0.2483438132135382  0.4967913825419723
  0.7423905051223672  0.2520761377130907  0.7480052310699268
  0.5059079317488695  0.4976663273369875  0.0004270664985485
  0.5208304110449949  0.4970007171869716  0.2539256033348374
  0.5079817417634777  0.4980978138370181  0.5065136445857816
  0.5105278992981782  0.5117128049191797  0.7539283580369267
  0.2557122884497255  0.7470532725444023  0.0001547581744546
  0.2493877447005107  0.7558978282581504  0.2500594658533647
  0.2486487211651247  0.7521201618639610  0.5011966819809776
  0.2434895958118768  0.7476207741487646  0.7524122519469940
  0.7511662655014131  0.7627936302522974  0.0066503925820165
  0.7532271675615769  0.7553935756947702  0.2573094791953233
  0.7542187258222633  0.7590823671792796  0.4977073752184976
  0.7474480769407652  0.7659257600370246  0.7503403669774923
  0.9588249417969662  0.2877513423475080  0.1256668182061087
  0.9651875893513786  0.2704332603343297  0.4236121987458087
  0.0604082314608506  0.2006897478935086  0.6234624601831537
  0.9903386878716633  0.2705554937240344  0.8221959716964202
  0.4982745867850453  0.2465151810249607  0.0689298818133579
  0.4455080393279184  0.3020574549118700  0.3713958093396191
  0.5108571876932100  0.2396199879198316  0.6744969169052883
  0.5023299537127838  0.2558795517032739  0.8937065538074588
  0.2341900869205547  0.5652976438025011  0.1336291981396064
  0.2957420248485845  0.5296082301997475  0.3655295157035768
  0.2881324871588703  0.4483581376435735  0.6490648042440986
  0.2098189155855295  0.4410599984034889  0.9016135432055686
  0.9928129454461896  0.7499286900847562  0.0753565843853255
  0.0533440927959788  0.6948001877333533  0.3747643832362187
  0.0151771606046704  0.7380294416403418  0.5754598888784549
  0.0443235090854761  0.6871040519081236  0.8747743790458108
  0.7101648164154643  0.4584810357221566  0.1180481886523985
  0.7939154125670660  0.5580105288890391  0.3660075665463379
  0.7725147779042305  0.4728724549023968  0.6247120565462480
  0.7248689837528866  0.5673871313147900  0.8950454401530719
  0.4487443155176856  0.7882033016225898  0.1292530797022888
  0.4804479970998144  0.7770061130463936  0.4233869745356342
  0.5512466325558212  0.6933590788327408  0.6240878892315602
  0.4989241326081329  0.7657112416956608  0.8301904152468278
  0.2007185905455301  0.9631057766137843  0.1280674739931838
  0.2468865313940227  0.0732130345718742  0.3724250884756639
  0.2715827355836896  0.9710627923280994  0.6239912909162709
  0.2003905347428633  0.9449419544555715  0.8705094864302415
  0.8002498710355408  0.9916308771286554  0.1560245546358913
  0.7251932367810726  0.0173862350921039  0.3794571860228525
  0.8005692513711404  0.9589204722979124  0.6148915810635567
  0.7224613445073088  0.0227599169752100  0.8662885002803432
 
  0.00000000E+00  0.00000000E+00  0.00000000E+00
  0.00000000E+00  0.00000000E+00  0.00000000E+00
  0.00000000E+00  0.00000000E+00  0.00000000E+00
  0.00000000E+00  0.00000000E+00  0.00000000E+00
  0.00000000E+00  0.00000000E+00  0.00000000E+00
  0.00000000E+00  0.00000000E+00  0.00000000E+00
  0.00000000E+00  0.00000000E+00  0.00000000E+00
  0.00000000E+00  0.00000000E+00  0.00000000E+00
  0.00000000E+00  0.00000000E+00  0.00000000E+00
  0.00000000E+00  0.00000000E+00  0.00000000E+00
  0.00000000E+00  0.00000000E+00  0.00000000E+00
  0.00000000E+00  0.00000000E+00  0.00000000E+00
  0.00000000E+00  0.00000000E+00  0.00000000E+00
  0.00000000E+00  0.00000000E+00  0.00000000E+00
  0.00000000E+00  0.00000000E+00  0.00000000E+00
  0.00000000E+00  0.00000000E+00  0.00000000E+00
  0.00000000E+00  0.00000000E+00  0.00000000E+00
  0.00000000E+00  0.00000000E+00  0.00000000E+00
  0.00000000E+00  0.00000000E+00  0.00000000E+00
  0.00000000E+00  0.00000000E+00  0.00000000E+00
  0.00000000E+00  0.00000000E+00  0.00000000E+00
  0.00000000E+00  0.00000000E+00  0.00000000E+00
  0.00000000E+00  0.00000000E+00  0.00000000E+00
  0.00000000E+00  0.00000000E+00  0.00000000E+00
  0.00000000E+00  0.00000000E+00  0.00000000E+00
  0.00000000E+00  0.00000000E+00  0.00000000E+00
  0.00000000E+00  0.00000000E+00  0.00000000E+00
  0.00000000E+00  0.00000000E+00  0.00000000E+00
  0.00000000E+00  0.00000000E+00  0.00000000E+00
  0.00000000E+00  0.00000000E+00  0.00000000E+00
  0.00000000E+00  0.00000000E+00  0.00000000E+00
  0.00000000E+00  0.00000000E+00  0.00000000E+00
  0.00000000E+00  0.00000000E+00  0.00000000E+00
  0.00000000E+00  0.00000000E+00  0.00000000E+00
  0.00000000E+00  0.00000000E+00  0.00000000E+00
  0.00000000E+00  0.00000000E+00  0.00000000E+00
  0.00000000E+00  0.00000000E+00  0.00000000E+00
  0.00000000E+00  0.00000000E+00  0.00000000E+00
  0.00000000E+00  0.00000000E+00  0.00000000E+00
  0.00000000E+00  0.00000000E+00  0.00000000E+00
  0.00000000E+00  0.00000000E+00  0.00000000E+00
  0.00000000E+00  0.00000000E+00  0.00000000E+00
  0.00000000E+00  0.00000000E+00  0.00000000E+00
  0.00000000E+00  0.00000000E+00  0.00000000E+00
  0.00000000E+00  0.00000000E+00  0.00000000E+00
  0.00000000E+00  0.00000000E+00  0.00000000E+00
  0.00000000E+00  0.00000000E+00  0.00000000E+00
  0.00000000E+00  0.00000000E+00  0.00000000E+00
  0.00000000E+00  0.00000000E+00  0.00000000E+00
  0.00000000E+00  0.00000000E+00  0.00000000E+00
  0.00000000E+00  0.00000000E+00  0.00000000E+00
  0.00000000E+00  0.00000000E+00  0.00000000E+00
  0.00000000E+00  0.00000000E+00  0.00000000E+00
  0.00000000E+00  0.00000000E+00  0.00000000E+00
  0.00000000E+00  0.00000000E+00  0.00000000E+00
  0.00000000E+00  0.00000000E+00  0.00000000E+00
  0.00000000E+00  0.00000000E+00  0.00000000E+00
  0.00000000E+00  0.00000000E+00  0.00000000E+00
  0.00000000E+00  0.00000000E+00  0.00000000E+00
  0.00000000E+00  0.00000000E+00  0.00000000E+00
  0.00000000E+00  0.00000000E+00  0.00000000E+00
  0.00000000E+00  0.00000000E+00  0.00000000E+00
  0.00000000E+00  0.00000000E+00  0.00000000E+00
  0.00000000E+00  0.00000000E+00  0.00000000E+00
  0.00000000E+00  0.00000000E+00  0.00000000E+00
  0.00000000E+00  0.00000000E+00  0.00000000E+00
  0.00000000E+00  0.00000000E+00  0.00000000E+00
  0.00000000E+00  0.00000000E+00  0.00000000E+00
  0.00000000E+00  0.00000000E+00  0.00000000E+00
  0.00000000E+00  0.00000000E+00  0.00000000E+00
  0.00000000E+00  0.00000000E+00  0.00000000E+00
  0.00000000E+00  0.00000000E+00  0.00000000E+00
  0.00000000E+00  0.00000000E+00  0.00000000E+00
  0.00000000E+00  0.00000000E+00  0.00000000E+00
  0.00000000E+00  0.00000000E+00  0.00000000E+00
  0.00000000E+00  0.00000000E+00  0.00000000E+00
  0.00000000E+00  0.00000000E+00  0.00000000E+00
  0.00000000E+00  0.00000000E+00  0.00000000E+00
  0.00000000E+00  0.00000000E+00  0.00000000E+00
  0.00000000E+00  0.00000000E+00  0.00000000E+00
  0.00000000E+00  0.00000000E+00  0.00000000E+00
  0.00000000E+00  0.00000000E+00  0.00000000E+00
  0.00000000E+00  0.00000000E+00  0.00000000E+00
  0.00000000E+00  0.00000000E+00  0.00000000E+00
  0.00000000E+00  0.00000000E+00  0.00000000E+00
  0.00000000E+00  0.00000000E+00  0.00000000E+00
  0.00000000E+00  0.00000000E+00  0.00000000E+00
  0.00000000E+00  0.00000000E+00  0.00000000E+00
  0.00000000E+00  0.00000000E+00  0.00000000E+00
  0.00000000E+00  0.00000000E+00  0.00000000E+00
  0.00000000E+00  0.00000000E+00  0.00000000E+00
  0.00000000E+00  0.00000000E+00  0.00000000E+00
  0.00000000E+00  0.00000000E+00  0.00000000E+00
  0.00000000E+00  0.00000000E+00  0.00000000E+00
  0.00000000E+00  0.00000000E+00  0.00000000E+00
  0.00000000E+00  0.00000000E+00  0.00000000E+00
  0.00000000E+00  0.00000000E+00  0.00000000E+00
  0.00000000E+00  0.00000000E+00  0.00000000E+00
  0.00000000E+00  0.00000000E+00  0.00000000E+00
  0.00000000E+00  0.00000000E+00  0.00000000E+00
  0.00000000E+00  0.00000000E+00  0.00000000E+00
  0.00000000E+00  0.00000000E+00  0.00000000E+00
  0.00000000E+00  0.00000000E+00  0.00000000E+00
  0.00000000E+00  0.00000000E+00  0.00000000E+00
  0.00000000E+00  0.00000000E+00  0.00000000E+00
  0.00000000E+00  0.00000000E+00  0.00000000E+00
  0.00000000E+00  0.00000000E+00  0.00000000E+00
  0.00000000E+00  0.00000000E+00  0.00000000E+00
  0.00000000E+00  0.00000000E+00  0.00000000E+00
  0.00000000E+00  0.00000000E+00  0.00000000E+00
  0.00000000E+00  0.00000000E+00  0.00000000E+00
  0.00000000E+00  0.00000000E+00  0.00000000E+00
  0.00000000E+00  0.00000000E+00  0.00000000E+00
  0.00000000E+00  0.00000000E+00  0.00000000E+00
  0.00000000E+00  0.00000000E+00  0.00000000E+00
  0.00000000E+00  0.00000000E+00  0.00000000E+00
  0.00000000E+00  0.00000000E+00  0.00000000E+00
  0.00000000E+00  0.00000000E+00  0.00000000E+00
  0.00000000E+00  0.00000000E+00  0.00000000E+00
  0.00000000E+00  0.00000000E+00  0.00000000E+00
  0.00000000E+00  0.00000000E+00  0.00000000E+00
  0.00000000E+00  0.00000000E+00  0.00000000E+00
  0.00000000E+00  0.00000000E+00  0.00000000E+00
  0.00000000E+00  0.00000000E+00  0.00000000E+00
  0.00000000E+00  0.00000000E+00  0.00000000E+00
  0.00000000E+00  0.00000000E+00  0.00000000E+00
  0.00000000E+00  0.00000000E+00  0.00000000E+00
  0.00000000E+00  0.00000000E+00  0.00000000E+00
  0.00000000E+00  0.00000000E+00  0.00000000E+00
  0.00000000E+00  0.00000000E+00  0.00000000E+00
  0.00000000E+00  0.00000000E+00  0.00000000E+00
  0.00000000E+00  0.00000000E+00  0.00000000E+00
  0.00000000E+00  0.00000000E+00  0.00000000E+00
  0.00000000E+00  0.00000000E+00  0.00000000E+00
  0.00000000E+00  0.00000000E+00  0.00000000E+00
  0.00000000E+00  0.00000000E+00  0.00000000E+00
  0.00000000E+00  0.00000000E+00  0.00000000E+00
  0.00000000E+00  0.00000000E+00  0.00000000E+00
  0.00000000E+00  0.00000000E+00  0.00000000E+00
  0.00000000E+00  0.00000000E+00  0.00000000E+00
  0.00000000E+00  0.00000000E+00  0.00000000E+00
  0.00000000E+00  0.00000000E+00  0.00000000E+00
  0.00000000E+00  0.00000000E+00  0.00000000E+00
  0.00000000E+00  0.00000000E+00  0.00000000E+00
  0.00000000E+00  0.00000000E+00  0.00000000E+00
  0.00000000E+00  0.00000000E+00  0.00000000E+00
  0.00000000E+00  0.00000000E+00  0.00000000E+00
  0.00000000E+00  0.00000000E+00  0.00000000E+00
  0.00000000E+00  0.00000000E+00  0.00000000E+00
  0.00000000E+00  0.00000000E+00  0.00000000E+00
  0.00000000E+00  0.00000000E+00  0.00000000E+00
  0.00000000E+00  0.00000000E+00  0.00000000E+00
  0.00000000E+00  0.00000000E+00  0.00000000E+00
  0.00000000E+00  0.00000000E+00  0.00000000E+00
  0.00000000E+00  0.00000000E+00  0.00000000E+00
  0.00000000E+00  0.00000000E+00  0.00000000E+00
  0.00000000E+00  0.00000000E+00  0.00000000E+00
  0.00000000E+00  0.00000000E+00  0.00000000E+00
  0.00000000E+00  0.00000000E+00  0.00000000E+00
  0.00000000E+00  0.00000000E+00  0.00000000E+00
