In Ga Cl                                
   1.00000000000000     
    10.2333619999999996  -10.2333619999999996    0.0000000000000000
    10.2333619999999996   10.2333619999999996    0.0000000000000000
     0.0000000000000000    0.0000000000000000   20.4667239999999993
   In   Ga   Cl
    32    32    96
Direct
  0.9991305734243778  0.0424447466180687  0.9763799499587528
  0.9862494748845163  0.9873027974251747  0.2262458336691839
 -0.0000310787925315 -0.0139797860857883  0.4900373411127669
  0.9472865468989788 -0.0145727068975644  0.7442041797175318
  0.5152187791789334 -0.0137070971889539  0.9989155827084489
  0.5208554589438823  0.9835409942316418  0.2536681592937801
  0.5378200304569049  0.9841106815726163  0.4844729367817379
  0.5143824944810180  0.0074159353996829  0.7095961085982708
  0.2962961252011548  0.2512753500529368  0.0086710048130679
  0.2374628491074918  0.3099340322590344  0.2586430160256011
  0.2036416740001081  0.2277114030865924  0.5348580213850429
  0.2960739181734528  0.2188297078563304  0.7647673339886137
 -0.0011758951323316  0.4825265225494764  0.0119385197511394
  0.9793409813462088  0.5012315332261223  0.2755846536102696
  0.9580108506760806  0.5355529122521295  0.4988987107636197
  0.9849966329531362  0.5061367897258411  0.7215276621176796
  0.7150109133425481  0.2357886065621764  0.0329528061287401
  0.7753825332526194  0.2295568695908932  0.2234375946339135
  0.7641009149098117  0.2392361574136039  0.5173169688748640
  0.7226626806434647  0.2515857279729365  0.7547655180169371
  0.5396685393278192  0.5076358269426848  0.9805390562710598
  0.5004245720522933  0.5136504125762094  0.2325735458937070
  0.5079547727147593  0.5355312918842914  0.4913794529827208
  0.4917568484602217  0.5245011082120831  0.7669043227848460
  0.2112754069601556  0.8064145992767856  0.0026914603154100
  0.2454342010244837  0.7374193054940971  0.2684557898813877
  0.2661011964512466  0.7904702063818344  0.4870161166140266
  0.2554775704047377  0.7784881136108556  0.7761852856552754
  0.7626934760203573  0.7336002385710382  0.9877662918578317
  0.7793095179874954  0.7438305395538285  0.2417981630354067
  0.7704740538611953  0.7714459037168555  0.5080379950641128
  0.7146739760052501  0.7075781829002791  0.7378387761457014
  0.0170446848466206  0.2467839909541355  0.1173612124108523
  0.0118009898104522  0.2466575377309337  0.3809295047167721
  0.9996895041970763  0.2577553401142549  0.6307825231269597
  0.9940281317489983  0.2915936579218129  0.8712494734765921
  0.4926197156978308  0.2539049010338627  0.1693187336536614
  0.4875838446972273  0.2405551942642892  0.3693072420968082
  0.4801855566983855  0.2706814958170421  0.5711193283036884
  0.5096423362880673  0.2477750748974142  0.8857532296145747
  0.2322614767581692  0.5057065408019519  0.1303527349513565
  0.2658942471192092  0.4965451847935051  0.4066166673773230
  0.2531629417898096  0.4645674656028075  0.6507088842000761
  0.2517283418774439  0.4958810220467953  0.8766269447386789
  0.0107670732568424  0.7373197505841126  0.1052706608548976
  0.0163778651052563  0.7367739745299271  0.3745805574300541
  0.0145249728039502  0.7428162796470812  0.6259069193007915
  0.0135038447854277  0.7535467830370896  0.8744095155886524
  0.7624291943819322  0.4910331020978936  0.1315128154819806
  0.7050825368673111  0.4245728129748255  0.3720633259995615
  0.7393922480343066  0.4973238821083001  0.6177062697070085
  0.7738897309372709  0.4894403801155522  0.8745104802718615
  0.4874747680902212  0.7537513613987522  0.1122166031821949
  0.5133755437597616  0.7454573956068120  0.3601148163799884
  0.4906919128067466  0.7616193559604060  0.6085848816579417
  0.4953266442835307  0.7525433983369118  0.8718827376444510
  0.2447282930785480  0.0154850479860072  0.1389570542743067
  0.2775965652332436  0.0438604598499201  0.3653231749639139
  0.2344601636768339  0.0046924444634893  0.6369902369321471
  0.2452358342224500  0.0233342534680561  0.8783936338427865
  0.7505817787761019  0.9874258365628324  0.1123328491668838
  0.7742771113400220  0.0017627276655492  0.3649976900768680
  0.7449144034881563  0.0062384993928691  0.6168027285706227
  0.7344520385034146  0.9775380868066346  0.8628789093712630
  0.0600909643081140  0.2773159707452492  0.9859744132816375
  0.9947314452687008  0.2751567838521101  0.2686160718148811
 -0.0144837636650145  0.2025122757023662  0.4913734915358398
  0.9344224911025277  0.3005539155374866  0.7619619123305922
  0.5062345301122162  0.2845088569682809  0.0003038177582963
  0.3997550370006450  0.1660204822251405  0.2845602914567065
  0.5748321337012546  0.3163764870314636  0.4521366270671829
  0.5044791252267282  0.2060726158791885  0.7725315770172845
  0.2180777411894826  0.4893260008177672  0.0147756312630545
  0.2585740602963036  0.5220480578024745  0.2500866455626987
  0.3001589561342563  0.4238097520045944  0.5460926018668014
  0.2765869150038722  0.5692027049334216  0.7332248594573573
  0.9729984397840442  0.8194354603425495  0.9746014769794996
  0.0111307863450361  0.7405990732046840  0.2604632099657659
  0.9956133448904924  0.7636278205375050  0.4882708842648816
  0.9953455945354645  0.7356393013236683  0.7629414466427477
  0.7557477677303127  0.5197351575732614  0.0153905704874519
  0.7822058396867001  0.4542584131113258  0.2453585365669287
  0.7325988672811163  0.5178645612608515  0.5038021160137547
  0.7631661017099668  0.4902703643671166  0.7338986012628351
  0.5493802866386568  0.7609397576185756  0.0017327579970063
  0.4497431570351437  0.7312724452410125  0.2251938883552978
  0.5498226837821129  0.7407385249750726  0.4989755687957565
  0.4729057251702601  0.7515081993337569  0.7219885942593349
  0.2098728345161958  0.0287955473263747  0.0239717299153393
  0.3029597023634362  0.9544264086151064  0.2355741925714710
  0.2156811828248018  0.0096740298084278  0.5222631776349045
  0.2987215555465061  0.9784321226401165  0.7430853591710089
  0.7347156432875023  0.9608879452014851  0.9770767906210913
  0.7561121081218944  0.0069945447132972  0.2502102986908002
  0.7714158159920804  0.0098306467268349  0.4811517425329065
  0.7207849155504856  0.0282031448271672  0.7514631266653781
  0.1549871160570560  0.1276257724587645  0.1821321742175763
  0.0620327701330489  0.0990436360079425  0.3604214377706071
  0.1107817690019261  0.0904514432777516  0.6670227239083787
  0.0797485539656305  0.1679101597890545  0.8462312731902005
  0.6117213488113407  0.1280112817523238  0.1432734809016193
  0.5826590882691262  0.1084770788610586  0.3725245315301378
  0.5979090979381393  0.1328017652452079  0.5942823220975813
  0.6414480785919511  0.1586719577574617  0.9016607407078695
  0.3448178300568627  0.3957340948711001  0.1309379538286708
  0.3963309349012271  0.3753704552012728  0.3550284945092948
  0.3872667415023654  0.3814154242153955  0.6881841519012435
  0.3735077569330999  0.3437863527179905  0.8736328776780689
  0.2132661947602542  0.6597480519136153  0.1263217012954657
  0.1112390379911864  0.6121944374778411  0.3883302356972087
  0.1345021559341315  0.5539897000754850  0.6045765611478523
  0.1431497393333640  0.6699164732494288  0.8945717310075478
  0.8658088996212269  0.3645342208180662  0.1052451318210581
  0.9160500788755640  0.3740422050131308  0.4010370986391864
  0.8816544136916797  0.4055938497290712  0.6031767508740128
  0.8534376532709753  0.3003321546067929  0.9167123522240099
  0.6655352829004876  0.6152312952662509  0.1560613494117592
  0.6037346984613099  0.5742916463045435  0.3556890840537816
  0.6044303322786576  0.5878596740944471  0.6342939501671687
  0.6520935579840862  0.6284976330632623  0.8726784826373684
  0.3746055285362843  0.8559772327235282  0.0873049016050822
  0.3897146231774368  0.9053663211849288  0.3924877145102034
  0.4053088860287591  0.8922566487534310  0.5888127961642113
  0.3437385994747600  0.8775998750784632  0.9025155478552718
  0.8756123307955486  0.8473849756740345  0.1328646113687517
  0.9021920538032679  0.9104999581494180  0.3615202812925005
  0.8970418379458058  0.8790318446040554  0.6200484305548620
  0.8094322275027293  0.8438716554353700  0.8390937289333467
  0.8973072915961796  0.1044735337136641  0.1040658489099388
  0.8179514944024391  0.1553105358346273  0.3635185513126009
  0.8573621428225044  0.1493008609947255  0.6370699924403487
  0.8588544150027558  0.0764547442216131  0.8691752109435658
  0.3777064175002170  0.0967684626004709  0.1156307514385454
  0.3882696631530669  0.1760844500785188  0.4510738958959513
  0.3446508248051349  0.1229609411468713  0.6270516279877767
  0.4050230629628855  0.1213282476092337  0.9102984863051914
  0.0952438599107119  0.4348348640961600  0.1494955561704622
  0.1520051425067873  0.3170488395070630  0.3990246362863096
  0.1577038756894273  0.3592313550369912  0.6980846118244493
  0.0512225348713275  0.4355065173957721  0.8640795956392986
  0.8940864382835834  0.5921711749976557  0.1415746517105557
  0.8746183024129711  0.6581829278386336  0.3762147949322547
  0.8399004157716501  0.6352166666485528  0.6194427145489401
  0.9076946076601594  0.6346240561634449  0.8937897922086488
  0.6339549664865765  0.3902135815105024  0.1238083017126042
  0.5912318906819332  0.3045502427881890  0.2874042165338972
  0.6530846986755765  0.3611337097063612  0.6211284658736063
  0.6034630525257439  0.3797191487790541  0.8600131683533131
  0.4404298560328681  0.6078551827006260  0.0925041787228900
  0.3646102448459126  0.6481980889730112  0.3939899717308514
  0.3806232969872028  0.6527667170889215  0.5870447179344264
  0.3904424362939940  0.6042972003973164  0.8970441204224507
  0.1355531991158735  0.8935166508763374  0.1391399714184829
  0.1239181819644707  0.8570447795969206  0.3746814352599800
  0.1751337690471358  0.8558873022134846  0.6395073807490216
  0.0893420087722649  0.8978172716912771  0.8522947015152520
  0.6094537190545721  0.8435751468077929  0.1441660454140393
  0.6625125645470880  0.8877794914376826  0.3689997893204947
  0.6330589652713510  0.8367139189700575  0.6266608370451612
  0.5803835691646186  0.9379285956446055  0.8568928683133160
 
  0.00000000E+00  0.00000000E+00  0.00000000E+00
  0.00000000E+00  0.00000000E+00  0.00000000E+00
  0.00000000E+00  0.00000000E+00  0.00000000E+00
  0.00000000E+00  0.00000000E+00  0.00000000E+00
  0.00000000E+00  0.00000000E+00  0.00000000E+00
  0.00000000E+00  0.00000000E+00  0.00000000E+00
  0.00000000E+00  0.00000000E+00  0.00000000E+00
  0.00000000E+00  0.00000000E+00  0.00000000E+00
  0.00000000E+00  0.00000000E+00  0.00000000E+00
  0.00000000E+00  0.00000000E+00  0.00000000E+00
  0.00000000E+00  0.00000000E+00  0.00000000E+00
  0.00000000E+00  0.00000000E+00  0.00000000E+00
  0.00000000E+00  0.00000000E+00  0.00000000E+00
  0.00000000E+00  0.00000000E+00  0.00000000E+00
  0.00000000E+00  0.00000000E+00  0.00000000E+00
  0.00000000E+00  0.00000000E+00  0.00000000E+00
  0.00000000E+00  0.00000000E+00  0.00000000E+00
  0.00000000E+00  0.00000000E+00  0.00000000E+00
  0.00000000E+00  0.00000000E+00  0.00000000E+00
  0.00000000E+00  0.00000000E+00  0.00000000E+00
  0.00000000E+00  0.00000000E+00  0.00000000E+00
  0.00000000E+00  0.00000000E+00  0.00000000E+00
  0.00000000E+00  0.00000000E+00  0.00000000E+00
  0.00000000E+00  0.00000000E+00  0.00000000E+00
  0.00000000E+00  0.00000000E+00  0.00000000E+00
  0.00000000E+00  0.00000000E+00  0.00000000E+00
  0.00000000E+00  0.00000000E+00  0.00000000E+00
  0.00000000E+00  0.00000000E+00  0.00000000E+00
  0.00000000E+00  0.00000000E+00  0.00000000E+00
  0.00000000E+00  0.00000000E+00  0.00000000E+00
  0.00000000E+00  0.00000000E+00  0.00000000E+00
  0.00000000E+00  0.00000000E+00  0.00000000E+00
  0.00000000E+00  0.00000000E+00  0.00000000E+00
  0.00000000E+00  0.00000000E+00  0.00000000E+00
  0.00000000E+00  0.00000000E+00  0.00000000E+00
  0.00000000E+00  0.00000000E+00  0.00000000E+00
  0.00000000E+00  0.00000000E+00  0.00000000E+00
  0.00000000E+00  0.00000000E+00  0.00000000E+00
  0.00000000E+00  0.00000000E+00  0.00000000E+00
  0.00000000E+00  0.00000000E+00  0.00000000E+00
  0.00000000E+00  0.00000000E+00  0.00000000E+00
  0.00000000E+00  0.00000000E+00  0.00000000E+00
  0.00000000E+00  0.00000000E+00  0.00000000E+00
  0.00000000E+00  0.00000000E+00  0.00000000E+00
  0.00000000E+00  0.00000000E+00  0.00000000E+00
  0.00000000E+00  0.00000000E+00  0.00000000E+00
  0.00000000E+00  0.00000000E+00  0.00000000E+00
  0.00000000E+00  0.00000000E+00  0.00000000E+00
  0.00000000E+00  0.00000000E+00  0.00000000E+00
  0.00000000E+00  0.00000000E+00  0.00000000E+00
  0.00000000E+00  0.00000000E+00  0.00000000E+00
  0.00000000E+00  0.00000000E+00  0.00000000E+00
  0.00000000E+00  0.00000000E+00  0.00000000E+00
  0.00000000E+00  0.00000000E+00  0.00000000E+00
  0.00000000E+00  0.00000000E+00  0.00000000E+00
  0.00000000E+00  0.00000000E+00  0.00000000E+00
  0.00000000E+00  0.00000000E+00  0.00000000E+00
  0.00000000E+00  0.00000000E+00  0.00000000E+00
  0.00000000E+00  0.00000000E+00  0.00000000E+00
  0.00000000E+00  0.00000000E+00  0.00000000E+00
  0.00000000E+00  0.00000000E+00  0.00000000E+00
  0.00000000E+00  0.00000000E+00  0.00000000E+00
  0.00000000E+00  0.00000000E+00  0.00000000E+00
  0.00000000E+00  0.00000000E+00  0.00000000E+00
  0.00000000E+00  0.00000000E+00  0.00000000E+00
  0.00000000E+00  0.00000000E+00  0.00000000E+00
  0.00000000E+00  0.00000000E+00  0.00000000E+00
  0.00000000E+00  0.00000000E+00  0.00000000E+00
  0.00000000E+00  0.00000000E+00  0.00000000E+00
  0.00000000E+00  0.00000000E+00  0.00000000E+00
  0.00000000E+00  0.00000000E+00  0.00000000E+00
  0.00000000E+00  0.00000000E+00  0.00000000E+00
  0.00000000E+00  0.00000000E+00  0.00000000E+00
  0.00000000E+00  0.00000000E+00  0.00000000E+00
  0.00000000E+00  0.00000000E+00  0.00000000E+00
  0.00000000E+00  0.00000000E+00  0.00000000E+00
  0.00000000E+00  0.00000000E+00  0.00000000E+00
  0.00000000E+00  0.00000000E+00  0.00000000E+00
  0.00000000E+00  0.00000000E+00  0.00000000E+00
  0.00000000E+00  0.00000000E+00  0.00000000E+00
  0.00000000E+00  0.00000000E+00  0.00000000E+00
  0.00000000E+00  0.00000000E+00  0.00000000E+00
  0.00000000E+00  0.00000000E+00  0.00000000E+00
  0.00000000E+00  0.00000000E+00  0.00000000E+00
  0.00000000E+00  0.00000000E+00  0.00000000E+00
  0.00000000E+00  0.00000000E+00  0.00000000E+00
  0.00000000E+00  0.00000000E+00  0.00000000E+00
  0.00000000E+00  0.00000000E+00  0.00000000E+00
  0.00000000E+00  0.00000000E+00  0.00000000E+00
  0.00000000E+00  0.00000000E+00  0.00000000E+00
  0.00000000E+00  0.00000000E+00  0.00000000E+00
  0.00000000E+00  0.00000000E+00  0.00000000E+00
  0.00000000E+00  0.00000000E+00  0.00000000E+00
  0.00000000E+00  0.00000000E+00  0.00000000E+00
  0.00000000E+00  0.00000000E+00  0.00000000E+00
  0.00000000E+00  0.00000000E+00  0.00000000E+00
  0.00000000E+00  0.00000000E+00  0.00000000E+00
  0.00000000E+00  0.00000000E+00  0.00000000E+00
  0.00000000E+00  0.00000000E+00  0.00000000E+00
  0.00000000E+00  0.00000000E+00  0.00000000E+00
  0.00000000E+00  0.00000000E+00  0.00000000E+00
  0.00000000E+00  0.00000000E+00  0.00000000E+00
  0.00000000E+00  0.00000000E+00  0.00000000E+00
  0.00000000E+00  0.00000000E+00  0.00000000E+00
  0.00000000E+00  0.00000000E+00  0.00000000E+00
  0.00000000E+00  0.00000000E+00  0.00000000E+00
  0.00000000E+00  0.00000000E+00  0.00000000E+00
  0.00000000E+00  0.00000000E+00  0.00000000E+00
  0.00000000E+00  0.00000000E+00  0.00000000E+00
  0.00000000E+00  0.00000000E+00  0.00000000E+00
  0.00000000E+00  0.00000000E+00  0.00000000E+00
  0.00000000E+00  0.00000000E+00  0.00000000E+00
  0.00000000E+00  0.00000000E+00  0.00000000E+00
  0.00000000E+00  0.00000000E+00  0.00000000E+00
  0.00000000E+00  0.00000000E+00  0.00000000E+00
  0.00000000E+00  0.00000000E+00  0.00000000E+00
  0.00000000E+00  0.00000000E+00  0.00000000E+00
  0.00000000E+00  0.00000000E+00  0.00000000E+00
  0.00000000E+00  0.00000000E+00  0.00000000E+00
  0.00000000E+00  0.00000000E+00  0.00000000E+00
  0.00000000E+00  0.00000000E+00  0.00000000E+00
  0.00000000E+00  0.00000000E+00  0.00000000E+00
  0.00000000E+00  0.00000000E+00  0.00000000E+00
  0.00000000E+00  0.00000000E+00  0.00000000E+00
  0.00000000E+00  0.00000000E+00  0.00000000E+00
  0.00000000E+00  0.00000000E+00  0.00000000E+00
  0.00000000E+00  0.00000000E+00  0.00000000E+00
  0.00000000E+00  0.00000000E+00  0.00000000E+00
  0.00000000E+00  0.00000000E+00  0.00000000E+00
  0.00000000E+00  0.00000000E+00  0.00000000E+00
  0.00000000E+00  0.00000000E+00  0.00000000E+00
  0.00000000E+00  0.00000000E+00  0.00000000E+00
  0.00000000E+00  0.00000000E+00  0.00000000E+00
  0.00000000E+00  0.00000000E+00  0.00000000E+00
  0.00000000E+00  0.00000000E+00  0.00000000E+00
  0.00000000E+00  0.00000000E+00  0.00000000E+00
  0.00000000E+00  0.00000000E+00  0.00000000E+00
  0.00000000E+00  0.00000000E+00  0.00000000E+00
  0.00000000E+00  0.00000000E+00  0.00000000E+00
  0.00000000E+00  0.00000000E+00  0.00000000E+00
  0.00000000E+00  0.00000000E+00  0.00000000E+00
  0.00000000E+00  0.00000000E+00  0.00000000E+00
  0.00000000E+00  0.00000000E+00  0.00000000E+00
  0.00000000E+00  0.00000000E+00  0.00000000E+00
  0.00000000E+00  0.00000000E+00  0.00000000E+00
  0.00000000E+00  0.00000000E+00  0.00000000E+00
  0.00000000E+00  0.00000000E+00  0.00000000E+00
  0.00000000E+00  0.00000000E+00  0.00000000E+00
  0.00000000E+00  0.00000000E+00  0.00000000E+00
  0.00000000E+00  0.00000000E+00  0.00000000E+00
  0.00000000E+00  0.00000000E+00  0.00000000E+00
  0.00000000E+00  0.00000000E+00  0.00000000E+00
  0.00000000E+00  0.00000000E+00  0.00000000E+00
  0.00000000E+00  0.00000000E+00  0.00000000E+00
  0.00000000E+00  0.00000000E+00  0.00000000E+00
  0.00000000E+00  0.00000000E+00  0.00000000E+00
  0.00000000E+00  0.00000000E+00  0.00000000E+00
  0.00000000E+00  0.00000000E+00  0.00000000E+00
  0.00000000E+00  0.00000000E+00  0.00000000E+00
  0.00000000E+00  0.00000000E+00  0.00000000E+00
