Cs Zn F                                 
   1.00000000000000     
     8.5830430000000000   -8.5830430000000000    0.0000000000000000
     8.5830430000000000    8.5830430000000000    0.0000000000000000
     0.0000000000000000    0.0000000000000000   17.1660860000000000
   Cs   F    Zn
    32    96    32
Direct
 -0.0002398534773797 -0.0002553610894893  0.9991482866358388
 -0.0008063451800623 -0.0007378406119156  0.2491464241743375
 -0.0001603301897881 -0.0002905742993029  0.4990200367596646
 -0.0000148147614809  0.0001898077216170  0.7490673658603444
  0.4996398431567250 -0.0001338258955853  0.9991508572504685
  0.5001446457150435  0.0000266278600068  0.2491040815783356
  0.4997702794890799 -0.0000743350576964  0.4991117379310070
  0.4994977318307195 -0.0006769203065321  0.7490223961856712
  0.2498784017635490  0.2497385172300511  0.9991623739270218
  0.2500443131508496  0.2501577316824478  0.2490996846403361
  0.2499370618229582  0.2497443272582446  0.4990664696038649
  0.2493800017899266  0.2495782633529132  0.7490083042500629
  0.9998442670801235  0.4998837685458262 -0.0009434410583100
  0.0002071034182454  0.5000239387370802  0.2490467078410833
 -0.0003417522177277  0.4998138247658478  0.4990183536056542
 -0.0005047374904227  0.4993768947135138  0.7490054353933939
  0.7496894825269811  0.2498070873963243  0.9990891965100293
  0.7494021184793723  0.2492661860891354  0.2491052076597006
  0.7497400949696967  0.2498573956170592  0.4990512961918150
  0.7501387780402661  0.2499466087386794  0.7490551954753879
  0.4998858353734935  0.4996945445140331 -0.0009252049426737
  0.4992407638668181  0.4994972401219144  0.2490959329615698
  0.4998485550550253  0.4997108853663010  0.4990128761462800
  0.4999674584655847  0.5000475255048030  0.7490244369481959
  0.2497885026672363  0.7498969615106037  0.9991183620542545
  0.2493381184778602  0.7492011847610031  0.2490784332671382
  0.2496454615959588  0.7498637426702491  0.4989668006161675
  0.2501394878414271  0.7500384322895736  0.7490099268605304
  0.7498883170312475  0.7498137252907373 -0.0009890879832023
  0.7499924846427034  0.7501887058095268  0.2490885981690398
  0.7497947647091836  0.7496594858787264  0.4990517652129828
  0.7494251846476591  0.7495043764385088  0.7490383852106683
 -0.0002661743770786  0.2496792834245914  0.0047526941579850
 -0.0003117836196765  0.2497003180457426  0.2434841889702208
 -0.0001947017114299  0.2497824914414949  0.5055994359348609
 -0.0001829144566733  0.2498217529812784  0.7419892759985026
  0.4996870164077344  0.2496155684655024 -0.0062982911692685
  0.4997250957569715  0.2498159543833916  0.2558015762723087
  0.4999022732322655  0.2498362572299740  0.4923642695033111
  0.4997865921643100  0.2496867755577707  0.7544983951654887
  0.2497166305416761  0.4998359610081522  0.0052179485533000
  0.2497499974137824  0.4997819200975114  0.2424903625761772
  0.2497430379198146  0.4997393284925010  0.5044346139734043
  0.2496875400632770  0.4997874564609647  0.7436376902161063
 -0.0001943086138371  0.7498135325142159 -0.0062828848816515
 -0.0003815942974944  0.7496351700983541  0.2557813437894008
 -0.0002552711902363  0.7498003782315141  0.4924784529889698
 -0.0001443539484325  0.7498657035811626  0.7541813546128634
  0.7499637710334545  0.4999274780293954 -0.0076896404405700
  0.7497587732740861  0.4998174496168918  0.2543013997290023
  0.7498030120393286  0.4997336217222913  0.4933382317420321
  0.7497549634368559  0.4997281592899561  0.7560277133724144
  0.4997224237617721  0.7497523571455349  0.0047686940845810
  0.4997043544816238  0.7498275577002951  0.2434043486909898
  0.4997139847614938  0.7498119882860197  0.5057094027403313
  0.4997215087665707  0.7496364909702894  0.7419879340288060
  0.2496013542410523  0.9997294054346855  0.9924367419531223
  0.2497989120032847 -0.0002145130596243  0.2543435535387771
  0.2497217779643952 -0.0002736889445222  0.4933656368702256
  0.2496744174502786 -0.0002413594159525  0.7559045024336777
  0.7496767615159288 -0.0002573999214287  0.0053039125498150
  0.7497716926663518 -0.0002448340324013  0.2425666864977100
  0.7499043040915576 -0.0001967076682875  0.5045514157352821
  0.7497952339018528 -0.0002427653469931  0.7436595247907187
  0.1327708603825417  0.1165779702392189  0.1241209896769004
  0.1167635993297201  0.1327178270763825  0.3739358899889534
  0.1294314186248056  0.1201237543135084  0.6239234138649024
  0.1201556947427680  0.1292534833469425  0.8740604796891024
  0.6209696516537778  0.1285117640734027  0.1240834338984797
  0.6289321386246561  0.1206971256273392  0.3742055386061463
  0.6170606201372408  0.1324915123827371  0.6240264548442119
  0.6324143327307847  0.1169890280461761  0.8741243653229703
  0.3784979464033760  0.3709938012945916  0.1239183146231051
  0.3705933837276967  0.3789070536977431  0.3741673046536237
  0.3824804829056221  0.3669727360179837  0.6239932132068616
  0.3670120204689165  0.3824011822033407  0.8741542070582092
  0.1209543150795553  0.6287569044583510  0.1239392908085468
  0.1286725419855357  0.6206306297414750  0.3741470917135165
  0.1171580258323818  0.6323221614764486  0.6238867165216493
  0.1324786866513545  0.6172751625892091  0.8740256259832083
  0.8665532362216581  0.3829224954637485  0.1240295410755082
  0.8827636843488103  0.3666959018881675  0.3738703089242857
  0.8700607756446075  0.3794285376233869  0.6239411985817098
  0.8793104756281183  0.3701674230293645  0.8741539832383662
  0.6329928866678218  0.6165645365400239  0.1239878805083048
  0.6164675269246220  0.6329461861891452  0.3739036195565348
  0.6294092516952939  0.6199744747985951  0.6239914102880225
  0.6202545737251040  0.6292515583318373  0.8740810146819790
  0.3665811873834695  0.8829757991727848  0.1241292254207530
  0.3827558328082907  0.8667854072594163  0.3739584575962805
  0.3700848129287934  0.8794247599415548  0.6239084079981145
  0.3792514877024623  0.8702741856592603  0.8740736661617973
  0.8785494913120266  0.8709692500411503  0.1240225432949469
  0.8705981802522095  0.8787866017819587  0.3741961981311579
  0.8822964830148915  0.8672419890223306  0.6240019530573225
  0.8671800863511846  0.8824476140741226  0.8740463966806952
  0.8771378456110437  0.1271933299858977  0.1240434229168724
  0.8724903363348785  0.1223983001744627  0.3741208403338013
  0.8726190410085042  0.1225988568825484  0.6239306239217011
  0.8769341792207114  0.1269226610683948  0.8741483433331031
  0.3775136758895659  0.1275175752395744  0.1242914131319973
  0.3722408318029026  0.1222609594482020  0.3739881278514643
  0.3727862254376418  0.1227290332086880  0.6241337911505881
  0.3769829971097669  0.1270488223945730  0.8740700796037509
  0.1222646161283956  0.3724081415542417  0.1239644130135359
  0.1270743887627857  0.3770773230866665  0.3740844025940834
  0.1270370625532365  0.3770156334988855  0.6238864342135139
  0.1226412087888690  0.3726539166976329  0.8741476928364339
  0.8774618423252164  0.6274871354166630  0.1242127823043153
  0.8721290498427398  0.6221584961298113  0.3739385633368376
  0.8727494139598158  0.6228205419253054  0.6241596475646665
  0.8773587951449202  0.6272373456003737  0.8739839607178463
  0.6220073856495599  0.3720715757698209  0.1241582986407245
  0.6273427418018742  0.3774320501295760  0.3738924406018750
  0.6268014007676613  0.3767311846787184  0.6241256105596221
  0.6223627960477077  0.3723556728150749  0.8741401398364425
  0.3772094203126752  0.6271534456747153  0.1239676965381574
  0.3722859782951253  0.6223946586091271  0.3740979603098347
  0.3724495015284587  0.6224651255113688  0.6238932961232414
  0.3769899207013753  0.6269790173157804  0.8741225929759513
  0.1221278625791154  0.8721819537370940  0.1243720229919676
  0.1272999321758799  0.8772956085970437  0.3738797451930395
  0.1266837403709987  0.8767636803692189  0.6241534617477016
  0.1223857288948578  0.8724202550016080  0.8740325383631601
  0.6223819310681721  0.8723062065912823  0.1240091456340305
  0.6271328919714236  0.8772191447691132  0.3741760593749712
  0.6270261357430295  0.8769513433305187  0.6240110222718296
  0.6225307583640060  0.8725835082996002  0.8741200417170657
 -0.0002574757203506  0.2496032548457179  0.1241255998303282
 -0.0001767511108258  0.2497692111069478  0.3734185454116780
 -0.0001819583116620  0.2496972033465384  0.6238094121991424
 -0.0001318848933310  0.2498313843445105  0.8750203744309839
  0.4998162562495310  0.2498241943121891  0.1233928667115412
  0.4996892675592852  0.2497262191796758  0.3740794926055210
  0.4998876980178971  0.2498382697071692  0.6249830285794310
  0.4996800924188898  0.2496602153228012  0.8740462113702460
  0.2497615183153098  0.4997469763281877  0.1238769810116764
  0.2496811765441380  0.4997810601558639  0.3748547722903890
  0.2495817585108954  0.4999248259139695  0.6239870493508578
  0.2498246201435395  0.4999062891935265  0.8735735884868110
 -0.0002328803679532  0.7498690072391505  0.1232798632920963
 -0.0003747112664637  0.7496899763533743  0.3740906056397671
 -0.0001265802922457  0.7499248145945354  0.6249804864141075
 -0.0002046966138977  0.7497652029371507  0.8739141187532753
  0.7499262604189997  0.4999245943508326  0.1250407471918311
  0.7498136927384281  0.4996816081340780  0.3738512569101822
  0.7498329343206552  0.4997891598232576  0.6232934468018259
  0.7497356889016374  0.4996457462650191  0.8741030736155904
  0.4997280070480400  0.7496875937796040  0.1240889820432291
  0.4997192446639300  0.7499053215345864  0.3734232216235708
  0.4997433280086122  0.7497272302260605  0.6238721484216575
  0.4998011733948031  0.7497954953107947  0.8749906648046283
  0.2496938846791930 -0.0003149009694993  0.1251396428533195
  0.2496829917601430 -0.0001898312009443  0.3738849306149552
  0.2498409253193120 -0.0001576212191064  0.6232926913253264
  0.2496512120630545 -0.0002726820954406  0.8741004826919423
  0.7496124976182240 -0.0002632766015178  0.1239531993632352
  0.7497802888859532 -0.0001911659374507  0.3748739558062175
  0.7499590729779092 -0.0004381978087707  0.6240355533725110
  0.7498544689696077 -0.0001765238105423  0.8735785789062823
 
  0.00000000E+00  0.00000000E+00  0.00000000E+00
  0.00000000E+00  0.00000000E+00  0.00000000E+00
  0.00000000E+00  0.00000000E+00  0.00000000E+00
  0.00000000E+00  0.00000000E+00  0.00000000E+00
  0.00000000E+00  0.00000000E+00  0.00000000E+00
  0.00000000E+00  0.00000000E+00  0.00000000E+00
  0.00000000E+00  0.00000000E+00  0.00000000E+00
  0.00000000E+00  0.00000000E+00  0.00000000E+00
  0.00000000E+00  0.00000000E+00  0.00000000E+00
  0.00000000E+00  0.00000000E+00  0.00000000E+00
  0.00000000E+00  0.00000000E+00  0.00000000E+00
  0.00000000E+00  0.00000000E+00  0.00000000E+00
  0.00000000E+00  0.00000000E+00  0.00000000E+00
  0.00000000E+00  0.00000000E+00  0.00000000E+00
  0.00000000E+00  0.00000000E+00  0.00000000E+00
  0.00000000E+00  0.00000000E+00  0.00000000E+00
  0.00000000E+00  0.00000000E+00  0.00000000E+00
  0.00000000E+00  0.00000000E+00  0.00000000E+00
  0.00000000E+00  0.00000000E+00  0.00000000E+00
  0.00000000E+00  0.00000000E+00  0.00000000E+00
  0.00000000E+00  0.00000000E+00  0.00000000E+00
  0.00000000E+00  0.00000000E+00  0.00000000E+00
  0.00000000E+00  0.00000000E+00  0.00000000E+00
  0.00000000E+00  0.00000000E+00  0.00000000E+00
  0.00000000E+00  0.00000000E+00  0.00000000E+00
  0.00000000E+00  0.00000000E+00  0.00000000E+00
  0.00000000E+00  0.00000000E+00  0.00000000E+00
  0.00000000E+00  0.00000000E+00  0.00000000E+00
  0.00000000E+00  0.00000000E+00  0.00000000E+00
  0.00000000E+00  0.00000000E+00  0.00000000E+00
  0.00000000E+00  0.00000000E+00  0.00000000E+00
  0.00000000E+00  0.00000000E+00  0.00000000E+00
  0.00000000E+00  0.00000000E+00  0.00000000E+00
  0.00000000E+00  0.00000000E+00  0.00000000E+00
  0.00000000E+00  0.00000000E+00  0.00000000E+00
  0.00000000E+00  0.00000000E+00  0.00000000E+00
  0.00000000E+00  0.00000000E+00  0.00000000E+00
  0.00000000E+00  0.00000000E+00  0.00000000E+00
  0.00000000E+00  0.00000000E+00  0.00000000E+00
  0.00000000E+00  0.00000000E+00  0.00000000E+00
  0.00000000E+00  0.00000000E+00  0.00000000E+00
  0.00000000E+00  0.00000000E+00  0.00000000E+00
  0.00000000E+00  0.00000000E+00  0.00000000E+00
  0.00000000E+00  0.00000000E+00  0.00000000E+00
  0.00000000E+00  0.00000000E+00  0.00000000E+00
  0.00000000E+00  0.00000000E+00  0.00000000E+00
  0.00000000E+00  0.00000000E+00  0.00000000E+00
  0.00000000E+00  0.00000000E+00  0.00000000E+00
  0.00000000E+00  0.00000000E+00  0.00000000E+00
  0.00000000E+00  0.00000000E+00  0.00000000E+00
  0.00000000E+00  0.00000000E+00  0.00000000E+00
  0.00000000E+00  0.00000000E+00  0.00000000E+00
  0.00000000E+00  0.00000000E+00  0.00000000E+00
  0.00000000E+00  0.00000000E+00  0.00000000E+00
  0.00000000E+00  0.00000000E+00  0.00000000E+00
  0.00000000E+00  0.00000000E+00  0.00000000E+00
  0.00000000E+00  0.00000000E+00  0.00000000E+00
  0.00000000E+00  0.00000000E+00  0.00000000E+00
  0.00000000E+00  0.00000000E+00  0.00000000E+00
  0.00000000E+00  0.00000000E+00  0.00000000E+00
  0.00000000E+00  0.00000000E+00  0.00000000E+00
  0.00000000E+00  0.00000000E+00  0.00000000E+00
  0.00000000E+00  0.00000000E+00  0.00000000E+00
  0.00000000E+00  0.00000000E+00  0.00000000E+00
  0.00000000E+00  0.00000000E+00  0.00000000E+00
  0.00000000E+00  0.00000000E+00  0.00000000E+00
  0.00000000E+00  0.00000000E+00  0.00000000E+00
  0.00000000E+00  0.00000000E+00  0.00000000E+00
  0.00000000E+00  0.00000000E+00  0.00000000E+00
  0.00000000E+00  0.00000000E+00  0.00000000E+00
  0.00000000E+00  0.00000000E+00  0.00000000E+00
  0.00000000E+00  0.00000000E+00  0.00000000E+00
  0.00000000E+00  0.00000000E+00  0.00000000E+00
  0.00000000E+00  0.00000000E+00  0.00000000E+00
  0.00000000E+00  0.00000000E+00  0.00000000E+00
  0.00000000E+00  0.00000000E+00  0.00000000E+00
  0.00000000E+00  0.00000000E+00  0.00000000E+00
  0.00000000E+00  0.00000000E+00  0.00000000E+00
  0.00000000E+00  0.00000000E+00  0.00000000E+00
  0.00000000E+00  0.00000000E+00  0.00000000E+00
  0.00000000E+00  0.00000000E+00  0.00000000E+00
  0.00000000E+00  0.00000000E+00  0.00000000E+00
  0.00000000E+00  0.00000000E+00  0.00000000E+00
  0.00000000E+00  0.00000000E+00  0.00000000E+00
  0.00000000E+00  0.00000000E+00  0.00000000E+00
  0.00000000E+00  0.00000000E+00  0.00000000E+00
  0.00000000E+00  0.00000000E+00  0.00000000E+00
  0.00000000E+00  0.00000000E+00  0.00000000E+00
  0.00000000E+00  0.00000000E+00  0.00000000E+00
  0.00000000E+00  0.00000000E+00  0.00000000E+00
  0.00000000E+00  0.00000000E+00  0.00000000E+00
  0.00000000E+00  0.00000000E+00  0.00000000E+00
  0.00000000E+00  0.00000000E+00  0.00000000E+00
  0.00000000E+00  0.00000000E+00  0.00000000E+00
  0.00000000E+00  0.00000000E+00  0.00000000E+00
  0.00000000E+00  0.00000000E+00  0.00000000E+00
  0.00000000E+00  0.00000000E+00  0.00000000E+00
  0.00000000E+00  0.00000000E+00  0.00000000E+00
  0.00000000E+00  0.00000000E+00  0.00000000E+00
  0.00000000E+00  0.00000000E+00  0.00000000E+00
  0.00000000E+00  0.00000000E+00  0.00000000E+00
  0.00000000E+00  0.00000000E+00  0.00000000E+00
  0.00000000E+00  0.00000000E+00  0.00000000E+00
  0.00000000E+00  0.00000000E+00  0.00000000E+00
  0.00000000E+00  0.00000000E+00  0.00000000E+00
  0.00000000E+00  0.00000000E+00  0.00000000E+00
  0.00000000E+00  0.00000000E+00  0.00000000E+00
  0.00000000E+00  0.00000000E+00  0.00000000E+00
  0.00000000E+00  0.00000000E+00  0.00000000E+00
  0.00000000E+00  0.00000000E+00  0.00000000E+00
  0.00000000E+00  0.00000000E+00  0.00000000E+00
  0.00000000E+00  0.00000000E+00  0.00000000E+00
  0.00000000E+00  0.00000000E+00  0.00000000E+00
  0.00000000E+00  0.00000000E+00  0.00000000E+00
  0.00000000E+00  0.00000000E+00  0.00000000E+00
  0.00000000E+00  0.00000000E+00  0.00000000E+00
  0.00000000E+00  0.00000000E+00  0.00000000E+00
  0.00000000E+00  0.00000000E+00  0.00000000E+00
  0.00000000E+00  0.00000000E+00  0.00000000E+00
  0.00000000E+00  0.00000000E+00  0.00000000E+00
  0.00000000E+00  0.00000000E+00  0.00000000E+00
  0.00000000E+00  0.00000000E+00  0.00000000E+00
  0.00000000E+00  0.00000000E+00  0.00000000E+00
  0.00000000E+00  0.00000000E+00  0.00000000E+00
  0.00000000E+00  0.00000000E+00  0.00000000E+00
  0.00000000E+00  0.00000000E+00  0.00000000E+00
  0.00000000E+00  0.00000000E+00  0.00000000E+00
  0.00000000E+00  0.00000000E+00  0.00000000E+00
  0.00000000E+00  0.00000000E+00  0.00000000E+00
  0.00000000E+00  0.00000000E+00  0.00000000E+00
  0.00000000E+00  0.00000000E+00  0.00000000E+00
  0.00000000E+00  0.00000000E+00  0.00000000E+00
  0.00000000E+00  0.00000000E+00  0.00000000E+00
  0.00000000E+00  0.00000000E+00  0.00000000E+00
  0.00000000E+00  0.00000000E+00  0.00000000E+00
  0.00000000E+00  0.00000000E+00  0.00000000E+00
  0.00000000E+00  0.00000000E+00  0.00000000E+00
  0.00000000E+00  0.00000000E+00  0.00000000E+00
  0.00000000E+00  0.00000000E+00  0.00000000E+00
  0.00000000E+00  0.00000000E+00  0.00000000E+00
  0.00000000E+00  0.00000000E+00  0.00000000E+00
  0.00000000E+00  0.00000000E+00  0.00000000E+00
  0.00000000E+00  0.00000000E+00  0.00000000E+00
  0.00000000E+00  0.00000000E+00  0.00000000E+00
  0.00000000E+00  0.00000000E+00  0.00000000E+00
  0.00000000E+00  0.00000000E+00  0.00000000E+00
  0.00000000E+00  0.00000000E+00  0.00000000E+00
  0.00000000E+00  0.00000000E+00  0.00000000E+00
  0.00000000E+00  0.00000000E+00  0.00000000E+00
  0.00000000E+00  0.00000000E+00  0.00000000E+00
  0.00000000E+00  0.00000000E+00  0.00000000E+00
  0.00000000E+00  0.00000000E+00  0.00000000E+00
  0.00000000E+00  0.00000000E+00  0.00000000E+00
  0.00000000E+00  0.00000000E+00  0.00000000E+00
  0.00000000E+00  0.00000000E+00  0.00000000E+00
  0.00000000E+00  0.00000000E+00  0.00000000E+00
  0.00000000E+00  0.00000000E+00  0.00000000E+00
  0.00000000E+00  0.00000000E+00  0.00000000E+00
  0.00000000E+00  0.00000000E+00  0.00000000E+00
  0.00000000E+00  0.00000000E+00  0.00000000E+00
