Cs I Hg                                 
   1.00000000000000     
    12.1797219999999999  -12.1797219999999999    0.0000000000000000
    12.1797219999999999   12.1797219999999999    0.0000000000000000
     0.0000000000000000    0.0000000000000000   24.3594429999999988
   Cs   Hg   I 
    32    32    96
Direct
  0.0238168911683355  0.9712148061245751  0.9871543834926947
  0.9805443280041709  0.0297895040843761  0.2714240302208786
  0.9989153253932735  0.0014314447076154  0.5065192672147322
  0.0359445423680575  0.9880618774986947  0.7503435422593305
  0.4872564503349135  0.0456818855263421  0.0115498128619102
  0.5117205872624513  0.0131859894054770  0.2232757308440500
  0.4967037486942648  0.9563597796611216  0.4967105715933061
  0.4977120596592599  0.0080238191950203  0.7583313077501815
  0.2433892922533578  0.2246071412419820  0.9993598607895575
  0.2319130634994391  0.2562293539386354  0.2632326143754009
  0.2170231688601795  0.2549248609844887  0.5052141213745772
  0.2612729212768812  0.2332196018884019  0.7678161717309551
  0.0352590877379173  0.4525183275602785  0.9982164393674160
  0.9649884917125228  0.5146262369569007  0.2726748734455974
  0.9526328270718679  0.5411947483209457  0.5046712538950445
 -0.0007967736295009  0.5113751796278042  0.7262429831138990
  0.7885303533333428  0.2850225375106263  0.0027731137954693
  0.7717469480400846  0.2567923494071933  0.2496411727467142
  0.7538591418209030  0.2414284741171334  0.5110204505156232
  0.7712861656282961  0.2760678371695947  0.7414305029371534
  0.5106586204895993  0.4945943263167711  0.9738680999279394
  0.5202547390396070  0.5146069898720841  0.2348709798751910
  0.4953310233405066  0.4676937443629429  0.4811384666437177
  0.4837044688311766  0.4554510259976136  0.7259990206383224
  0.2407612033713046  0.7133363567447732  0.9942545978101389
  0.2242887817278432  0.7720157109181048  0.2772362769930480
  0.2565070265104376  0.7188957727464356  0.4955838745395301
  0.2462304210999355  0.7260599881506710  0.7583084998402816
  0.7662300664571472  0.7661666605153084  0.0028402472070667
  0.7681911922891467  0.7907224058822577  0.2465680500234091
  0.7263785721829713  0.7588032705436232  0.5054370850590872
  0.7157754816145294  0.7553569240544733  0.7460101578511028
  0.0138218888615735  0.2414559944444562  0.1323973847655391
  0.0015742984409812  0.2523476463252333  0.3750725597006867
  0.0006431502944855  0.2353940821823696  0.6344606205562719
  0.9763119910320084  0.2130245338826848  0.8809793433926860
  0.4846640550297180  0.2859418555049090  0.1229659372044720
  0.4880284118496920  0.2519511656479461  0.3622786617855323
  0.4958006981021272  0.2465461634095734  0.5947572926610024
  0.5240099654416998  0.2376941411019745  0.8553511832544617
  0.2767296659820189  0.5291508672611214  0.1182129031601842
  0.2400584253480469  0.4788143596660706  0.3668568931235630
  0.2471793736333110  0.4698844545937013  0.6225768419780815
  0.2577364600545275  0.4927976332968276  0.8685860921217531
  0.0299256938360261  0.7232408529388393  0.1353985482360098
  0.9814166961513737  0.7319684812294061  0.3766014135662405
  0.9844275931426306  0.7502807141860676  0.6177603470263969
  0.0233685144572378  0.7384688920515240  0.8777786938629328
  0.7586990456417819  0.4972762873068313  0.1043975856771077
  0.7304048146687847  0.4935755263387330  0.3605132990156066
  0.7483060676175637  0.4984107691111424  0.6217349384743104
  0.7748846336873129  0.5121572203342616  0.8786448433029833
  0.5083459335271420  0.7351819101316304  0.1289679035774513
  0.4793855729831912  0.7566685788616101  0.3827388491907359
  0.4884666551012805  0.7512034076384034  0.6302691604331568
  0.5225995514913010  0.7858422830404210  0.8779334313413879
  0.2578728835489866  0.0114787929917793  0.1407501200093434
  0.2430419541274865  0.9775657338108721  0.3807901760165696
  0.2502250902811487  0.0077008152944548  0.6091126738012234
  0.2786828285413286  0.9854937044063237  0.8796933675353618
  0.7374396720727735  0.9950876988104629  0.1011545338751547
  0.7288160968075802  0.0061603225633103  0.3640255282894975
  0.7439987119625296  0.0043666664385221  0.6330100884781542
  0.7779253883864113  0.9883524675339431  0.8916871446462067
  0.0073123793851320  0.2206805743873924  0.9984493072058076
  0.0019903689682769  0.2923658717181918  0.2578771310374496
  0.9896221856429328  0.2247161769690388  0.5222551310343840
  0.0242544570799670  0.2884595840640164  0.7389371519057937
  0.4590089629861977  0.2767573066446110  0.0136006264583483
  0.5475803475414869  0.2739465881625743  0.2245353568985737
  0.4384183917164451  0.2390890305076748  0.4827821216686178
  0.5488211815344877  0.2264389874585087  0.7412696174007022
  0.2843598441762664  0.4868946375544252  0.0066339001935585
  0.1896687905473523  0.4964144939370243  0.2635197793947534
  0.2710654177296772  0.4925017795674708  0.4750709440203458
  0.2268065193155992  0.4879955597887155  0.7423727873816817
  0.9880220647792796  0.7413439142856751  0.9897538782437607
  0.0002134625541354  0.8005531016181118  0.2708598392448161
  0.9521262925611005  0.7742743026809091  0.4922525727884844
  0.0178461514840778  0.7439974533620753  0.7628514589451295
  0.8224024555931089  0.5453458676109614  0.9937129544153713
  0.7452490958929386  0.4761311730712092  0.2427422448641131
  0.7152323514490534  0.5375222761161375  0.5144396416174172
  0.7124648030360163  0.4903696356198343  0.7325573468406509
  0.4698829218304517  0.6970050828834971  0.0261391545564724
  0.5408299003472826  0.7760668057929673  0.2325379873365098
  0.4870600954959374  0.7164540655271775  0.4977302888566115
  0.4762201180022977  0.7857142087460587  0.7663880081739222
  0.2485293640767308  0.0040841433662932  0.9919083502931213
  0.2112798653819355  0.0048005400288357  0.2672789503529941
  0.2916752018989047  0.0418586267002723  0.4805077642873836
  0.2731466679417554  0.9761913526515154  0.7665565358441895
  0.8160389730523472  0.0558652143606707  0.9935843586536064
  0.7345878509504826  0.0229119682014103  0.2470105913858396
  0.7713005020505891  0.9901128452975977  0.5236142707231978
  0.7151668001739685  0.9872745932719936  0.7419806383136837
  0.1070584757619028  0.0598350719563652  0.1251501711399020
  0.1182018004075995  0.1339829612835305  0.3866917373223991
  0.1548725127518460  0.1401317316166584  0.6439936674037767
  0.1140719487159790  0.1249922115598158  0.8624270328968616
  0.6545978990741742  0.1332608084163110  0.1107006719677326
  0.6171982045445106  0.0941824560526213  0.4105875370870942
  0.6010133068433470  0.1194210197116252  0.5970951286994030
  0.6367408831738760  0.1721301451197784  0.9197666285485437
  0.3544628317259306  0.3948563978391243  0.1648224876398895
  0.3926778968814708  0.3928419826435593  0.3406248673243434
  0.3538714201852788  0.3103814850182483  0.6378418221927789
  0.4212058868014881  0.3642619873570379  0.8630621653062607
  0.1104932441778688  0.5611167118404009  0.1270314250513803
  0.1024067788372894  0.6243509037263818  0.3948054937687214
  0.1108105095305820  0.6529847063524422  0.6156276112490281
  0.1129786842436534  0.5894078251947632  0.8862609557934232
  0.8927321719400385  0.4049849619764125  0.1246619844691666
  0.8472360323551695  0.4026978902378974  0.4009370406639127
  0.8743341236978432  0.3865466489893395  0.6125763697778109
  0.9159522432621926  0.3659759634418649  0.8700706984469255
  0.6757477048003930  0.6374930734422625  0.1274828184948382
  0.6031255588369622  0.5854024251319933  0.3736284482631109
  0.5822596994831820  0.6268897333757473  0.6509262838262936
  0.6297250454292370  0.6685019033257670  0.8938981138028720
  0.3633884119196377  0.8929958104144808  0.1290323721151087
  0.3937471276574419  0.8974284144488246  0.3504961770758310
  0.3427325183838021  0.8113040321124303  0.6266498909780078
  0.3998469967924884  0.8630113162258968  0.9290745811739723
  0.8676165521971553  0.9048999753308770  0.1242546939840837
  0.8528443583456414  0.9112778059720330  0.3852874888108229
  0.9111056922323922  0.8865024289107769  0.6444348564729738
  0.8674936829134539  0.8613924190117896  0.8581584211750115
  0.8924776746627181  0.1435176823532004  0.1414397146521025
  0.8655674813016083  0.1615068638889069  0.3825045931712421
  0.8795229057317056  0.1171789942927057  0.6583490805997104
  0.8624520849349789  0.1135331534379541  0.8293733460923632
  0.3563589889323957  0.1467353926203441  0.1407152948825283
  0.3944216372937804  0.1339308865420525  0.3270437444264666
  0.3973599156986302  0.0593414347317219  0.6235973512551910
  0.3876411801930556  0.1258150495680676  0.8791621408657214
  0.1444006155858609  0.3258147517905234  0.1211102687008289
  0.0771166753405466  0.3863061487208269  0.4123467824664112
  0.1087593140533056  0.4085263000638841  0.5928404966651951
  0.1752113917722221  0.3576036763234264  0.8843258861792428
  0.8886075440382445  0.6608499391405485  0.1450744870181798
  0.8332959948019770  0.6550689773059977  0.3664005449394682
  0.8505801288897287  0.6482049312912457  0.6381195605968679
  0.8663147816006901  0.6194691931129795  0.8307520690427904
  0.6328753599126945  0.3944979659910743  0.0828304721839564
  0.6312992311311401  0.3218667535433187  0.3752608930979595
  0.6066141083609892  0.3694780799677617  0.6003591509727395
  0.6661258902529575  0.3997579113479738  0.8807906462608714
  0.3474889485677291  0.6514065497576915  0.1738134967208281
  0.3794536343245880  0.6412190314840654  0.3446155797656119
  0.3710628665263493  0.5643089778860082  0.6063990471776356
  0.3744003709734723  0.6016579738126702  0.8625470836799832
  0.1506168895019933  0.8189653919290241  0.1232877888828075
  0.1314494226653319  0.8664844919707348  0.4139577039528403
  0.1422419835787377  0.8925171513856723  0.6080471751438388
  0.1526420709314825  0.8523947279580479  0.8829404675190408
  0.6124993738840553  0.8867333047055024  0.0791384445412747
  0.6249491992398136  0.8332377383098180  0.3710055052552663
  0.6072838000147138  0.8693416723479314  0.6169820944156138
  0.6194775466742067  0.9402999790607552  0.8911318348225321
 
  0.00000000E+00  0.00000000E+00  0.00000000E+00
  0.00000000E+00  0.00000000E+00  0.00000000E+00
  0.00000000E+00  0.00000000E+00  0.00000000E+00
  0.00000000E+00  0.00000000E+00  0.00000000E+00
  0.00000000E+00  0.00000000E+00  0.00000000E+00
  0.00000000E+00  0.00000000E+00  0.00000000E+00
  0.00000000E+00  0.00000000E+00  0.00000000E+00
  0.00000000E+00  0.00000000E+00  0.00000000E+00
  0.00000000E+00  0.00000000E+00  0.00000000E+00
  0.00000000E+00  0.00000000E+00  0.00000000E+00
  0.00000000E+00  0.00000000E+00  0.00000000E+00
  0.00000000E+00  0.00000000E+00  0.00000000E+00
  0.00000000E+00  0.00000000E+00  0.00000000E+00
  0.00000000E+00  0.00000000E+00  0.00000000E+00
  0.00000000E+00  0.00000000E+00  0.00000000E+00
  0.00000000E+00  0.00000000E+00  0.00000000E+00
  0.00000000E+00  0.00000000E+00  0.00000000E+00
  0.00000000E+00  0.00000000E+00  0.00000000E+00
  0.00000000E+00  0.00000000E+00  0.00000000E+00
  0.00000000E+00  0.00000000E+00  0.00000000E+00
  0.00000000E+00  0.00000000E+00  0.00000000E+00
  0.00000000E+00  0.00000000E+00  0.00000000E+00
  0.00000000E+00  0.00000000E+00  0.00000000E+00
  0.00000000E+00  0.00000000E+00  0.00000000E+00
  0.00000000E+00  0.00000000E+00  0.00000000E+00
  0.00000000E+00  0.00000000E+00  0.00000000E+00
  0.00000000E+00  0.00000000E+00  0.00000000E+00
  0.00000000E+00  0.00000000E+00  0.00000000E+00
  0.00000000E+00  0.00000000E+00  0.00000000E+00
  0.00000000E+00  0.00000000E+00  0.00000000E+00
  0.00000000E+00  0.00000000E+00  0.00000000E+00
  0.00000000E+00  0.00000000E+00  0.00000000E+00
  0.00000000E+00  0.00000000E+00  0.00000000E+00
  0.00000000E+00  0.00000000E+00  0.00000000E+00
  0.00000000E+00  0.00000000E+00  0.00000000E+00
  0.00000000E+00  0.00000000E+00  0.00000000E+00
  0.00000000E+00  0.00000000E+00  0.00000000E+00
  0.00000000E+00  0.00000000E+00  0.00000000E+00
  0.00000000E+00  0.00000000E+00  0.00000000E+00
  0.00000000E+00  0.00000000E+00  0.00000000E+00
  0.00000000E+00  0.00000000E+00  0.00000000E+00
  0.00000000E+00  0.00000000E+00  0.00000000E+00
  0.00000000E+00  0.00000000E+00  0.00000000E+00
  0.00000000E+00  0.00000000E+00  0.00000000E+00
  0.00000000E+00  0.00000000E+00  0.00000000E+00
  0.00000000E+00  0.00000000E+00  0.00000000E+00
  0.00000000E+00  0.00000000E+00  0.00000000E+00
  0.00000000E+00  0.00000000E+00  0.00000000E+00
  0.00000000E+00  0.00000000E+00  0.00000000E+00
  0.00000000E+00  0.00000000E+00  0.00000000E+00
  0.00000000E+00  0.00000000E+00  0.00000000E+00
  0.00000000E+00  0.00000000E+00  0.00000000E+00
  0.00000000E+00  0.00000000E+00  0.00000000E+00
  0.00000000E+00  0.00000000E+00  0.00000000E+00
  0.00000000E+00  0.00000000E+00  0.00000000E+00
  0.00000000E+00  0.00000000E+00  0.00000000E+00
  0.00000000E+00  0.00000000E+00  0.00000000E+00
  0.00000000E+00  0.00000000E+00  0.00000000E+00
  0.00000000E+00  0.00000000E+00  0.00000000E+00
  0.00000000E+00  0.00000000E+00  0.00000000E+00
  0.00000000E+00  0.00000000E+00  0.00000000E+00
  0.00000000E+00  0.00000000E+00  0.00000000E+00
  0.00000000E+00  0.00000000E+00  0.00000000E+00
  0.00000000E+00  0.00000000E+00  0.00000000E+00
  0.00000000E+00  0.00000000E+00  0.00000000E+00
  0.00000000E+00  0.00000000E+00  0.00000000E+00
  0.00000000E+00  0.00000000E+00  0.00000000E+00
  0.00000000E+00  0.00000000E+00  0.00000000E+00
  0.00000000E+00  0.00000000E+00  0.00000000E+00
  0.00000000E+00  0.00000000E+00  0.00000000E+00
  0.00000000E+00  0.00000000E+00  0.00000000E+00
  0.00000000E+00  0.00000000E+00  0.00000000E+00
  0.00000000E+00  0.00000000E+00  0.00000000E+00
  0.00000000E+00  0.00000000E+00  0.00000000E+00
  0.00000000E+00  0.00000000E+00  0.00000000E+00
  0.00000000E+00  0.00000000E+00  0.00000000E+00
  0.00000000E+00  0.00000000E+00  0.00000000E+00
  0.00000000E+00  0.00000000E+00  0.00000000E+00
  0.00000000E+00  0.00000000E+00  0.00000000E+00
  0.00000000E+00  0.00000000E+00  0.00000000E+00
  0.00000000E+00  0.00000000E+00  0.00000000E+00
  0.00000000E+00  0.00000000E+00  0.00000000E+00
  0.00000000E+00  0.00000000E+00  0.00000000E+00
  0.00000000E+00  0.00000000E+00  0.00000000E+00
  0.00000000E+00  0.00000000E+00  0.00000000E+00
  0.00000000E+00  0.00000000E+00  0.00000000E+00
  0.00000000E+00  0.00000000E+00  0.00000000E+00
  0.00000000E+00  0.00000000E+00  0.00000000E+00
  0.00000000E+00  0.00000000E+00  0.00000000E+00
  0.00000000E+00  0.00000000E+00  0.00000000E+00
  0.00000000E+00  0.00000000E+00  0.00000000E+00
  0.00000000E+00  0.00000000E+00  0.00000000E+00
  0.00000000E+00  0.00000000E+00  0.00000000E+00
  0.00000000E+00  0.00000000E+00  0.00000000E+00
  0.00000000E+00  0.00000000E+00  0.00000000E+00
  0.00000000E+00  0.00000000E+00  0.00000000E+00
  0.00000000E+00  0.00000000E+00  0.00000000E+00
  0.00000000E+00  0.00000000E+00  0.00000000E+00
  0.00000000E+00  0.00000000E+00  0.00000000E+00
  0.00000000E+00  0.00000000E+00  0.00000000E+00
  0.00000000E+00  0.00000000E+00  0.00000000E+00
  0.00000000E+00  0.00000000E+00  0.00000000E+00
  0.00000000E+00  0.00000000E+00  0.00000000E+00
  0.00000000E+00  0.00000000E+00  0.00000000E+00
  0.00000000E+00  0.00000000E+00  0.00000000E+00
  0.00000000E+00  0.00000000E+00  0.00000000E+00
  0.00000000E+00  0.00000000E+00  0.00000000E+00
  0.00000000E+00  0.00000000E+00  0.00000000E+00
  0.00000000E+00  0.00000000E+00  0.00000000E+00
  0.00000000E+00  0.00000000E+00  0.00000000E+00
  0.00000000E+00  0.00000000E+00  0.00000000E+00
  0.00000000E+00  0.00000000E+00  0.00000000E+00
  0.00000000E+00  0.00000000E+00  0.00000000E+00
  0.00000000E+00  0.00000000E+00  0.00000000E+00
  0.00000000E+00  0.00000000E+00  0.00000000E+00
  0.00000000E+00  0.00000000E+00  0.00000000E+00
  0.00000000E+00  0.00000000E+00  0.00000000E+00
  0.00000000E+00  0.00000000E+00  0.00000000E+00
  0.00000000E+00  0.00000000E+00  0.00000000E+00
  0.00000000E+00  0.00000000E+00  0.00000000E+00
  0.00000000E+00  0.00000000E+00  0.00000000E+00
  0.00000000E+00  0.00000000E+00  0.00000000E+00
  0.00000000E+00  0.00000000E+00  0.00000000E+00
  0.00000000E+00  0.00000000E+00  0.00000000E+00
  0.00000000E+00  0.00000000E+00  0.00000000E+00
  0.00000000E+00  0.00000000E+00  0.00000000E+00
  0.00000000E+00  0.00000000E+00  0.00000000E+00
  0.00000000E+00  0.00000000E+00  0.00000000E+00
  0.00000000E+00  0.00000000E+00  0.00000000E+00
  0.00000000E+00  0.00000000E+00  0.00000000E+00
  0.00000000E+00  0.00000000E+00  0.00000000E+00
  0.00000000E+00  0.00000000E+00  0.00000000E+00
  0.00000000E+00  0.00000000E+00  0.00000000E+00
  0.00000000E+00  0.00000000E+00  0.00000000E+00
  0.00000000E+00  0.00000000E+00  0.00000000E+00
  0.00000000E+00  0.00000000E+00  0.00000000E+00
  0.00000000E+00  0.00000000E+00  0.00000000E+00
  0.00000000E+00  0.00000000E+00  0.00000000E+00
  0.00000000E+00  0.00000000E+00  0.00000000E+00
  0.00000000E+00  0.00000000E+00  0.00000000E+00
  0.00000000E+00  0.00000000E+00  0.00000000E+00
  0.00000000E+00  0.00000000E+00  0.00000000E+00
  0.00000000E+00  0.00000000E+00  0.00000000E+00
  0.00000000E+00  0.00000000E+00  0.00000000E+00
  0.00000000E+00  0.00000000E+00  0.00000000E+00
  0.00000000E+00  0.00000000E+00  0.00000000E+00
  0.00000000E+00  0.00000000E+00  0.00000000E+00
  0.00000000E+00  0.00000000E+00  0.00000000E+00
  0.00000000E+00  0.00000000E+00  0.00000000E+00
  0.00000000E+00  0.00000000E+00  0.00000000E+00
  0.00000000E+00  0.00000000E+00  0.00000000E+00
  0.00000000E+00  0.00000000E+00  0.00000000E+00
  0.00000000E+00  0.00000000E+00  0.00000000E+00
  0.00000000E+00  0.00000000E+00  0.00000000E+00
  0.00000000E+00  0.00000000E+00  0.00000000E+00
  0.00000000E+00  0.00000000E+00  0.00000000E+00
  0.00000000E+00  0.00000000E+00  0.00000000E+00
  0.00000000E+00  0.00000000E+00  0.00000000E+00
  0.00000000E+00  0.00000000E+00  0.00000000E+00
  0.00000000E+00  0.00000000E+00  0.00000000E+00
