Sr Tl Cl                                
   1.00000000000000     
    11.3959560000000000  -11.3959560000000000    0.0000000000000000
    11.3959560000000000   11.3959560000000000    0.0000000000000000
     0.0000000000000000    0.0000000000000000   22.7919109999999989
   Sr   Tl   Cl
    32    32    96
Direct
  0.9903774638967707  0.0241572495169570  0.0342937312974145
 -0.0062213795363769  0.0307336702108724  0.2305067026053375
  0.0358001655426111  0.0434083085848004  0.5430440625099301
  0.9234110170529751  0.9822408257399683  0.7169145349624241
  0.5022492745445505  0.9919246848469432  0.0183292714669604
  0.4459098595787828  0.0206326100634973  0.2621125925821170
  0.5258668538462532  0.0872125478957746  0.4812801910385850
  0.4097432406475110  0.0584189247409716  0.8069798265379651
  0.2757672028793667  0.2105721805404900  0.9420290879499011
  0.1892809541986099  0.2469136714227096  0.2619369070802927
  0.2302846539155257  0.2643482874307373  0.5221093696034989
  0.2086547645530142  0.3256824185274825  0.7743708446753951
  0.9052354351136033  0.5266572702848548  0.0789923262049334
  0.0054282702465032  0.5358398892227952  0.2501373370408869
  0.9749652776946190  0.5003264709838497  0.5024813287590628
  0.0357632650023138  0.6278935123333967  0.7200484930408705
  0.7685315442434223  0.2669764241641384  0.0138135666842109
  0.9150135896497708  0.2681238419412764  0.1863742884705077
  0.7024557962443497  0.2819882888445414  0.5104451436478961
  0.6893932438374873  0.2596234860512899  0.7491427176140456
  0.5139980531767656  0.4858057904500783  0.9745432692040236
  0.4883927233465488  0.5455174187993876  0.2849640545319032
  0.4936365622657914  0.5062105874833027  0.4771957042699640
  0.4978035559659081  0.5224877365879370  0.7808344051420416
  0.3847726807097838  0.7345378499392657  0.0419250729236205
  0.2767275881297809  0.7345824803253778  0.2741260527899746
  0.2055163158667933  0.7301851241845965  0.5155223872410947
  0.2948294539749625  0.7560078937107126  0.7033085815754260
  0.7484107775958246  0.7495690603276424  0.0161850990241131
  0.7962666576215823  0.7330254580096307  0.2143258520235466
  0.7127758400556290  0.6852059635092944  0.4013129965076487
  0.7860681945402872  0.7463707353482452  0.7585918140251205
  0.1239054627665670  0.3197167565015281  0.0700684950593921
  0.0060061478583758  0.2122566000543133  0.3982895833624132
  0.9773990728310803  0.3344982549538590  0.6716522899692434
  0.9259027218481961  0.1950523499905171  0.8390016094324151
  0.4326892889053998  0.2891153019088687  0.1095542923705087
  0.4903048346261145  0.2702435291380749  0.3130440285516323
  0.4586213681166045  0.2816725154459888  0.6389330062380300
  0.5464173776970377  0.2291312488673949  0.9217011528917497
  0.2701808234028948  0.5270871763885471  0.1286243117543781
  0.2264625981341942  0.4836141970038923  0.3989288875569003
  0.2616789022105692  0.4807670648704279  0.6269979274747072
  0.2414743828565098  0.5534367327001968  0.8778728094472922
  0.0908519440103767  0.7523412440134495  0.0752218935215532
  0.9835895210488264  0.7651204680175722  0.3718477961542428
  0.8942168540557890  0.7695035869264648  0.5672722629858210
  0.9502878356924180  0.8110083852166516  0.9018920539983794
  0.6692517733589056  0.4534084398178194  0.1459321914477145
  0.8138965214119428  0.4542359240935792  0.3695172771320272
  0.7359394658450614  0.5121362262578355  0.6529695536454662
  0.7617748952834262  0.4994756312907849  0.8631815838228171
  0.5605220284803517  0.7881339021956959  0.2037360764899235
  0.4319897220454500  0.7931608736449703  0.4436255790123572
  0.5574124061940194  0.7701985976567534  0.6086517765520157
  0.5682766033063011  0.7457332081210718  0.8790938813651753
  0.2469824012880933  0.0311347548402220  0.1042786883001279
  0.2362350209138291  0.9811190722236253  0.3850542811098969
  0.2625303021552737  0.9923432819084382  0.6052342838433851
  0.2357839552099942  0.8639328822420945  0.9054106466580949
  0.6911732011278476  0.0748166186604750  0.1574855260512015
  0.8001208502759333  0.9784395343868615  0.3773691759163664
  0.7032730820170636  0.0284080326194658  0.6196490548589929
  0.7679114451875302  0.0130837288645643  0.9048318012138065
  0.8843916937816523  0.1397863290834755  0.9727887375512061
  0.0454590637183233  0.3552563509833084  0.2578924032179664
  0.0492698391179438  0.2243653981918067  0.5420753323973369
  0.0662023660274800  0.2260500485506385  0.7548976203613930
  0.5975228033799564  0.3437334141059161  0.0280281661790508
  0.3490372645007428  0.1637651510364595  0.2454620427113647
  0.5555169500741312  0.2577634672886771  0.4432785539169796
  0.5856133363479057  0.4057060996250250  0.7087689051729000
  0.3747709346068444  0.3607292386510002  0.9877269081547022
  0.3123528722162026  0.5584094336101569  0.2551813823249838
  0.1448833707912819  0.4337399647131061  0.5217648738115441
  0.1045678538228221  0.4617326856754612  0.7294623123916137
  0.9193975440148358  0.6745486498688329  0.0012494194792694
  0.9512166497118291  0.6680900661295731  0.1685074471704321
  0.0458181808811894  0.6639524541405848  0.4851280411302086
  0.9530225411583356  0.7956348004773978  0.7114030728734713
  0.7979384793834430  0.4434842564485872  0.9924261317068649
  0.6300322961786264  0.6188830016121382  0.2248484348673462
  0.8158852637533006  0.5751694757865138  0.4704970177025821
  0.6502362101088390  0.6258029000622156  0.7824709948053368
  0.5501506669838262  0.8118850796258830  0.0133893548474238
  0.4489826589008858  0.7199164724696425  0.3155910218318650
  0.3429799112096258  0.6153458909901687  0.4849747324662190
  0.4390975983606876  0.6587200657538721  0.7063739496110943
  0.3397212002041837  0.9046872827779719  0.0191688490291126
  0.1208720043339735  0.0932973257397196  0.3102369892162706
  0.2019690752200164  0.0885145353742898  0.4956135211692276
  0.3440110721478375  0.9172907821030971  0.7440504260122535
  0.8562961113886182  0.9044746155977685  0.0008800545592331
  0.9026461728063242  0.8839014528231722  0.2690105054733588
  0.7065978863360606  0.1037804752830636  0.4865784197118714
  0.7556382075950643  0.9178064965476089  0.7373035599849309
  0.0810683182533459  0.1797487935695367  0.1682431370532974
  0.2129232400876775  0.2914399615440127  0.3891143361797326
  0.0844510771186311  0.0209829860946019  0.6645129407777308
  0.1430495812364300  0.1318694591450991  0.0147754506022977
  0.6454414042939961  0.1083186645788123  0.0191749759159364
  0.5925926689887930  0.1142870464750623  0.2748700301480560
  0.6581297128202153  0.2230997552381975  0.6231509341958955
  0.5438978982218563  0.1527936058443350  0.7577392419302710
  0.5174845785639490  0.3994272523042712  0.2160366737756761
  0.4129953813719491  0.4415459860706900  0.3743436335544853
  0.3780214990542557  0.3902753343058029  0.5367806559680364
  0.3490752175040002  0.2290766708589234  0.8244941256490570
  0.0744603596073001  0.5019603529274588  0.1261738344302154
  0.1116667930620579  0.6684209581322476  0.2896828175862590
  0.1687031469060224  0.6701931646844046  0.6343611732953522
  0.1779049445742510  0.6977356474714232  0.7919170125209272
  0.9374430336247479  0.3296326355626484  0.0684545431438446
  0.8625638031955483  0.3492218127638013  0.4807570338962543
  0.8175026884708434  0.3839824906402304  0.7452800650842251
  0.7246001007246228  0.2394521009110427  0.8801884571159461
  0.7573189354084551  0.6226121131174805  0.1054618963572513
  0.5741846102057274  0.6792994911176266  0.4889130793131981
  0.7379617565887701  0.7127170747344681  0.6385928183286240
  0.6439401780472906  0.6165291457902465  0.9572511460134462
  0.5023917624809601  0.9780895786507824  0.1463888122843721
  0.3039597900315819  0.9122647560261241  0.2574282505066970
  0.3385879755114018  0.8098769800968357  0.5849254620057942
  0.2403009568243418  0.6871529243890075  0.9801191725948513
  0.0764713504204508  0.9427924322214787  0.1340031698717382
  0.8179448264991125  0.8151396390684102  0.4454008805280000
  0.8832263517091891  0.9693113941629222  0.5916378864636772
  0.7512987216719405  0.7952031594645389  0.8852227522725105
  0.8900261896584731  0.0850271115879718  0.1337406278465034
  0.8923338320835943  0.1585779825506300  0.2862660176177215
  0.8299960575941533  0.1427916619413957  0.7261329050343371
  0.9402285791720294 -0.0022785117617227  0.8428458974179616
  0.3909203989955340  0.1351015656390868  0.0275566009590256
  0.4391309459635934  0.0003445734447332  0.3893154472998231
  0.3936726887419009  0.1516213074801608  0.5519242565139355
  0.2745127198238464  0.0469308989575917  0.8876466569300514
  0.2624925836564228  0.3409460943311691  0.1649656052446045
  0.0002487031652660  0.4849800624890943  0.3768665938783268
  0.2529820027743465  0.2911943099527761  0.6507533456512893
  0.1699608328658524  0.3401753724726769  0.8982553505866586
  0.8598783577934976  0.4498855757375279  0.1984069268592979
  0.8523802779040419  0.6376726156196725  0.3161581478986123
  0.9405246220967559  0.5497992555142855  0.6239165882054104
  0.9001924324775420  0.6214998384010862  0.8029658543882152
  0.7433824932356969  0.2607425253429335  0.1415824130089736
  0.6160102604581071  0.5312276916245109  0.3772561658566178
  0.6307207219100239  0.4388912681395974  0.5428261198018300
  0.5721847622662569  0.4125396667297559  0.8676454936770800
  0.4539844953870057  0.5775831781372955  0.0749543692397719
  0.2446895491091432  0.7868367338946715  0.3971033543285432
  0.3305227021187012  0.4613288566015167  0.7678932429918016
  0.4287612880150511  0.5980793494801981  0.8910185805143824
  0.2835549410694808  0.7324350336677778  0.1448729819408536
  0.9630214574825635  0.0349773063674024  0.4279608319890210
  0.1262379517530123  0.8866478560206964  0.5316887367046739
  0.0856089435928482  0.8902713259142965  0.9779585012284404
  0.7168588699210402  0.8386919954084938  0.1299842598534961
  0.6822982659915008  0.8054531880167923  0.3052590861937917
  0.5550542747911802  0.9412170312468489  0.5487349449539621
  0.5202703494257808 -0.0033395328854225  0.8929821229630804
 
  0.00000000E+00  0.00000000E+00  0.00000000E+00
  0.00000000E+00  0.00000000E+00  0.00000000E+00
  0.00000000E+00  0.00000000E+00  0.00000000E+00
  0.00000000E+00  0.00000000E+00  0.00000000E+00
  0.00000000E+00  0.00000000E+00  0.00000000E+00
  0.00000000E+00  0.00000000E+00  0.00000000E+00
  0.00000000E+00  0.00000000E+00  0.00000000E+00
  0.00000000E+00  0.00000000E+00  0.00000000E+00
  0.00000000E+00  0.00000000E+00  0.00000000E+00
  0.00000000E+00  0.00000000E+00  0.00000000E+00
  0.00000000E+00  0.00000000E+00  0.00000000E+00
  0.00000000E+00  0.00000000E+00  0.00000000E+00
  0.00000000E+00  0.00000000E+00  0.00000000E+00
  0.00000000E+00  0.00000000E+00  0.00000000E+00
  0.00000000E+00  0.00000000E+00  0.00000000E+00
  0.00000000E+00  0.00000000E+00  0.00000000E+00
  0.00000000E+00  0.00000000E+00  0.00000000E+00
  0.00000000E+00  0.00000000E+00  0.00000000E+00
  0.00000000E+00  0.00000000E+00  0.00000000E+00
  0.00000000E+00  0.00000000E+00  0.00000000E+00
  0.00000000E+00  0.00000000E+00  0.00000000E+00
  0.00000000E+00  0.00000000E+00  0.00000000E+00
  0.00000000E+00  0.00000000E+00  0.00000000E+00
  0.00000000E+00  0.00000000E+00  0.00000000E+00
  0.00000000E+00  0.00000000E+00  0.00000000E+00
  0.00000000E+00  0.00000000E+00  0.00000000E+00
  0.00000000E+00  0.00000000E+00  0.00000000E+00
  0.00000000E+00  0.00000000E+00  0.00000000E+00
  0.00000000E+00  0.00000000E+00  0.00000000E+00
  0.00000000E+00  0.00000000E+00  0.00000000E+00
  0.00000000E+00  0.00000000E+00  0.00000000E+00
  0.00000000E+00  0.00000000E+00  0.00000000E+00
  0.00000000E+00  0.00000000E+00  0.00000000E+00
  0.00000000E+00  0.00000000E+00  0.00000000E+00
  0.00000000E+00  0.00000000E+00  0.00000000E+00
  0.00000000E+00  0.00000000E+00  0.00000000E+00
  0.00000000E+00  0.00000000E+00  0.00000000E+00
  0.00000000E+00  0.00000000E+00  0.00000000E+00
  0.00000000E+00  0.00000000E+00  0.00000000E+00
  0.00000000E+00  0.00000000E+00  0.00000000E+00
  0.00000000E+00  0.00000000E+00  0.00000000E+00
  0.00000000E+00  0.00000000E+00  0.00000000E+00
  0.00000000E+00  0.00000000E+00  0.00000000E+00
  0.00000000E+00  0.00000000E+00  0.00000000E+00
  0.00000000E+00  0.00000000E+00  0.00000000E+00
  0.00000000E+00  0.00000000E+00  0.00000000E+00
  0.00000000E+00  0.00000000E+00  0.00000000E+00
  0.00000000E+00  0.00000000E+00  0.00000000E+00
  0.00000000E+00  0.00000000E+00  0.00000000E+00
  0.00000000E+00  0.00000000E+00  0.00000000E+00
  0.00000000E+00  0.00000000E+00  0.00000000E+00
  0.00000000E+00  0.00000000E+00  0.00000000E+00
  0.00000000E+00  0.00000000E+00  0.00000000E+00
  0.00000000E+00  0.00000000E+00  0.00000000E+00
  0.00000000E+00  0.00000000E+00  0.00000000E+00
  0.00000000E+00  0.00000000E+00  0.00000000E+00
  0.00000000E+00  0.00000000E+00  0.00000000E+00
  0.00000000E+00  0.00000000E+00  0.00000000E+00
  0.00000000E+00  0.00000000E+00  0.00000000E+00
  0.00000000E+00  0.00000000E+00  0.00000000E+00
  0.00000000E+00  0.00000000E+00  0.00000000E+00
  0.00000000E+00  0.00000000E+00  0.00000000E+00
  0.00000000E+00  0.00000000E+00  0.00000000E+00
  0.00000000E+00  0.00000000E+00  0.00000000E+00
  0.00000000E+00  0.00000000E+00  0.00000000E+00
  0.00000000E+00  0.00000000E+00  0.00000000E+00
  0.00000000E+00  0.00000000E+00  0.00000000E+00
  0.00000000E+00  0.00000000E+00  0.00000000E+00
  0.00000000E+00  0.00000000E+00  0.00000000E+00
  0.00000000E+00  0.00000000E+00  0.00000000E+00
  0.00000000E+00  0.00000000E+00  0.00000000E+00
  0.00000000E+00  0.00000000E+00  0.00000000E+00
  0.00000000E+00  0.00000000E+00  0.00000000E+00
  0.00000000E+00  0.00000000E+00  0.00000000E+00
  0.00000000E+00  0.00000000E+00  0.00000000E+00
  0.00000000E+00  0.00000000E+00  0.00000000E+00
  0.00000000E+00  0.00000000E+00  0.00000000E+00
  0.00000000E+00  0.00000000E+00  0.00000000E+00
  0.00000000E+00  0.00000000E+00  0.00000000E+00
  0.00000000E+00  0.00000000E+00  0.00000000E+00
  0.00000000E+00  0.00000000E+00  0.00000000E+00
  0.00000000E+00  0.00000000E+00  0.00000000E+00
  0.00000000E+00  0.00000000E+00  0.00000000E+00
  0.00000000E+00  0.00000000E+00  0.00000000E+00
  0.00000000E+00  0.00000000E+00  0.00000000E+00
  0.00000000E+00  0.00000000E+00  0.00000000E+00
  0.00000000E+00  0.00000000E+00  0.00000000E+00
  0.00000000E+00  0.00000000E+00  0.00000000E+00
  0.00000000E+00  0.00000000E+00  0.00000000E+00
  0.00000000E+00  0.00000000E+00  0.00000000E+00
  0.00000000E+00  0.00000000E+00  0.00000000E+00
  0.00000000E+00  0.00000000E+00  0.00000000E+00
  0.00000000E+00  0.00000000E+00  0.00000000E+00
  0.00000000E+00  0.00000000E+00  0.00000000E+00
  0.00000000E+00  0.00000000E+00  0.00000000E+00
  0.00000000E+00  0.00000000E+00  0.00000000E+00
  0.00000000E+00  0.00000000E+00  0.00000000E+00
  0.00000000E+00  0.00000000E+00  0.00000000E+00
  0.00000000E+00  0.00000000E+00  0.00000000E+00
  0.00000000E+00  0.00000000E+00  0.00000000E+00
  0.00000000E+00  0.00000000E+00  0.00000000E+00
  0.00000000E+00  0.00000000E+00  0.00000000E+00
  0.00000000E+00  0.00000000E+00  0.00000000E+00
  0.00000000E+00  0.00000000E+00  0.00000000E+00
  0.00000000E+00  0.00000000E+00  0.00000000E+00
  0.00000000E+00  0.00000000E+00  0.00000000E+00
  0.00000000E+00  0.00000000E+00  0.00000000E+00
  0.00000000E+00  0.00000000E+00  0.00000000E+00
  0.00000000E+00  0.00000000E+00  0.00000000E+00
  0.00000000E+00  0.00000000E+00  0.00000000E+00
  0.00000000E+00  0.00000000E+00  0.00000000E+00
  0.00000000E+00  0.00000000E+00  0.00000000E+00
  0.00000000E+00  0.00000000E+00  0.00000000E+00
  0.00000000E+00  0.00000000E+00  0.00000000E+00
  0.00000000E+00  0.00000000E+00  0.00000000E+00
  0.00000000E+00  0.00000000E+00  0.00000000E+00
  0.00000000E+00  0.00000000E+00  0.00000000E+00
  0.00000000E+00  0.00000000E+00  0.00000000E+00
  0.00000000E+00  0.00000000E+00  0.00000000E+00
  0.00000000E+00  0.00000000E+00  0.00000000E+00
  0.00000000E+00  0.00000000E+00  0.00000000E+00
  0.00000000E+00  0.00000000E+00  0.00000000E+00
  0.00000000E+00  0.00000000E+00  0.00000000E+00
  0.00000000E+00  0.00000000E+00  0.00000000E+00
  0.00000000E+00  0.00000000E+00  0.00000000E+00
  0.00000000E+00  0.00000000E+00  0.00000000E+00
  0.00000000E+00  0.00000000E+00  0.00000000E+00
  0.00000000E+00  0.00000000E+00  0.00000000E+00
  0.00000000E+00  0.00000000E+00  0.00000000E+00
  0.00000000E+00  0.00000000E+00  0.00000000E+00
  0.00000000E+00  0.00000000E+00  0.00000000E+00
  0.00000000E+00  0.00000000E+00  0.00000000E+00
  0.00000000E+00  0.00000000E+00  0.00000000E+00
  0.00000000E+00  0.00000000E+00  0.00000000E+00
  0.00000000E+00  0.00000000E+00  0.00000000E+00
  0.00000000E+00  0.00000000E+00  0.00000000E+00
  0.00000000E+00  0.00000000E+00  0.00000000E+00
  0.00000000E+00  0.00000000E+00  0.00000000E+00
  0.00000000E+00  0.00000000E+00  0.00000000E+00
  0.00000000E+00  0.00000000E+00  0.00000000E+00
  0.00000000E+00  0.00000000E+00  0.00000000E+00
  0.00000000E+00  0.00000000E+00  0.00000000E+00
  0.00000000E+00  0.00000000E+00  0.00000000E+00
  0.00000000E+00  0.00000000E+00  0.00000000E+00
  0.00000000E+00  0.00000000E+00  0.00000000E+00
  0.00000000E+00  0.00000000E+00  0.00000000E+00
  0.00000000E+00  0.00000000E+00  0.00000000E+00
  0.00000000E+00  0.00000000E+00  0.00000000E+00
  0.00000000E+00  0.00000000E+00  0.00000000E+00
  0.00000000E+00  0.00000000E+00  0.00000000E+00
  0.00000000E+00  0.00000000E+00  0.00000000E+00
  0.00000000E+00  0.00000000E+00  0.00000000E+00
  0.00000000E+00  0.00000000E+00  0.00000000E+00
  0.00000000E+00  0.00000000E+00  0.00000000E+00
  0.00000000E+00  0.00000000E+00  0.00000000E+00
  0.00000000E+00  0.00000000E+00  0.00000000E+00
  0.00000000E+00  0.00000000E+00  0.00000000E+00
  0.00000000E+00  0.00000000E+00  0.00000000E+00
  0.00000000E+00  0.00000000E+00  0.00000000E+00
  0.00000000E+00  0.00000000E+00  0.00000000E+00
