Zn Ag F                                 
   1.00000000000000     
     8.1433499999999999   -8.1433499999999999    0.0000000000000000
     8.1433499999999999    8.1433499999999999    0.0000000000000000
     0.0000000000000000    0.0000000000000000   16.2867010000000008
   Ag   F    Zn
    32    96    32
Direct
  0.0029054807317321  0.0140381713259964  0.0000310085330876
  0.9985164859298307  0.9838190931868097  0.2501902738229926
  0.9992260966047115  0.0006332410696892  0.5017515282131482
  0.0030310100370051  0.9973081308648415  0.7491576751973776
  0.5029692837652193  0.0142850393779378  0.9997494157563216
  0.4983063281906224  0.9843884926338591  0.2499515867815484
  0.4982140850061782  0.0013248203515944  0.5007204685296223
  0.5022340708586629  0.9983502490805902  0.7478701123164712
  0.2472106750816449  0.2646469989233404  0.0000499692226465
  0.2534588867072902  0.2338380026581640  0.2495009133822131
  0.2516639884385412  0.2492995066822372  0.4980275434892034
  0.2485407745564354  0.2508403837544280  0.7509573110614403
  0.0029077978707039  0.5143878793315858  0.9999204353387153
  0.9982101635565577  0.4840407949663341  0.2501331899502026
  0.9980177800662106  0.5018624921755197  0.5006638413020059
  0.0019663192161996  0.4983785036072877  0.7476908150914990
  0.7471495971888716  0.2651292054078310  0.0001662961124409
  0.7541164662064903  0.2334859430970846  0.2496866377067050
  0.7522863821825585  0.2484264076344848  0.4986270590399111
  0.7491850098884187  0.2499102347142483  0.7515775181671743
  0.5030991575008468  0.5146947060676262  0.9997983488102095
  0.4982054842887481  0.4841346172525806  0.2499626588477372
  0.4990728503469305  0.5003541335963585  0.5020746354757808
  0.5029310537426565  0.4965352129920807  0.7493537678820817
  0.2473214585665142  0.7647625954150326  0.0003050161314692
  0.2540733910412814  0.7336058842708583  0.2497429593690676
  0.2525425296487907  0.7480299756321315  0.4986804790631262
  0.2498545524078263  0.7499799075214593  0.7514919683617718
  0.7469776805216111  0.7648985553776354  0.0000311511869158
  0.7536070090878120  0.7339880608612993  0.2496761114248648
  0.7518913727594452  0.7491175517865227  0.4978091066048038
  0.7486181571876757  0.7505130832419908  0.7509777962370389
  0.9636442569638516  0.2322519764082044  0.0002728963516666
  0.0370613847025068  0.2658623341406599  0.2498065072675199
  0.9660694209633179  0.2382184187653165  0.4997762184066208
  0.0346506179630608  0.2602030750551371  0.7502811990054552
  0.4636419200732299  0.2325728309583739  0.0001100855873587
  0.5376509029985226  0.2659065509953382  0.2497013374882051
  0.4654657673995153  0.2392202458247394  0.4997702599791020
  0.5355075677056842  0.2593414896756737  0.7501245314671031
  0.2888488937776656  0.4969940072497763  0.0003810877655983
  0.2123956206311650  0.5010132027044460  0.2496707300731562
  0.2849616632228827  0.5089894966515282  0.4996927174236325
  0.2161629787735874  0.4893215791921588  0.7503990950270353
  0.9632588261111426  0.7326507038430194  0.0001939452412634
  0.0375801636271736  0.7655036843601423  0.2498423656605121
  0.9658055658900528  0.7391093604456823  0.4998187846769468
  0.0361203029637942  0.7593273812913479  0.7501378136199638
  0.7884985434994705  0.4967042914437744  0.0003761779113237
  0.7125165975378112  0.5018749446583001  0.2496136667905612
  0.7836074527021742  0.5103590490428708  0.4997138314511759
  0.7173762836301729  0.4881468578203914  0.7502745211396986
  0.4639764884878338  0.7325727530212570  0.0001047423490800
  0.5370566011239075  0.7663680545903345  0.2497338339446138
  0.4664479930282422  0.7380070274701985  0.4996544024705858
  0.5348082291299554  0.7600654125186245  0.7501780865733338
  0.2886744299359467  0.9969198308532758  0.0003284056126576
  0.2126229946890212  0.0016305361978334  0.2495966784465589
  0.2842094944987893  0.0104799120956265  0.4996953122274975
  0.2170368195724396  0.9880331576082593  0.7502043952993745
  0.7885477275883431  0.9962788750697968  0.0003405540055056
  0.7126004329219268  0.0015546221799856  0.2496983402097967
  0.7848479337161066  0.0091106307265182  0.4997124677746980
  0.7164378590919679  0.9892473525303275  0.7502396184953980
  0.1470632219411863  0.1455398512070311  0.1088263172981702
  0.1475852157964102  0.1480978374898899  0.3875660723037089
  0.1020132732022412  0.1008830152808328  0.6143876942760814
  0.1481448485401061  0.1448757487497074  0.8890596945371059
  0.6474166498670259  0.1458133995407760  0.1089067214933550
  0.6476826603350662  0.1481816526304272  0.3880422710209245
  0.6020671760558516  0.1008558566065371  0.6133372938983314
  0.6481529430123805  0.1450156292737970  0.8894338914920062
  0.3542394621083321  0.3529382268018427  0.1410697429551187
  0.3528447476679074  0.3530358868492538  0.3604057876137316
  0.3986104251663430  0.3972951931036332  0.6367283338783191
  0.3534335970677843  0.3504444208079720  0.8617692332361286
  0.1468703532659697  0.6453403207319994  0.1089077430141248
  0.1477161891381398  0.6478086149849753  0.3880804630615245
  0.1024123404670865  0.6011587522214835  0.6131943989403223
  0.1481485721606848  0.6450633051553410  0.8897511210586857
  0.8539500548181695  0.3527342417550980  0.1412622349026407
  0.8529364950274583  0.3535409077379022  0.3610318690979649
  0.8990840404837036  0.3976808683967338  0.6352800006234430
  0.8532214239210429  0.3500323877225258  0.8625530601156028
  0.6469282919026583  0.6456797893162389  0.1088465913386406
  0.6478611040048358  0.6485570681503015  0.3872023775477045
  0.6019755909732974  0.6006611601820400  0.6146806769000830
  0.6483914217172105  0.6449821803077340  0.8889073427744800
  0.3540309709713508  0.8529596759395310  0.1410594596200566
  0.3528548846107898  0.8533889956421363  0.3611043554799951
  0.3992563069871965  0.8974514805469773  0.6354541193465963
  0.3535370448734506  0.8504413055402690  0.8623718617573111
  0.8540096875575433  0.8525752566619142  0.1412895587598449
  0.8530271391114838  0.8532198433726299  0.3605158192712654
  0.8992074390222681  0.8977234965207461  0.6366602957632070
  0.8537006045354983  0.8503542035114594  0.8615764892428102
  0.8959579237423635  0.1042501685487180  0.1481924029605253
  0.8950244092336656  0.1052451855422124  0.3520564677284875
  0.8528518634685328  0.1468782957048436  0.6457912327916135
  0.8982560006494577  0.1011287044461867  0.8534773061467634
  0.3956815748718668  0.1049454114725012  0.1481346174546166
  0.3955684252806265  0.1049727531129022  0.3523389354915826
  0.3535433326162626  0.1461222812354553  0.6464598525737555
  0.3983519496309206  0.1013058973729764  0.8532320323386660
  0.1055361665982184  0.3934650934958853  0.1017361159193994
  0.1030804019061460  0.3968202198001560  0.3969142339466556
  0.1480678670052876  0.3517376234663881  0.6042611113353170
  0.1061706071399934  0.3928847825337168  0.8982058363821663
  0.8957107205479496  0.6044035781769245  0.1480606532184646
  0.8955037043804190  0.6049232502754819  0.3525790254214361
  0.8536262244528725  0.6464188914349742  0.6462889722586549
  0.8987231337615578  0.6009751124130452  0.8534660926962797
  0.6054877009088561  0.3939114999675151  0.1016334972830311
  0.6026897772877170  0.3974121270641155  0.3964926919103710
  0.6476039471705189  0.3520193850138114  0.6037550589690925
  0.6056192857334078  0.3934090133101403  0.8974619886126367
  0.3953864025093978  0.6049689544943627  0.1482398720561898
  0.3949649154416516  0.6053110590763405  0.3518382681325105
  0.3532479299930172  0.6464941000207354  0.6457769340739979
  0.3982116193258750  0.6013072902085562  0.8532770900942070
  0.1057074297190913  0.8933653152998563  0.1017838811553154
  0.1030461476803486  0.8970942685808644  0.3965729216490585
  0.1478812345131131  0.8521826774241840  0.6034808297835003
  0.1058907939104602  0.8932371946985964  0.8977609979080015
  0.6053875582691887  0.8938748564291445  0.1018164676801934
  0.6030841256832862  0.8971406991550224  0.3966870783210630
  0.6485202917142441  0.8514693467110214  0.6042134564646416
  0.6061880419959023  0.8930288230771914  0.8977577657627989
  0.0004271450235365  0.2491264817939507  0.1249694074592313
  0.0002021977727991  0.2491177363928965  0.3746591276436221
  0.0005254723958575  0.2492463324951661  0.6249875189203823
  0.0007721088865431  0.2492493562736629  0.8754462900638064
  0.5006978057340367  0.2493366155007776  0.1249144673171608
  0.5003973706856181  0.2493053005686876  0.3745588813410791
  0.5004472482552702  0.2491606987542265  0.6249256222714200
  0.5006808959118839  0.2492048094943789  0.8753045187765937
  0.2504976398890335  0.4990973814349597  0.1249751091420897
  0.2496908588094367  0.4989000519764572  0.3745853970609209
  0.2505230186265225  0.4992642912471319  0.6250372550560064
  0.2514397262688705  0.4993900185912580  0.8754841450726916
  0.0004694953100465  0.7490248449233179  0.1249749677493314
  0.0005217629497519  0.7491797599384471  0.3746519491832948
  0.0006850046567673  0.7494571213055211  0.6250256621704351
  0.0008265870639058  0.7492026437521097  0.8753568000567183
  0.7505432715049444  0.4993183373323501  0.1249944610486732
  0.7493863811763497  0.4992650919759604  0.3745420931256855
  0.7505694627591711  0.4992913103554249  0.6250125779337095
  0.7518072212190776  0.4993380368340758  0.8754059103783061
  0.5004571988870137  0.7493284562771133  0.1249383631325341
  0.5001999832887338  0.7492193049988415  0.3745159973345612
  0.5007048496559788  0.7491587298416535  0.6249311404385622
  0.5008257739530712  0.7492853009234896  0.8752589036629383
  0.2506417926416277  0.9993206599019158  0.1249471282243431
  0.2495847186026957  0.9992714768379798  0.3746031729495811
  0.2506393514258317  0.9992624194553998  0.6249417631054868
  0.2516786579700354  0.9993953848048950  0.8753518626193590
  0.7506202856121548  0.9991554254441071  0.1250210123792067
  0.7497121495231557  0.9991210343090987  0.3746422295545032
  0.7506228678011055  0.9992540042131733  0.6249872338125397
  0.7515698981812180  0.9993346294996346  0.8753852417223623
 
  0.00000000E+00  0.00000000E+00  0.00000000E+00
  0.00000000E+00  0.00000000E+00  0.00000000E+00
  0.00000000E+00  0.00000000E+00  0.00000000E+00
  0.00000000E+00  0.00000000E+00  0.00000000E+00
  0.00000000E+00  0.00000000E+00  0.00000000E+00
  0.00000000E+00  0.00000000E+00  0.00000000E+00
  0.00000000E+00  0.00000000E+00  0.00000000E+00
  0.00000000E+00  0.00000000E+00  0.00000000E+00
  0.00000000E+00  0.00000000E+00  0.00000000E+00
  0.00000000E+00  0.00000000E+00  0.00000000E+00
  0.00000000E+00  0.00000000E+00  0.00000000E+00
  0.00000000E+00  0.00000000E+00  0.00000000E+00
  0.00000000E+00  0.00000000E+00  0.00000000E+00
  0.00000000E+00  0.00000000E+00  0.00000000E+00
  0.00000000E+00  0.00000000E+00  0.00000000E+00
  0.00000000E+00  0.00000000E+00  0.00000000E+00
  0.00000000E+00  0.00000000E+00  0.00000000E+00
  0.00000000E+00  0.00000000E+00  0.00000000E+00
  0.00000000E+00  0.00000000E+00  0.00000000E+00
  0.00000000E+00  0.00000000E+00  0.00000000E+00
  0.00000000E+00  0.00000000E+00  0.00000000E+00
  0.00000000E+00  0.00000000E+00  0.00000000E+00
  0.00000000E+00  0.00000000E+00  0.00000000E+00
  0.00000000E+00  0.00000000E+00  0.00000000E+00
  0.00000000E+00  0.00000000E+00  0.00000000E+00
  0.00000000E+00  0.00000000E+00  0.00000000E+00
  0.00000000E+00  0.00000000E+00  0.00000000E+00
  0.00000000E+00  0.00000000E+00  0.00000000E+00
  0.00000000E+00  0.00000000E+00  0.00000000E+00
  0.00000000E+00  0.00000000E+00  0.00000000E+00
  0.00000000E+00  0.00000000E+00  0.00000000E+00
  0.00000000E+00  0.00000000E+00  0.00000000E+00
  0.00000000E+00  0.00000000E+00  0.00000000E+00
  0.00000000E+00  0.00000000E+00  0.00000000E+00
  0.00000000E+00  0.00000000E+00  0.00000000E+00
  0.00000000E+00  0.00000000E+00  0.00000000E+00
  0.00000000E+00  0.00000000E+00  0.00000000E+00
  0.00000000E+00  0.00000000E+00  0.00000000E+00
  0.00000000E+00  0.00000000E+00  0.00000000E+00
  0.00000000E+00  0.00000000E+00  0.00000000E+00
  0.00000000E+00  0.00000000E+00  0.00000000E+00
  0.00000000E+00  0.00000000E+00  0.00000000E+00
  0.00000000E+00  0.00000000E+00  0.00000000E+00
  0.00000000E+00  0.00000000E+00  0.00000000E+00
  0.00000000E+00  0.00000000E+00  0.00000000E+00
  0.00000000E+00  0.00000000E+00  0.00000000E+00
  0.00000000E+00  0.00000000E+00  0.00000000E+00
  0.00000000E+00  0.00000000E+00  0.00000000E+00
  0.00000000E+00  0.00000000E+00  0.00000000E+00
  0.00000000E+00  0.00000000E+00  0.00000000E+00
  0.00000000E+00  0.00000000E+00  0.00000000E+00
  0.00000000E+00  0.00000000E+00  0.00000000E+00
  0.00000000E+00  0.00000000E+00  0.00000000E+00
  0.00000000E+00  0.00000000E+00  0.00000000E+00
  0.00000000E+00  0.00000000E+00  0.00000000E+00
  0.00000000E+00  0.00000000E+00  0.00000000E+00
  0.00000000E+00  0.00000000E+00  0.00000000E+00
  0.00000000E+00  0.00000000E+00  0.00000000E+00
  0.00000000E+00  0.00000000E+00  0.00000000E+00
  0.00000000E+00  0.00000000E+00  0.00000000E+00
  0.00000000E+00  0.00000000E+00  0.00000000E+00
  0.00000000E+00  0.00000000E+00  0.00000000E+00
  0.00000000E+00  0.00000000E+00  0.00000000E+00
  0.00000000E+00  0.00000000E+00  0.00000000E+00
  0.00000000E+00  0.00000000E+00  0.00000000E+00
  0.00000000E+00  0.00000000E+00  0.00000000E+00
  0.00000000E+00  0.00000000E+00  0.00000000E+00
  0.00000000E+00  0.00000000E+00  0.00000000E+00
  0.00000000E+00  0.00000000E+00  0.00000000E+00
  0.00000000E+00  0.00000000E+00  0.00000000E+00
  0.00000000E+00  0.00000000E+00  0.00000000E+00
  0.00000000E+00  0.00000000E+00  0.00000000E+00
  0.00000000E+00  0.00000000E+00  0.00000000E+00
  0.00000000E+00  0.00000000E+00  0.00000000E+00
  0.00000000E+00  0.00000000E+00  0.00000000E+00
  0.00000000E+00  0.00000000E+00  0.00000000E+00
  0.00000000E+00  0.00000000E+00  0.00000000E+00
  0.00000000E+00  0.00000000E+00  0.00000000E+00
  0.00000000E+00  0.00000000E+00  0.00000000E+00
  0.00000000E+00  0.00000000E+00  0.00000000E+00
  0.00000000E+00  0.00000000E+00  0.00000000E+00
  0.00000000E+00  0.00000000E+00  0.00000000E+00
  0.00000000E+00  0.00000000E+00  0.00000000E+00
  0.00000000E+00  0.00000000E+00  0.00000000E+00
  0.00000000E+00  0.00000000E+00  0.00000000E+00
  0.00000000E+00  0.00000000E+00  0.00000000E+00
  0.00000000E+00  0.00000000E+00  0.00000000E+00
  0.00000000E+00  0.00000000E+00  0.00000000E+00
  0.00000000E+00  0.00000000E+00  0.00000000E+00
  0.00000000E+00  0.00000000E+00  0.00000000E+00
  0.00000000E+00  0.00000000E+00  0.00000000E+00
  0.00000000E+00  0.00000000E+00  0.00000000E+00
  0.00000000E+00  0.00000000E+00  0.00000000E+00
  0.00000000E+00  0.00000000E+00  0.00000000E+00
  0.00000000E+00  0.00000000E+00  0.00000000E+00
  0.00000000E+00  0.00000000E+00  0.00000000E+00
  0.00000000E+00  0.00000000E+00  0.00000000E+00
  0.00000000E+00  0.00000000E+00  0.00000000E+00
  0.00000000E+00  0.00000000E+00  0.00000000E+00
  0.00000000E+00  0.00000000E+00  0.00000000E+00
  0.00000000E+00  0.00000000E+00  0.00000000E+00
  0.00000000E+00  0.00000000E+00  0.00000000E+00
  0.00000000E+00  0.00000000E+00  0.00000000E+00
  0.00000000E+00  0.00000000E+00  0.00000000E+00
  0.00000000E+00  0.00000000E+00  0.00000000E+00
  0.00000000E+00  0.00000000E+00  0.00000000E+00
  0.00000000E+00  0.00000000E+00  0.00000000E+00
  0.00000000E+00  0.00000000E+00  0.00000000E+00
  0.00000000E+00  0.00000000E+00  0.00000000E+00
  0.00000000E+00  0.00000000E+00  0.00000000E+00
  0.00000000E+00  0.00000000E+00  0.00000000E+00
  0.00000000E+00  0.00000000E+00  0.00000000E+00
  0.00000000E+00  0.00000000E+00  0.00000000E+00
  0.00000000E+00  0.00000000E+00  0.00000000E+00
  0.00000000E+00  0.00000000E+00  0.00000000E+00
  0.00000000E+00  0.00000000E+00  0.00000000E+00
  0.00000000E+00  0.00000000E+00  0.00000000E+00
  0.00000000E+00  0.00000000E+00  0.00000000E+00
  0.00000000E+00  0.00000000E+00  0.00000000E+00
  0.00000000E+00  0.00000000E+00  0.00000000E+00
  0.00000000E+00  0.00000000E+00  0.00000000E+00
  0.00000000E+00  0.00000000E+00  0.00000000E+00
  0.00000000E+00  0.00000000E+00  0.00000000E+00
  0.00000000E+00  0.00000000E+00  0.00000000E+00
  0.00000000E+00  0.00000000E+00  0.00000000E+00
  0.00000000E+00  0.00000000E+00  0.00000000E+00
  0.00000000E+00  0.00000000E+00  0.00000000E+00
  0.00000000E+00  0.00000000E+00  0.00000000E+00
  0.00000000E+00  0.00000000E+00  0.00000000E+00
  0.00000000E+00  0.00000000E+00  0.00000000E+00
  0.00000000E+00  0.00000000E+00  0.00000000E+00
  0.00000000E+00  0.00000000E+00  0.00000000E+00
  0.00000000E+00  0.00000000E+00  0.00000000E+00
  0.00000000E+00  0.00000000E+00  0.00000000E+00
  0.00000000E+00  0.00000000E+00  0.00000000E+00
  0.00000000E+00  0.00000000E+00  0.00000000E+00
  0.00000000E+00  0.00000000E+00  0.00000000E+00
  0.00000000E+00  0.00000000E+00  0.00000000E+00
  0.00000000E+00  0.00000000E+00  0.00000000E+00
  0.00000000E+00  0.00000000E+00  0.00000000E+00
  0.00000000E+00  0.00000000E+00  0.00000000E+00
  0.00000000E+00  0.00000000E+00  0.00000000E+00
  0.00000000E+00  0.00000000E+00  0.00000000E+00
  0.00000000E+00  0.00000000E+00  0.00000000E+00
  0.00000000E+00  0.00000000E+00  0.00000000E+00
  0.00000000E+00  0.00000000E+00  0.00000000E+00
  0.00000000E+00  0.00000000E+00  0.00000000E+00
  0.00000000E+00  0.00000000E+00  0.00000000E+00
  0.00000000E+00  0.00000000E+00  0.00000000E+00
  0.00000000E+00  0.00000000E+00  0.00000000E+00
  0.00000000E+00  0.00000000E+00  0.00000000E+00
  0.00000000E+00  0.00000000E+00  0.00000000E+00
  0.00000000E+00  0.00000000E+00  0.00000000E+00
  0.00000000E+00  0.00000000E+00  0.00000000E+00
  0.00000000E+00  0.00000000E+00  0.00000000E+00
  0.00000000E+00  0.00000000E+00  0.00000000E+00
  0.00000000E+00  0.00000000E+00  0.00000000E+00
  0.00000000E+00  0.00000000E+00  0.00000000E+00
  0.00000000E+00  0.00000000E+00  0.00000000E+00
  0.00000000E+00  0.00000000E+00  0.00000000E+00
