F Mg Tl                                 
   1.00000000000000     
     8.2215609999999995   -8.2215609999999995    0.0000000000000000
     8.2215609999999995    8.2215609999999995    0.0000000000000000
     0.0000000000000000    0.0000000000000000   16.4431229999999999
   F    Mg   Tl
    96    32    32
Direct
  0.1248612387020871  0.1256261767160290  0.9992089098082306
  0.1249348880260318  0.1257225703779896  0.2492055872620725
  0.1249238260677227  0.1256337441823165  0.4992266599622215
  0.1250294186112759  0.1254364531375778  0.7491926447723983
  0.6248256312392643  0.1255761969862793  0.9992479791937003
  0.6247783297108450  0.1258889668608341  0.2492228605542637
  0.6248832721348503  0.1256739365850755  0.4992647821568660
  0.6249760952407860  0.1254960948484804  0.7491903337111561
  0.3748363805873303  0.3756242201085582 -0.0008283932792217
  0.3748543945761528  0.3757905095887588  0.2492562520694391
  0.3749541233687471  0.3756658577867922  0.4992037610118573
  0.3750488792588265  0.3754724446554741  0.7492015666350649
  0.1250920285656952  0.6255209274605953 -0.0007505064816317
  0.1250465042747334  0.6257501087485355  0.2492202697715662
  0.1251535796196971  0.6256290635144092  0.4992739124108118
  0.1251940798222803  0.6253993102495035  0.7491883857272349
  0.8747876700287120  0.3756209786603873 -0.0008009385281516
  0.8748824238445034  0.3757530160372616  0.2492576013283366
  0.8749459272893617  0.3756002421284978  0.4992356060436750
  0.8749844771054157  0.3754557803081495  0.7492198292219914
  0.6250975266629252  0.6255783101164908  0.9992147142299244
  0.6250964701406159  0.6257774284856860  0.2492353183506410
  0.6252719216659445  0.6256264482496260  0.4992112119453898
  0.6252172684205057  0.6255487408145896  0.7491955057615478
  0.3750545244117088  0.8755511664872899 -0.0007854817462874
  0.3751159348737559  0.8757279472016185  0.2492437529415643
  0.3752030016921208  0.8755912489074514  0.4992442960726208
  0.3752160790157988  0.8754296943784818  0.7492309741958634
  0.8750815301736193  0.8755753887217594 -0.0007605457328542
  0.8751752023548666  0.8757370745000379  0.2492595621513373
  0.8751814437504881  0.8756432445912462  0.4992143165274981
  0.8752538261151864  0.8754681472499979  0.7492429663274086
  0.8748363147796383  0.1255757255330936 -0.0007563428134719
  0.8748508533684992  0.1257611344414422  0.2492466684704684
  0.8748784780399281  0.1255765084502379  0.4992599546733844
  0.8750068084033203  0.1254665199647883  0.7492416993364943
  0.3748118533652442  0.1255507986488690 -0.0007789720427210
  0.3748821376616626  0.1257234067061266  0.2492056272983730
  0.3749191878577589  0.1255878992169252  0.4992163991973343
  0.3749770324752125  0.1255014200644672  0.7492113470074520
  0.1247853802750808  0.3755280394428292 -0.0007690469424373
  0.1248448333718995  0.3757386327315050  0.2492916482581343
  0.1249255868405321  0.3756311842520464  0.4992726816331669
  0.1250151584634392  0.3754703966825494  0.7491916623111455
  0.8750541282419465  0.6256007825508740  0.9992453744857264
  0.8750935330346474  0.6257575328843191  0.2491661443215067
  0.8752111761936464  0.6256962380503603  0.4992454532076905
  0.8751592381302062  0.6255060155560848  0.7491862403415043
  0.6247705896108191  0.3755706719898241  0.9992268563132788
  0.6248293497465928  0.3758327390297406  0.2492360328238720
  0.6249160314610923  0.3756064069232128  0.4992303922792919
  0.6249548995117078  0.3754913138089640  0.7491796344128429
  0.3750997223372253  0.6256188818292454  0.9992035437211430
  0.3750701723881301  0.6257014178154645  0.2492765831440581
  0.3751400363049534  0.6256286162540622  0.4992547991699286
  0.3751838170925644  0.6255105865925047  0.7492346729726101
  0.1250666678537091  0.8755369403245532  0.9991924766301591
  0.1251261106345478  0.8757888815650371  0.2492502972059449
  0.1251481565824375  0.8756441235093528  0.4992004374190484
  0.1251641287257566  0.8754153197270674  0.7492432387368083
  0.6250235608651500  0.8756014692399970 -0.0007570411534628
  0.6251106738407927  0.8758414163911076  0.2492392687658161
  0.6252034133849553  0.8756853447790461  0.4992352721429539
  0.6252393814089776  0.8755536029409262  0.7492118714523063
  0.9999690310094973  0.0007457370504259  0.1241848122787391
 -0.0000100942239399  0.0008591180125939  0.3741872279434494
  0.0001266768135426  0.0005495987046724  0.6241587028316560
  0.0000663751476210  0.0006176590706333  0.8741797359148192
  0.4999468712920340  0.0007251338391285  0.1241596717466431
  0.4999998602267952  0.0007557257129928  0.3741728930528330
  0.5000537112127290  0.0005639933356501  0.6241587146970313
  0.5000022923846748  0.0005807248891130  0.8741518484383773
  0.2497830075655371  0.2508106097525855  0.1241605193996202
  0.2498319363129913  0.2507471608735276  0.3741868320589586
  0.2499094707361038  0.2505207618526386  0.6241577270200735
  0.2498111146296983  0.2505982668880424  0.8741626793351975
 -0.0000722422214131  0.5006030972916274  0.1241660163866043
 -0.0000328805193261  0.5008012201488902  0.3741792784603098
 -0.0000169743553987  0.5005230416244931  0.6241535349764289
  0.0000209851297657  0.5005499337362685  0.8741519861047033
  0.7497358553094529  0.2508421914605888  0.1241777880671268
  0.7497995071917748  0.2507619085750187  0.3741876800488267
  0.7499105899754106  0.2506032848528838  0.6241679685723873
  0.7497138304499957  0.2505386432027227  0.8741458597425941
  0.4999098265059074  0.5007808653803532  0.1241598301993452
  0.5000780163573162  0.5008449008744141  0.3741518588734899
  0.5000362112603831  0.5006796638200448  0.6241721123626345
  0.5001129630236026  0.5006049021621013  0.8741332364954092
  0.2501554237459727  0.7506796325106316  0.1241869486222966
  0.2502179683332367  0.7507314220449757  0.3741813241262954
  0.2502604446406043  0.7506252778500930  0.6241632034259429
  0.2501755152083983  0.7504710971816844  0.8741568238074489
  0.7501180124429235  0.7508470793652899  0.1241734251133004
  0.7502732025224809  0.7508250628304393  0.3741494550617607
  0.7502939172541768  0.7506834251567429  0.6241722735815577
  0.7501703658493980  0.7505891135636183  0.8741495020219714
 -0.0000318078802496  0.0005951761829257  0.9991137188066763
 -0.0000051254717579  0.0007895717155070  0.2491623649281501
  0.0000676879198792  0.0006194847263235  0.4991346296742108
  0.0001119604620275  0.0005064187967930  0.7491474401756117
  0.4999780492026014  0.0005790679229944 -0.0008573725719305
  0.4999574142092038  0.0008060092284751  0.2491339314643993
  0.5000310654326997  0.0006221977990536  0.4991655160581075
  0.5000832865129640  0.0005035270033215  0.7491421002050234
  0.2497868625869448  0.2505931932410754 -0.0008725991131183
  0.2498469449301300  0.2507821511147809  0.2491718993131076
  0.2499060178113764  0.2505971448419352  0.4991359834634527
  0.2499595556904356  0.2505047487736493  0.7490784794000086
 -0.0000701905448652  0.5005594940687008 -0.0008929893677707
 -0.0000523805969707  0.5007353588461049  0.2492038678244055
  0.0000320804334354  0.5006204955703968  0.4991333731401600
  0.0000553568671917  0.5004355687391756  0.7490941764808005
  0.7497523343353090  0.2506266504907146  0.9991499827289654
  0.7498102412615620  0.2508053671823376  0.2491530903756380
  0.7498843312924960  0.2506145790885498  0.4991733557677955
  0.7499067733588880  0.2504858992859549  0.7491308058620424
  0.4999777913287102  0.5005911675997511  0.9991332828335033
  0.4999728458640685  0.5008254467908988  0.2491477722743075
  0.5000450619591340  0.5006761212865680  0.4991471087589067
  0.5000951182701640  0.5005324036287937  0.7490980602167110
  0.2501136840330525  0.7505769236393707 -0.0008639083496400
  0.2501417382892213  0.7507286078578612  0.2491898245004847
  0.2502155911691410  0.7506004881772671  0.4991410166762797
  0.2502083981646583  0.7504758203480477  0.7491300216020131
  0.7500937166880441  0.7506528271973830  0.9991340721513319
  0.7501845419645106  0.7508098309830186  0.2491397659801428
  0.7502680959225534  0.7506574642172955  0.4991526054462602
  0.7502323528955023  0.7505312422445142  0.7491123236011594
  0.9997829582362827  0.2508281601832716  0.1241585181466528
  0.9998188846593736  0.2507290725863526  0.3742157044156775
  0.9999216653197087  0.2505348615835293  0.6241791454261600
  0.9997424204924841  0.2505090202195069  0.8741637188684859
  0.4997047363337740  0.2507621064366161  0.1241421449992592
  0.4998811076673469  0.2508080190136676  0.3741862792412327
  0.4998528304225744  0.2505806718240301  0.6241031288365576
  0.4998128001743306  0.2505441396726448  0.8741157843931684
  0.2499123130879956  0.5007270131563766  0.1241211470275201
  0.2499643389596177  0.5007713026325077  0.3742150777696099
  0.2501082817806909  0.5005140883941019  0.6241409168920792
  0.2500430334743811  0.5005304284806316  0.8740607899171201
  0.0001699329798377  0.7506967216843363  0.1241540422177962
  0.0002338322365470  0.7507642505393708  0.3741363112407687
  0.0003521466159840  0.7505654511163502  0.6241812027421468
  0.0001877624640568  0.7505004563931511  0.8741623890537590
  0.7499359664341634  0.5007498870224587  0.1241685680099331
  0.7499448346030843  0.5008142923024775  0.3741492285963091
  0.7500852870236558  0.5005913875671802  0.6241280935000222
  0.7500048919874588  0.5005681596876330  0.8741558852987523
  0.5001476791351733  0.7508639658580735  0.1241459090344662
  0.5003109167441969  0.7507807288284745  0.3741522781359894
  0.5003161288920110  0.7506430375933779  0.6241600347887105
  0.5002021088148942  0.7505292695430391  0.8741588826093735
  0.2498838474567001  0.0007221975095613  0.1241752595155489
  0.2499941503958303  0.0007805312916674  0.3741639061682009
  0.2501436893068434  0.0005354714370806  0.6241864003971916
  0.2500359274183681  0.0005670626467095  0.8741984506915543
  0.7500010219745675  0.0008297492839985  0.1241627400795856
  0.7499301481654348  0.0008280651108526  0.3741530666405682
  0.7501195989043500  0.0005099676468053  0.6241103218103369
  0.7500812626603427  0.0005573540073091  0.8741529333035343
 
  0.00000000E+00  0.00000000E+00  0.00000000E+00
  0.00000000E+00  0.00000000E+00  0.00000000E+00
  0.00000000E+00  0.00000000E+00  0.00000000E+00
  0.00000000E+00  0.00000000E+00  0.00000000E+00
  0.00000000E+00  0.00000000E+00  0.00000000E+00
  0.00000000E+00  0.00000000E+00  0.00000000E+00
  0.00000000E+00  0.00000000E+00  0.00000000E+00
  0.00000000E+00  0.00000000E+00  0.00000000E+00
  0.00000000E+00  0.00000000E+00  0.00000000E+00
  0.00000000E+00  0.00000000E+00  0.00000000E+00
  0.00000000E+00  0.00000000E+00  0.00000000E+00
  0.00000000E+00  0.00000000E+00  0.00000000E+00
  0.00000000E+00  0.00000000E+00  0.00000000E+00
  0.00000000E+00  0.00000000E+00  0.00000000E+00
  0.00000000E+00  0.00000000E+00  0.00000000E+00
  0.00000000E+00  0.00000000E+00  0.00000000E+00
  0.00000000E+00  0.00000000E+00  0.00000000E+00
  0.00000000E+00  0.00000000E+00  0.00000000E+00
  0.00000000E+00  0.00000000E+00  0.00000000E+00
  0.00000000E+00  0.00000000E+00  0.00000000E+00
  0.00000000E+00  0.00000000E+00  0.00000000E+00
  0.00000000E+00  0.00000000E+00  0.00000000E+00
  0.00000000E+00  0.00000000E+00  0.00000000E+00
  0.00000000E+00  0.00000000E+00  0.00000000E+00
  0.00000000E+00  0.00000000E+00  0.00000000E+00
  0.00000000E+00  0.00000000E+00  0.00000000E+00
  0.00000000E+00  0.00000000E+00  0.00000000E+00
  0.00000000E+00  0.00000000E+00  0.00000000E+00
  0.00000000E+00  0.00000000E+00  0.00000000E+00
  0.00000000E+00  0.00000000E+00  0.00000000E+00
  0.00000000E+00  0.00000000E+00  0.00000000E+00
  0.00000000E+00  0.00000000E+00  0.00000000E+00
  0.00000000E+00  0.00000000E+00  0.00000000E+00
  0.00000000E+00  0.00000000E+00  0.00000000E+00
  0.00000000E+00  0.00000000E+00  0.00000000E+00
  0.00000000E+00  0.00000000E+00  0.00000000E+00
  0.00000000E+00  0.00000000E+00  0.00000000E+00
  0.00000000E+00  0.00000000E+00  0.00000000E+00
  0.00000000E+00  0.00000000E+00  0.00000000E+00
  0.00000000E+00  0.00000000E+00  0.00000000E+00
  0.00000000E+00  0.00000000E+00  0.00000000E+00
  0.00000000E+00  0.00000000E+00  0.00000000E+00
  0.00000000E+00  0.00000000E+00  0.00000000E+00
  0.00000000E+00  0.00000000E+00  0.00000000E+00
  0.00000000E+00  0.00000000E+00  0.00000000E+00
  0.00000000E+00  0.00000000E+00  0.00000000E+00
  0.00000000E+00  0.00000000E+00  0.00000000E+00
  0.00000000E+00  0.00000000E+00  0.00000000E+00
  0.00000000E+00  0.00000000E+00  0.00000000E+00
  0.00000000E+00  0.00000000E+00  0.00000000E+00
  0.00000000E+00  0.00000000E+00  0.00000000E+00
  0.00000000E+00  0.00000000E+00  0.00000000E+00
  0.00000000E+00  0.00000000E+00  0.00000000E+00
  0.00000000E+00  0.00000000E+00  0.00000000E+00
  0.00000000E+00  0.00000000E+00  0.00000000E+00
  0.00000000E+00  0.00000000E+00  0.00000000E+00
  0.00000000E+00  0.00000000E+00  0.00000000E+00
  0.00000000E+00  0.00000000E+00  0.00000000E+00
  0.00000000E+00  0.00000000E+00  0.00000000E+00
  0.00000000E+00  0.00000000E+00  0.00000000E+00
  0.00000000E+00  0.00000000E+00  0.00000000E+00
  0.00000000E+00  0.00000000E+00  0.00000000E+00
  0.00000000E+00  0.00000000E+00  0.00000000E+00
  0.00000000E+00  0.00000000E+00  0.00000000E+00
  0.00000000E+00  0.00000000E+00  0.00000000E+00
  0.00000000E+00  0.00000000E+00  0.00000000E+00
  0.00000000E+00  0.00000000E+00  0.00000000E+00
  0.00000000E+00  0.00000000E+00  0.00000000E+00
  0.00000000E+00  0.00000000E+00  0.00000000E+00
  0.00000000E+00  0.00000000E+00  0.00000000E+00
  0.00000000E+00  0.00000000E+00  0.00000000E+00
  0.00000000E+00  0.00000000E+00  0.00000000E+00
  0.00000000E+00  0.00000000E+00  0.00000000E+00
  0.00000000E+00  0.00000000E+00  0.00000000E+00
  0.00000000E+00  0.00000000E+00  0.00000000E+00
  0.00000000E+00  0.00000000E+00  0.00000000E+00
  0.00000000E+00  0.00000000E+00  0.00000000E+00
  0.00000000E+00  0.00000000E+00  0.00000000E+00
  0.00000000E+00  0.00000000E+00  0.00000000E+00
  0.00000000E+00  0.00000000E+00  0.00000000E+00
  0.00000000E+00  0.00000000E+00  0.00000000E+00
  0.00000000E+00  0.00000000E+00  0.00000000E+00
  0.00000000E+00  0.00000000E+00  0.00000000E+00
  0.00000000E+00  0.00000000E+00  0.00000000E+00
  0.00000000E+00  0.00000000E+00  0.00000000E+00
  0.00000000E+00  0.00000000E+00  0.00000000E+00
  0.00000000E+00  0.00000000E+00  0.00000000E+00
  0.00000000E+00  0.00000000E+00  0.00000000E+00
  0.00000000E+00  0.00000000E+00  0.00000000E+00
  0.00000000E+00  0.00000000E+00  0.00000000E+00
  0.00000000E+00  0.00000000E+00  0.00000000E+00
  0.00000000E+00  0.00000000E+00  0.00000000E+00
  0.00000000E+00  0.00000000E+00  0.00000000E+00
  0.00000000E+00  0.00000000E+00  0.00000000E+00
  0.00000000E+00  0.00000000E+00  0.00000000E+00
  0.00000000E+00  0.00000000E+00  0.00000000E+00
  0.00000000E+00  0.00000000E+00  0.00000000E+00
  0.00000000E+00  0.00000000E+00  0.00000000E+00
  0.00000000E+00  0.00000000E+00  0.00000000E+00
  0.00000000E+00  0.00000000E+00  0.00000000E+00
  0.00000000E+00  0.00000000E+00  0.00000000E+00
  0.00000000E+00  0.00000000E+00  0.00000000E+00
  0.00000000E+00  0.00000000E+00  0.00000000E+00
  0.00000000E+00  0.00000000E+00  0.00000000E+00
  0.00000000E+00  0.00000000E+00  0.00000000E+00
  0.00000000E+00  0.00000000E+00  0.00000000E+00
  0.00000000E+00  0.00000000E+00  0.00000000E+00
  0.00000000E+00  0.00000000E+00  0.00000000E+00
  0.00000000E+00  0.00000000E+00  0.00000000E+00
  0.00000000E+00  0.00000000E+00  0.00000000E+00
  0.00000000E+00  0.00000000E+00  0.00000000E+00
  0.00000000E+00  0.00000000E+00  0.00000000E+00
  0.00000000E+00  0.00000000E+00  0.00000000E+00
  0.00000000E+00  0.00000000E+00  0.00000000E+00
  0.00000000E+00  0.00000000E+00  0.00000000E+00
  0.00000000E+00  0.00000000E+00  0.00000000E+00
  0.00000000E+00  0.00000000E+00  0.00000000E+00
  0.00000000E+00  0.00000000E+00  0.00000000E+00
  0.00000000E+00  0.00000000E+00  0.00000000E+00
  0.00000000E+00  0.00000000E+00  0.00000000E+00
  0.00000000E+00  0.00000000E+00  0.00000000E+00
  0.00000000E+00  0.00000000E+00  0.00000000E+00
  0.00000000E+00  0.00000000E+00  0.00000000E+00
  0.00000000E+00  0.00000000E+00  0.00000000E+00
  0.00000000E+00  0.00000000E+00  0.00000000E+00
  0.00000000E+00  0.00000000E+00  0.00000000E+00
  0.00000000E+00  0.00000000E+00  0.00000000E+00
  0.00000000E+00  0.00000000E+00  0.00000000E+00
  0.00000000E+00  0.00000000E+00  0.00000000E+00
  0.00000000E+00  0.00000000E+00  0.00000000E+00
  0.00000000E+00  0.00000000E+00  0.00000000E+00
  0.00000000E+00  0.00000000E+00  0.00000000E+00
  0.00000000E+00  0.00000000E+00  0.00000000E+00
  0.00000000E+00  0.00000000E+00  0.00000000E+00
  0.00000000E+00  0.00000000E+00  0.00000000E+00
  0.00000000E+00  0.00000000E+00  0.00000000E+00
  0.00000000E+00  0.00000000E+00  0.00000000E+00
  0.00000000E+00  0.00000000E+00  0.00000000E+00
  0.00000000E+00  0.00000000E+00  0.00000000E+00
  0.00000000E+00  0.00000000E+00  0.00000000E+00
  0.00000000E+00  0.00000000E+00  0.00000000E+00
  0.00000000E+00  0.00000000E+00  0.00000000E+00
  0.00000000E+00  0.00000000E+00  0.00000000E+00
  0.00000000E+00  0.00000000E+00  0.00000000E+00
  0.00000000E+00  0.00000000E+00  0.00000000E+00
  0.00000000E+00  0.00000000E+00  0.00000000E+00
  0.00000000E+00  0.00000000E+00  0.00000000E+00
  0.00000000E+00  0.00000000E+00  0.00000000E+00
  0.00000000E+00  0.00000000E+00  0.00000000E+00
  0.00000000E+00  0.00000000E+00  0.00000000E+00
  0.00000000E+00  0.00000000E+00  0.00000000E+00
  0.00000000E+00  0.00000000E+00  0.00000000E+00
  0.00000000E+00  0.00000000E+00  0.00000000E+00
  0.00000000E+00  0.00000000E+00  0.00000000E+00
  0.00000000E+00  0.00000000E+00  0.00000000E+00
  0.00000000E+00  0.00000000E+00  0.00000000E+00
  0.00000000E+00  0.00000000E+00  0.00000000E+00
  0.00000000E+00  0.00000000E+00  0.00000000E+00
  0.00000000E+00  0.00000000E+00  0.00000000E+00
  0.00000000E+00  0.00000000E+00  0.00000000E+00
