Na Pb Cl                                
   1.00000000000000     
    11.2862670000000005  -11.2862670000000005    0.0000000000000000
    11.2862670000000005   11.2862670000000005    0.0000000000000000
     0.0000000000000000    0.0000000000000000   22.5725349999999985
   Na   Pb   Cl
    32    32    96
Direct
  0.9736685654434900  0.9526885586263039  0.9997347917897429
  0.0477753319749904  0.0569523216058786  0.1984997653754679
  0.0423134559474518  0.0753875035032223  0.4772422945383752
  0.9532484632924559  0.0572312433378586  0.7748394266045976
  0.4614540469213921  0.9781912807224352  0.9403109041445895
  0.5433205722647068  0.0357649233218049  0.2120759598012116
  0.5115092979411889  0.9528210046762272  0.4896619600148056
  0.3904214886744278  0.9923656537356867  0.7696594659098223
  0.2098138104612065  0.2643914481673347  0.0354438600439474
  0.2395213639157082  0.1939712202154173  0.3103435153663529
  0.3112850709389282  0.2322826547505160  0.4956721780929089
  0.1726576070472625  0.1953021014050342  0.6912291922417131
  0.0956756436973225  0.5295951122462172 -0.0057117108514391
  0.0186921307135044  0.5771159218230624  0.2660764751478355
  0.0047465418165013  0.5458695746675336  0.4432021611823870
  0.9994875172485039  0.4853165627580425  0.6611350851168529
  0.8285619939086841  0.3446149083006999  0.0103850160098249
  0.7723843746178694  0.2345611258927774  0.2103754838846205
  0.6686592305847691  0.1534509793383380  0.5212364476134677
  0.6702873606034857  0.1812469912485430  0.7430298583462075
  0.4350390267859617  0.4172155295313447  0.0057662502511758
  0.5036501257387344  0.4808929174031130  0.2904053895918626
  0.4910548151758402  0.5054050789596222  0.5589494444687704
  0.5803993326509574  0.4732752996540373  0.7625209719528082
  0.2891489219141095  0.6945343836525852  0.9587336388732072
  0.3422785139875348  0.7148563767677628  0.2623867372672058
  0.3030350252972358  0.8084116330921056  0.5037007129593667
  0.3584509678451005  0.6182630245596855  0.7344087843620466
  0.7614284452016838  0.7981462992246440  0.9567051726419097
  0.8367425069661634  0.7282095390469848  0.2634340218930389
  0.8126108117561602  0.6847283972543731  0.4451554969666999
  0.8372894224027422  0.6852923098817616  0.7492744500385895
  0.9990902903866040  0.2663042419865957  0.1320133616818513
  0.9646699280613016  0.2592186603841702  0.3620625040355331
  0.9719607060479537  0.2319423824860226  0.6107811141304231
  0.0030333597728698  0.2562388915848637  0.8887323065710654
  0.4980670905022122  0.2706158452335394  0.1262662062155084
  0.4928716654683285  0.2540052198856989  0.3717237311849001
  0.4851594770901241  0.2609369344898811  0.6205188166658057
  0.5115043655063076  0.2624169432546061  0.8745444312493779
  0.2375299878012614  0.5114307092622162  0.1248441854304677
  0.2204054277839968  0.4893771378174400  0.3656556888958233
  0.2374042604351444  0.4852159595788418  0.6081951331103876
  0.2510657421373973  0.4919586835903557  0.8667280467077946
  0.9764142894311647  0.7616411857432865  0.1252842500365215
  0.0171377570155789  0.7856625692817341  0.3806138596856365
  0.0220083244596439  0.7543226931857631  0.6224754823954215
  0.0012276165937126  0.7633799614242252  0.8773378643340246
  0.7273912881423429  0.5204636912900787  0.1311230237837247
  0.7334610122713124  0.4894770845922745  0.3671068700337557
  0.7557491257068778  0.5081426535743850  0.6120926416666973
  0.7554948749116621  0.5153451443523185  0.8841029799954407
  0.4943636255373550  0.7564203762879919  0.1333800214559430
  0.5056336802555271  0.7506625972299908  0.3835623988624871
  0.5298945615371774  0.7433057093156306  0.6364673121277519
  0.5095795167582597  0.7526570259367888  0.8823732337186072
  0.2681178029933682  0.0036561246144653  0.1394840920367956
  0.2692177071364508  0.9898202764612664  0.3810221913181049
  0.2594362636345879  0.9962732545081960  0.6229766999085294
  0.2383594968464851  0.0272335388584471  0.8977142608922258
  0.7492639526194569  0.9947317172554720  0.1372556865722958
  0.7452743908683745  0.0030378591382920  0.3830527478182649
  0.7598602515337892  0.9771837896750398  0.6273637938764559
  0.7624012650846288  0.0108813208769071  0.8822986920771581
  0.9589876129261816  0.2359956383777010  0.0149713262336277
  0.0665579903261035  0.2204217439109482  0.2658272559044125
  0.9987234735953486  0.2475242140022434  0.4934763459047323
  0.0269846325057105  0.2053089029633141  0.7611278852839346
  0.5097089112051237  0.2531232876533765  0.9994903933744557
  0.4878218784516019  0.3156172326647009  0.2536874925648298
  0.4897453543325304  0.2002347843656179  0.5011208294162568
  0.5382984107147657  0.3020447413465798  0.7463268409490702
  0.2835715189260548  0.5304393402560847  0.9977994497970791
  0.1708493771721441  0.4947711215457942  0.2420160872088587
  0.1768056760630705  0.5102984430792898  0.4925048134529380
  0.2786354931603378  0.4718109006989210  0.7432666397101769
  0.9325494455843060  0.7759111489782490  0.9941312560295750
  0.0138363864767991  0.7548444810395495  0.2484745775451423
  0.9754596932167282  0.7083763712657204  0.4873165238173094
  0.9939102186813032  0.7785472556814858  0.7422856811789653
  0.7838951562415450  0.5073214813922186  0.0076659608474329
  0.6668727561900279  0.5133491300108002  0.2546534242658908
  0.8167999419826265  0.5186904188510016  0.4922066691696763
  0.7368286245066474  0.5332213877293224  0.7464400295529448
  0.4435796154446634  0.7553277300773745  0.9938846502086344
  0.5145839130993135  0.7418362000653297  0.2559963555729212
  0.4743700185963078  0.7862583726448193  0.5090913652355421
  0.5237863075323197  0.6484578844090984  0.7411291204824662
  0.3148170135118086  0.0022647803331863  0.0041080740400335
  0.2009268678634324  0.0279226180351812  0.2553396434715578
  0.3384768257885594  0.9794067756848199  0.4967588598488679
  0.2292021147726034  0.0406699685261902  0.7430732869889364
  0.7949353917740738  0.9665904178400534  0.0059690825789040
  0.7101768667813491  0.0141982225823614  0.2605406613579020
  0.6804884256425875  0.9796363056064811  0.5123859878914188
  0.7877708273435599  0.0483331445444335  0.7504629592542954
  0.1370426667676941  0.1538726185017040  0.1148613277389900
  0.1920400717979384  0.1358835836268217  0.4224873343380379
  0.0890334960504149  0.0959980130919784  0.6026554676727565
  0.1659493814509258  0.1747333529486508  0.9325099747057972
  0.6433266837606435  0.1575455252811475  0.1511439132245921
  0.6627098689614677  0.1524776422089210  0.3979896249602638
  0.6064933351801609  0.1342444896547445  0.6365497430402234
  0.6570076071263912  0.1644538406027798  0.8621401888936442
  0.3393600961062338  0.3465369555701756  0.0957871047606876
  0.3277624270803731  0.3187785213654215  0.3831341413671971
  0.3704186548070224  0.3820106059774109  0.5583526437986716
  0.3608747461572228  0.3685074630455518  0.8981448608952304
  0.1165390858120488  0.6306637560772727  0.0950145564084206
  0.1229010376298632  0.6361278573469806  0.3644868636197862
  0.1166606941235230  0.6053578100717363  0.6497890609354321
  0.1331579235067962  0.6532193367406675  0.9114062268858599
  0.8326319318244921  0.3524450729711786  0.1318963761104822
  0.8226442820921410  0.3228879146806288  0.3111043487694062
  0.8709392178495383  0.3810230617158822  0.6381103800741724
  0.8539810585164604  0.3512779371524640  0.8897591299401234
  0.6411998804161462  0.6674485128795714  0.1085985176499813
  0.6620890730970108  0.6441581496501740  0.3952207031781887
  0.6148131189997077  0.6229308445031407  0.5766930222892110
  0.6682657969015412  0.6681575980159168  0.9077221198403882
  0.3480163864322815  0.8615902712305763  0.1774203769578895
  0.3346645785406657  0.8072449442529385  0.3748543096382851
  0.4080842444124410  0.9250052098935198  0.6611903260410521
  0.3808614855763728  0.8775476968607248  0.8581104595645852
  0.8281760436612051  0.8415072205338076  0.1655034815482312
  0.8453739059984845  0.8265682629023235  0.3706575355064410
  0.9047877164547002  0.8965832900396160  0.6037895102081416
  0.8390438030259523  0.8580777324063537  0.8545095854893416
  0.8959362305097914  0.1254959531785786  0.1672361143057797
  0.9043136104189791  0.0812480815315604  0.3888289252316952
  0.8272404383165871  0.1325458188202713  0.5825310963210575
  0.9222125714847472  0.0810068526688786  0.8911917699931298
  0.4013553294584109  0.1023740354249883  0.1603573488139599
  0.3953069924703765  0.1056713687998892  0.3380015621977465
  0.3156401199735879  0.1713421688755891  0.6170721647842285
  0.4135459924856832  0.1046197391378991  0.8616052586146790
  0.1102098615667242  0.3963017264704177  0.0776781861186644
  0.0453907254241704  0.4178107898128721  0.3671567846983732
  0.1117965687306468  0.3521246204481686  0.6383969697983153
  0.0969980044644219  0.4063260635649833  0.9037222635095999
  0.8744972978699292  0.6113419761020490  0.1724292273334225
  0.8842198392974837  0.5991981389054589  0.3460579667246271
  0.8888520873438144  0.6230871904120104  0.6406953929351230
  0.8991973382779266  0.6255030136393179  0.8548327735921207
  0.5670637598296050  0.4253497680800859  0.1008179515998464
  0.5719677856695248  0.4159059307253333  0.3951122128645835
  0.6048506629849120  0.3912288389347422  0.6008070810580658
  0.5968666505489651  0.4290533554052616  0.8797402979702462
  0.3706743528838771  0.6290644564605584  0.1563967535216698
  0.3727264824776138  0.5757541703507426  0.3368375037831927
  0.3716109768684919  0.6095947688048144  0.6123742276688364
  0.3626266700401849  0.6341926082752866  0.8564908279167945
  0.0468308489660471  0.9230051266640165  0.1127178722166652
  0.1107197823148075  0.9203719111260614  0.4276823879732342
  0.1853530340791964  0.8320387175560523  0.5943366005370484
  0.1010973489250852  0.9210252178452457  0.9180895128733702
  0.5930571414463398  0.9197171782495942  0.1297232956830634
  0.5677345315848722  0.9075640099174562  0.3790648610782776
  0.6759404790873021  0.8207800274020052  0.6676246152573846
  0.6074765556051445  0.8960437759190507  0.9127376177201451
 
  0.00000000E+00  0.00000000E+00  0.00000000E+00
  0.00000000E+00  0.00000000E+00  0.00000000E+00
  0.00000000E+00  0.00000000E+00  0.00000000E+00
  0.00000000E+00  0.00000000E+00  0.00000000E+00
  0.00000000E+00  0.00000000E+00  0.00000000E+00
  0.00000000E+00  0.00000000E+00  0.00000000E+00
  0.00000000E+00  0.00000000E+00  0.00000000E+00
  0.00000000E+00  0.00000000E+00  0.00000000E+00
  0.00000000E+00  0.00000000E+00  0.00000000E+00
  0.00000000E+00  0.00000000E+00  0.00000000E+00
  0.00000000E+00  0.00000000E+00  0.00000000E+00
  0.00000000E+00  0.00000000E+00  0.00000000E+00
  0.00000000E+00  0.00000000E+00  0.00000000E+00
  0.00000000E+00  0.00000000E+00  0.00000000E+00
  0.00000000E+00  0.00000000E+00  0.00000000E+00
  0.00000000E+00  0.00000000E+00  0.00000000E+00
  0.00000000E+00  0.00000000E+00  0.00000000E+00
  0.00000000E+00  0.00000000E+00  0.00000000E+00
  0.00000000E+00  0.00000000E+00  0.00000000E+00
  0.00000000E+00  0.00000000E+00  0.00000000E+00
  0.00000000E+00  0.00000000E+00  0.00000000E+00
  0.00000000E+00  0.00000000E+00  0.00000000E+00
  0.00000000E+00  0.00000000E+00  0.00000000E+00
  0.00000000E+00  0.00000000E+00  0.00000000E+00
  0.00000000E+00  0.00000000E+00  0.00000000E+00
  0.00000000E+00  0.00000000E+00  0.00000000E+00
  0.00000000E+00  0.00000000E+00  0.00000000E+00
  0.00000000E+00  0.00000000E+00  0.00000000E+00
  0.00000000E+00  0.00000000E+00  0.00000000E+00
  0.00000000E+00  0.00000000E+00  0.00000000E+00
  0.00000000E+00  0.00000000E+00  0.00000000E+00
  0.00000000E+00  0.00000000E+00  0.00000000E+00
  0.00000000E+00  0.00000000E+00  0.00000000E+00
  0.00000000E+00  0.00000000E+00  0.00000000E+00
  0.00000000E+00  0.00000000E+00  0.00000000E+00
  0.00000000E+00  0.00000000E+00  0.00000000E+00
  0.00000000E+00  0.00000000E+00  0.00000000E+00
  0.00000000E+00  0.00000000E+00  0.00000000E+00
  0.00000000E+00  0.00000000E+00  0.00000000E+00
  0.00000000E+00  0.00000000E+00  0.00000000E+00
  0.00000000E+00  0.00000000E+00  0.00000000E+00
  0.00000000E+00  0.00000000E+00  0.00000000E+00
  0.00000000E+00  0.00000000E+00  0.00000000E+00
  0.00000000E+00  0.00000000E+00  0.00000000E+00
  0.00000000E+00  0.00000000E+00  0.00000000E+00
  0.00000000E+00  0.00000000E+00  0.00000000E+00
  0.00000000E+00  0.00000000E+00  0.00000000E+00
  0.00000000E+00  0.00000000E+00  0.00000000E+00
  0.00000000E+00  0.00000000E+00  0.00000000E+00
  0.00000000E+00  0.00000000E+00  0.00000000E+00
  0.00000000E+00  0.00000000E+00  0.00000000E+00
  0.00000000E+00  0.00000000E+00  0.00000000E+00
  0.00000000E+00  0.00000000E+00  0.00000000E+00
  0.00000000E+00  0.00000000E+00  0.00000000E+00
  0.00000000E+00  0.00000000E+00  0.00000000E+00
  0.00000000E+00  0.00000000E+00  0.00000000E+00
  0.00000000E+00  0.00000000E+00  0.00000000E+00
  0.00000000E+00  0.00000000E+00  0.00000000E+00
  0.00000000E+00  0.00000000E+00  0.00000000E+00
  0.00000000E+00  0.00000000E+00  0.00000000E+00
  0.00000000E+00  0.00000000E+00  0.00000000E+00
  0.00000000E+00  0.00000000E+00  0.00000000E+00
  0.00000000E+00  0.00000000E+00  0.00000000E+00
  0.00000000E+00  0.00000000E+00  0.00000000E+00
  0.00000000E+00  0.00000000E+00  0.00000000E+00
  0.00000000E+00  0.00000000E+00  0.00000000E+00
  0.00000000E+00  0.00000000E+00  0.00000000E+00
  0.00000000E+00  0.00000000E+00  0.00000000E+00
  0.00000000E+00  0.00000000E+00  0.00000000E+00
  0.00000000E+00  0.00000000E+00  0.00000000E+00
  0.00000000E+00  0.00000000E+00  0.00000000E+00
  0.00000000E+00  0.00000000E+00  0.00000000E+00
  0.00000000E+00  0.00000000E+00  0.00000000E+00
  0.00000000E+00  0.00000000E+00  0.00000000E+00
  0.00000000E+00  0.00000000E+00  0.00000000E+00
  0.00000000E+00  0.00000000E+00  0.00000000E+00
  0.00000000E+00  0.00000000E+00  0.00000000E+00
  0.00000000E+00  0.00000000E+00  0.00000000E+00
  0.00000000E+00  0.00000000E+00  0.00000000E+00
  0.00000000E+00  0.00000000E+00  0.00000000E+00
  0.00000000E+00  0.00000000E+00  0.00000000E+00
  0.00000000E+00  0.00000000E+00  0.00000000E+00
  0.00000000E+00  0.00000000E+00  0.00000000E+00
  0.00000000E+00  0.00000000E+00  0.00000000E+00
  0.00000000E+00  0.00000000E+00  0.00000000E+00
  0.00000000E+00  0.00000000E+00  0.00000000E+00
  0.00000000E+00  0.00000000E+00  0.00000000E+00
  0.00000000E+00  0.00000000E+00  0.00000000E+00
  0.00000000E+00  0.00000000E+00  0.00000000E+00
  0.00000000E+00  0.00000000E+00  0.00000000E+00
  0.00000000E+00  0.00000000E+00  0.00000000E+00
  0.00000000E+00  0.00000000E+00  0.00000000E+00
  0.00000000E+00  0.00000000E+00  0.00000000E+00
  0.00000000E+00  0.00000000E+00  0.00000000E+00
  0.00000000E+00  0.00000000E+00  0.00000000E+00
  0.00000000E+00  0.00000000E+00  0.00000000E+00
  0.00000000E+00  0.00000000E+00  0.00000000E+00
  0.00000000E+00  0.00000000E+00  0.00000000E+00
  0.00000000E+00  0.00000000E+00  0.00000000E+00
  0.00000000E+00  0.00000000E+00  0.00000000E+00
  0.00000000E+00  0.00000000E+00  0.00000000E+00
  0.00000000E+00  0.00000000E+00  0.00000000E+00
  0.00000000E+00  0.00000000E+00  0.00000000E+00
  0.00000000E+00  0.00000000E+00  0.00000000E+00
  0.00000000E+00  0.00000000E+00  0.00000000E+00
  0.00000000E+00  0.00000000E+00  0.00000000E+00
  0.00000000E+00  0.00000000E+00  0.00000000E+00
  0.00000000E+00  0.00000000E+00  0.00000000E+00
  0.00000000E+00  0.00000000E+00  0.00000000E+00
  0.00000000E+00  0.00000000E+00  0.00000000E+00
  0.00000000E+00  0.00000000E+00  0.00000000E+00
  0.00000000E+00  0.00000000E+00  0.00000000E+00
  0.00000000E+00  0.00000000E+00  0.00000000E+00
  0.00000000E+00  0.00000000E+00  0.00000000E+00
  0.00000000E+00  0.00000000E+00  0.00000000E+00
  0.00000000E+00  0.00000000E+00  0.00000000E+00
  0.00000000E+00  0.00000000E+00  0.00000000E+00
  0.00000000E+00  0.00000000E+00  0.00000000E+00
  0.00000000E+00  0.00000000E+00  0.00000000E+00
  0.00000000E+00  0.00000000E+00  0.00000000E+00
  0.00000000E+00  0.00000000E+00  0.00000000E+00
  0.00000000E+00  0.00000000E+00  0.00000000E+00
  0.00000000E+00  0.00000000E+00  0.00000000E+00
  0.00000000E+00  0.00000000E+00  0.00000000E+00
  0.00000000E+00  0.00000000E+00  0.00000000E+00
  0.00000000E+00  0.00000000E+00  0.00000000E+00
  0.00000000E+00  0.00000000E+00  0.00000000E+00
  0.00000000E+00  0.00000000E+00  0.00000000E+00
  0.00000000E+00  0.00000000E+00  0.00000000E+00
  0.00000000E+00  0.00000000E+00  0.00000000E+00
  0.00000000E+00  0.00000000E+00  0.00000000E+00
  0.00000000E+00  0.00000000E+00  0.00000000E+00
  0.00000000E+00  0.00000000E+00  0.00000000E+00
  0.00000000E+00  0.00000000E+00  0.00000000E+00
  0.00000000E+00  0.00000000E+00  0.00000000E+00
  0.00000000E+00  0.00000000E+00  0.00000000E+00
  0.00000000E+00  0.00000000E+00  0.00000000E+00
  0.00000000E+00  0.00000000E+00  0.00000000E+00
  0.00000000E+00  0.00000000E+00  0.00000000E+00
  0.00000000E+00  0.00000000E+00  0.00000000E+00
  0.00000000E+00  0.00000000E+00  0.00000000E+00
  0.00000000E+00  0.00000000E+00  0.00000000E+00
  0.00000000E+00  0.00000000E+00  0.00000000E+00
  0.00000000E+00  0.00000000E+00  0.00000000E+00
  0.00000000E+00  0.00000000E+00  0.00000000E+00
  0.00000000E+00  0.00000000E+00  0.00000000E+00
  0.00000000E+00  0.00000000E+00  0.00000000E+00
  0.00000000E+00  0.00000000E+00  0.00000000E+00
  0.00000000E+00  0.00000000E+00  0.00000000E+00
  0.00000000E+00  0.00000000E+00  0.00000000E+00
  0.00000000E+00  0.00000000E+00  0.00000000E+00
  0.00000000E+00  0.00000000E+00  0.00000000E+00
  0.00000000E+00  0.00000000E+00  0.00000000E+00
  0.00000000E+00  0.00000000E+00  0.00000000E+00
  0.00000000E+00  0.00000000E+00  0.00000000E+00
  0.00000000E+00  0.00000000E+00  0.00000000E+00
  0.00000000E+00  0.00000000E+00  0.00000000E+00
  0.00000000E+00  0.00000000E+00  0.00000000E+00
  0.00000000E+00  0.00000000E+00  0.00000000E+00
  0.00000000E+00  0.00000000E+00  0.00000000E+00
