Cs Ga Cl                                
   1.00000000000000     
    10.4485089999999996  -10.4485089999999996    0.0000000000000000
    10.4485089999999996   10.4485089999999996    0.0000000000000000
     0.0000000000000000    0.0000000000000000   20.8970190000000002
   Cs   Ga   Cl
    32    32    96
Direct
  0.9985490047556146  0.9929631597702164 -0.0026884073116982
 -0.0003058433945291  0.9940494232699416  0.2481811989937786
 -0.0061912213174344  0.0019648326434675  0.5023057143030617
 -0.0087721676875303 -0.0028449357241165  0.7517138094965998
  0.4999548274214703 -0.0036538196711057  0.9976239488292122
  0.5031281304871740 -0.0042613411063634  0.2499648312077012
  0.5099683118732024 -0.0011783210386449  0.5004179304552706
  0.5062180006828128  0.0005847412576976  0.7512491924467238
  0.2534992830651542  0.2508563907655104  0.9984574955318520
  0.2551763884212461  0.2502048034146199  0.2471991643254322
  0.2508191916263235  0.2514260464012266  0.5033668626163535
  0.2508082192792255  0.2518378191768694  0.7504858571879660
 -0.0024127913680052  0.5083854797506617 -0.0006318745678234
 -0.0023289872714844  0.5056289366388887  0.2476720308492532
 -0.0056676464995451  0.5004070394122421  0.5021500479155856
 -0.0041881386872399  0.5022560935308316  0.7514712758810442
  0.7466918280873421  0.2537974484078512  0.0000881417012340
  0.7446180066254517  0.2530916082370536  0.2470283495240455
  0.7469462582532251  0.2517686781752851  0.5046669159520669
  0.7492826943634221  0.2515490666737352  0.7493754226646087
  0.5010652699487600  0.5039085444135269 -0.0013716470096505
  0.5010260751178247  0.5022226962772574  0.2490837274065550
  0.5014905404865988  0.5006477658396420  0.5009698134310111
  0.5031964983322440  0.5017996599631448  0.7516590704698337
  0.2494990188338028  0.7483389601719626  0.9965567945156767
  0.2549535572865123  0.7495156792496450  0.2522246786371687
  0.2558864339062913  0.7465257902394777  0.4965531896966757
  0.2472037277917298  0.7456061225322924  0.7549326924087931
  0.7496631328053718  0.7507398258148283 -0.0002743953717131
  0.7492077113726241  0.7503784669084312  0.2490281988976236
  0.7485006948235894  0.7548041667037036  0.5024024444445995
  0.7493235649691820  0.7539444740013039  0.7506785859050247
 -0.0037470301859496  0.2586847144877328  0.1146560597982032
  0.0102802577789674  0.2402023024828195  0.3589261243102222
  0.0044270761289219  0.2504294377555084  0.6136078155333302
  0.0118197026190166  0.2385921601154909  0.8727130920963313
  0.5000761002093539  0.2479738939217331  0.1174987100493925
  0.5013697416337786  0.2525295091329224  0.3636551841737919
  0.4945753645851211  0.2507719298399190  0.6151108896203916
  0.4898568271474719  0.2406860509077690  0.8715909961175006
  0.2452348796932673  0.4957863539770728  0.1245469079694528
  0.2493699534299768  0.4996888007423184  0.3747450311592949
  0.2489153527673433  0.5197593429720283  0.6254125693477842
  0.2501743350744646  0.4999376255704505  0.8749477993527117
  0.0019517210602143  0.7512068916616025  0.1253668523533344
  0.0137853469987742  0.7632204394131484  0.3768802929044760
  0.9866008357522769  0.7487605749020113  0.6235867183412349
 -0.0056462811690850  0.7477304396036447  0.8732720584859669
  0.7477909063047826  0.5032187748618514  0.1236426514069713
  0.7629809802515507  0.5108160177529900  0.3749013214541403
  0.7491547169962328  0.4950389716473900  0.6258155647060216
  0.7581154164540537  0.4893672643598339  0.8754779563952285
  0.4972033893650333  0.7517939413184316  0.1332748492072786
  0.5061199386730401  0.7489479259927249  0.3804764192195320
  0.5114925082436637  0.7483922076861208  0.6281283390018799
  0.5026297211375174  0.7469785717406376  0.8759438870538884
  0.2404589786032375  0.0082886794385304  0.1245873069895701
  0.2648267523141582  0.0016412544122996  0.3747131955442090
  0.2491613625943857 -0.0258874429517951  0.6251928675437720
  0.2500220909410493  0.9861441954259214  0.8750699429688271
  0.7591165843170637  0.0098955551718287  0.1245744049679357
  0.7533272150799651  0.0027722043454057  0.3741615866045984
  0.7492535750505249  0.0044252164655676  0.6266004253527734
  0.7479148922526402  0.0012407183847440  0.8774687023697045
  0.0002104456722611  0.2534616481104098  0.9862200091054933
 -0.0024770718594300  0.2531584367855296  0.2504614643186215
  0.0032645481080848  0.2514078513335557  0.5037132813702578
 -0.0030872332784333  0.2543277368447011  0.7628727944923558
  0.5003734861521701  0.2528790803057477  0.9885440654459574
  0.4975877114269542  0.2497197932825088  0.2534606966120346
  0.4941947924162469  0.2504864853935303  0.5043712367815892
  0.5035718299473905  0.2554556418277341  0.7591060634564207
  0.2535161707696220  0.5025534301524054  0.0100438805947330
  0.2541543263099071  0.5024723005906704  0.2403131740582093
  0.2471961252870923  0.4839167411292672  0.5178139230918439
  0.2494064899071279  0.4866711452273022  0.7333423936709111
  0.0024477273623712  0.7506681882906343  0.0058056315198268
  0.0039544054037595  0.7497952247509959  0.2660808437764053
 -0.0006149265919077  0.7476210875638429  0.4871488885947330
 -0.0021398367379051  0.7479600162317551  0.7439813678542700
  0.7455412626274941  0.5037675262460672  0.9890498539585523
  0.7461320073099489  0.4963803205954484  0.2622943917266753
  0.7476656497994881  0.4940217270344676  0.4875602941705033
  0.7465350440078800  0.4995048271135292  0.7619575516189085
  0.4962543167027574  0.7489220008894439  0.9889978954923361
  0.4981559465522944  0.7495547169010104  0.2427153019286958
  0.5025538882949463  0.7492044885453899  0.5034233617354666
  0.4985347963268530  0.7490224028663842  0.7632932339373679
  0.2497255616246540 -0.0025717757785808  0.0082191785004076
  0.2554413964567028  0.9979704705391309  0.2433352793902480
  0.2505150528318412  0.0191664341883260  0.5212636989200174
  0.2478199372035181  0.0143427795302517  0.7299474572917184
  0.7441500351542024 -0.0027479301525766  0.0146954387499056
  0.7460733462377402 -0.0020496537507421  0.2350754336343389
  0.7528606492814381  0.0102777366428369  0.4949241209172148
  0.7477384458906835  0.0088114729405849  0.7565980038669824
  0.1311765885219953  0.1191125933205074  0.1260265430538353
  0.1198511449040798  0.1342885901900385  0.3729396303385489
  0.1152455222523661  0.1403357871660271  0.6303169326365322
  0.1221592765549086  0.1293154432777885  0.8742313182216588
  0.6292260629940096  0.1127180115734954  0.1245838381333299
  0.6155401432682474  0.1423540987909352  0.3761477779192278
  0.6077493236062922  0.1403828920836472  0.6274894332419010
  0.6173049709747443  0.1499243501564469  0.8757982407713262
  0.3674042207963651  0.3939937547053022  0.1249815272577935
  0.3829194709671763  0.3605794261314705  0.3759517333103815
  0.3809906537444290  0.3637606304471064  0.6284215409683398
  0.3953289152256937  0.3662797995555637  0.8743860511345809
  0.1465593586535397  0.6198355375225094  0.1267364229420434
  0.1165395653722528  0.6316114747111412  0.3775374434236903
  0.1290123156733450  0.6159641317015627  0.6229531463681729
  0.1277020726141720  0.6153655976086335  0.8742323688712834
  0.8733767536735096  0.3797807346237064  0.1227129496571319
  0.8537776122333420  0.3821593302668528  0.3744949620938991
  0.8941396912423455  0.3619572288089553  0.6291184993903093
  0.8692005792177364  0.3801988015200487  0.8771012879655228
  0.6071065377866257  0.6410182860583516  0.1187124841879071
  0.6376990857661249  0.6060345677164517  0.3750149513959927
  0.6268958529073737  0.6178601640770890  0.6266920493582243
  0.6166773565706786  0.6337551931762897  0.8762899513830549
  0.3849196315872715  0.8601107390785113  0.1180544447056546
  0.3793375336637675  0.8755145216460717  0.3769069837425313
  0.3700124655165694  0.8817096715221061  0.6262660945190260
  0.3835495214841361  0.8639975871725822  0.8736553430428071
  0.8643386790682034  0.8832797887105612  0.1265510312467318
  0.8866622338917312  0.8673158711087583  0.3740272822173904
  0.8753483037620476  0.8805930896458193  0.6241751486819755
  0.8675464823942887  0.8796147904084769  0.8772465119210163
  0.8709049138509304  0.1206435080015892  0.1246091493549099
  0.8857288171706482  0.1538896879120671  0.3766276843007893
  0.8922417746560997  0.1405087243225459  0.6289624528251881
  0.8843661585769975  0.1432605372851898  0.8769712787135087
  0.3662508106439729  0.1024388756811834  0.1242661696601078
  0.3898302813473102  0.1382743510899720  0.3784525934165875
  0.3838167730910446  0.1404163223394114  0.6311360288329549
  0.3810258062600208  0.1302992650196824  0.8728322496857406
  0.1347417488820365  0.3833210749263470  0.1251330450068973
  0.0934812859230929  0.3666449495764199  0.3776224966071129
  0.1172508858085304  0.3627324119706464  0.6291384472636513
  0.1109422821223308  0.3646583454152723  0.8752557923022415
  0.8783316384245409  0.6328743479808019  0.1289966553336324
  0.8729591728435886  0.6195349490107950  0.3747891195788376
  0.8722716839681569  0.6184442497753427  0.6227000791515167
  0.8540824023223871  0.6143511457232026  0.8748505194797319
  0.6179251057683107  0.3706292906848906  0.1230797570751030
  0.6084643543357686  0.3658180560902043  0.3783309813417385
  0.6052899379496698  0.3628017564375990  0.6277071212976018
  0.6334676378246730  0.3934586446029179  0.8760978456193137
  0.3831327862129690  0.6361414183995779  0.1211229589212484
  0.3708517382493093  0.6149605271917695  0.3765659994069354
  0.3687746090924241  0.6161025883084195  0.6260240133327213
  0.3834429082372018  0.6301040323691603  0.8740532604576688
  0.1470071128651483  0.8825175783075452  0.1283856525266356
  0.1246533581642664  0.8752042090793618  0.3794569328652222
  0.1289600933403011  0.8806213910661689  0.6214748367380231
  0.1232337834468696  0.8711393420716214  0.8721404700939815
  0.6091095454538169  0.8643802620644756  0.1199655637684111
  0.6362572140428351  0.8778969666314090  0.3732359936167743
  0.6246392566644107  0.8802812864142250  0.6267193746303414
  0.6145680824799962  0.8668172419560409  0.8774387582764495
 
  0.00000000E+00  0.00000000E+00  0.00000000E+00
  0.00000000E+00  0.00000000E+00  0.00000000E+00
  0.00000000E+00  0.00000000E+00  0.00000000E+00
  0.00000000E+00  0.00000000E+00  0.00000000E+00
  0.00000000E+00  0.00000000E+00  0.00000000E+00
  0.00000000E+00  0.00000000E+00  0.00000000E+00
  0.00000000E+00  0.00000000E+00  0.00000000E+00
  0.00000000E+00  0.00000000E+00  0.00000000E+00
  0.00000000E+00  0.00000000E+00  0.00000000E+00
  0.00000000E+00  0.00000000E+00  0.00000000E+00
  0.00000000E+00  0.00000000E+00  0.00000000E+00
  0.00000000E+00  0.00000000E+00  0.00000000E+00
  0.00000000E+00  0.00000000E+00  0.00000000E+00
  0.00000000E+00  0.00000000E+00  0.00000000E+00
  0.00000000E+00  0.00000000E+00  0.00000000E+00
  0.00000000E+00  0.00000000E+00  0.00000000E+00
  0.00000000E+00  0.00000000E+00  0.00000000E+00
  0.00000000E+00  0.00000000E+00  0.00000000E+00
  0.00000000E+00  0.00000000E+00  0.00000000E+00
  0.00000000E+00  0.00000000E+00  0.00000000E+00
  0.00000000E+00  0.00000000E+00  0.00000000E+00
  0.00000000E+00  0.00000000E+00  0.00000000E+00
  0.00000000E+00  0.00000000E+00  0.00000000E+00
  0.00000000E+00  0.00000000E+00  0.00000000E+00
  0.00000000E+00  0.00000000E+00  0.00000000E+00
  0.00000000E+00  0.00000000E+00  0.00000000E+00
  0.00000000E+00  0.00000000E+00  0.00000000E+00
  0.00000000E+00  0.00000000E+00  0.00000000E+00
  0.00000000E+00  0.00000000E+00  0.00000000E+00
  0.00000000E+00  0.00000000E+00  0.00000000E+00
  0.00000000E+00  0.00000000E+00  0.00000000E+00
  0.00000000E+00  0.00000000E+00  0.00000000E+00
  0.00000000E+00  0.00000000E+00  0.00000000E+00
  0.00000000E+00  0.00000000E+00  0.00000000E+00
  0.00000000E+00  0.00000000E+00  0.00000000E+00
  0.00000000E+00  0.00000000E+00  0.00000000E+00
  0.00000000E+00  0.00000000E+00  0.00000000E+00
  0.00000000E+00  0.00000000E+00  0.00000000E+00
  0.00000000E+00  0.00000000E+00  0.00000000E+00
  0.00000000E+00  0.00000000E+00  0.00000000E+00
  0.00000000E+00  0.00000000E+00  0.00000000E+00
  0.00000000E+00  0.00000000E+00  0.00000000E+00
  0.00000000E+00  0.00000000E+00  0.00000000E+00
  0.00000000E+00  0.00000000E+00  0.00000000E+00
  0.00000000E+00  0.00000000E+00  0.00000000E+00
  0.00000000E+00  0.00000000E+00  0.00000000E+00
  0.00000000E+00  0.00000000E+00  0.00000000E+00
  0.00000000E+00  0.00000000E+00  0.00000000E+00
  0.00000000E+00  0.00000000E+00  0.00000000E+00
  0.00000000E+00  0.00000000E+00  0.00000000E+00
  0.00000000E+00  0.00000000E+00  0.00000000E+00
  0.00000000E+00  0.00000000E+00  0.00000000E+00
  0.00000000E+00  0.00000000E+00  0.00000000E+00
  0.00000000E+00  0.00000000E+00  0.00000000E+00
  0.00000000E+00  0.00000000E+00  0.00000000E+00
  0.00000000E+00  0.00000000E+00  0.00000000E+00
  0.00000000E+00  0.00000000E+00  0.00000000E+00
  0.00000000E+00  0.00000000E+00  0.00000000E+00
  0.00000000E+00  0.00000000E+00  0.00000000E+00
  0.00000000E+00  0.00000000E+00  0.00000000E+00
  0.00000000E+00  0.00000000E+00  0.00000000E+00
  0.00000000E+00  0.00000000E+00  0.00000000E+00
  0.00000000E+00  0.00000000E+00  0.00000000E+00
  0.00000000E+00  0.00000000E+00  0.00000000E+00
  0.00000000E+00  0.00000000E+00  0.00000000E+00
  0.00000000E+00  0.00000000E+00  0.00000000E+00
  0.00000000E+00  0.00000000E+00  0.00000000E+00
  0.00000000E+00  0.00000000E+00  0.00000000E+00
  0.00000000E+00  0.00000000E+00  0.00000000E+00
  0.00000000E+00  0.00000000E+00  0.00000000E+00
  0.00000000E+00  0.00000000E+00  0.00000000E+00
  0.00000000E+00  0.00000000E+00  0.00000000E+00
  0.00000000E+00  0.00000000E+00  0.00000000E+00
  0.00000000E+00  0.00000000E+00  0.00000000E+00
  0.00000000E+00  0.00000000E+00  0.00000000E+00
  0.00000000E+00  0.00000000E+00  0.00000000E+00
  0.00000000E+00  0.00000000E+00  0.00000000E+00
  0.00000000E+00  0.00000000E+00  0.00000000E+00
  0.00000000E+00  0.00000000E+00  0.00000000E+00
  0.00000000E+00  0.00000000E+00  0.00000000E+00
  0.00000000E+00  0.00000000E+00  0.00000000E+00
  0.00000000E+00  0.00000000E+00  0.00000000E+00
  0.00000000E+00  0.00000000E+00  0.00000000E+00
  0.00000000E+00  0.00000000E+00  0.00000000E+00
  0.00000000E+00  0.00000000E+00  0.00000000E+00
  0.00000000E+00  0.00000000E+00  0.00000000E+00
  0.00000000E+00  0.00000000E+00  0.00000000E+00
  0.00000000E+00  0.00000000E+00  0.00000000E+00
  0.00000000E+00  0.00000000E+00  0.00000000E+00
  0.00000000E+00  0.00000000E+00  0.00000000E+00
  0.00000000E+00  0.00000000E+00  0.00000000E+00
  0.00000000E+00  0.00000000E+00  0.00000000E+00
  0.00000000E+00  0.00000000E+00  0.00000000E+00
  0.00000000E+00  0.00000000E+00  0.00000000E+00
  0.00000000E+00  0.00000000E+00  0.00000000E+00
  0.00000000E+00  0.00000000E+00  0.00000000E+00
  0.00000000E+00  0.00000000E+00  0.00000000E+00
  0.00000000E+00  0.00000000E+00  0.00000000E+00
  0.00000000E+00  0.00000000E+00  0.00000000E+00
  0.00000000E+00  0.00000000E+00  0.00000000E+00
  0.00000000E+00  0.00000000E+00  0.00000000E+00
  0.00000000E+00  0.00000000E+00  0.00000000E+00
  0.00000000E+00  0.00000000E+00  0.00000000E+00
  0.00000000E+00  0.00000000E+00  0.00000000E+00
  0.00000000E+00  0.00000000E+00  0.00000000E+00
  0.00000000E+00  0.00000000E+00  0.00000000E+00
  0.00000000E+00  0.00000000E+00  0.00000000E+00
  0.00000000E+00  0.00000000E+00  0.00000000E+00
  0.00000000E+00  0.00000000E+00  0.00000000E+00
  0.00000000E+00  0.00000000E+00  0.00000000E+00
  0.00000000E+00  0.00000000E+00  0.00000000E+00
  0.00000000E+00  0.00000000E+00  0.00000000E+00
  0.00000000E+00  0.00000000E+00  0.00000000E+00
  0.00000000E+00  0.00000000E+00  0.00000000E+00
  0.00000000E+00  0.00000000E+00  0.00000000E+00
  0.00000000E+00  0.00000000E+00  0.00000000E+00
  0.00000000E+00  0.00000000E+00  0.00000000E+00
  0.00000000E+00  0.00000000E+00  0.00000000E+00
  0.00000000E+00  0.00000000E+00  0.00000000E+00
  0.00000000E+00  0.00000000E+00  0.00000000E+00
  0.00000000E+00  0.00000000E+00  0.00000000E+00
  0.00000000E+00  0.00000000E+00  0.00000000E+00
  0.00000000E+00  0.00000000E+00  0.00000000E+00
  0.00000000E+00  0.00000000E+00  0.00000000E+00
  0.00000000E+00  0.00000000E+00  0.00000000E+00
  0.00000000E+00  0.00000000E+00  0.00000000E+00
  0.00000000E+00  0.00000000E+00  0.00000000E+00
  0.00000000E+00  0.00000000E+00  0.00000000E+00
  0.00000000E+00  0.00000000E+00  0.00000000E+00
  0.00000000E+00  0.00000000E+00  0.00000000E+00
  0.00000000E+00  0.00000000E+00  0.00000000E+00
  0.00000000E+00  0.00000000E+00  0.00000000E+00
  0.00000000E+00  0.00000000E+00  0.00000000E+00
  0.00000000E+00  0.00000000E+00  0.00000000E+00
  0.00000000E+00  0.00000000E+00  0.00000000E+00
  0.00000000E+00  0.00000000E+00  0.00000000E+00
  0.00000000E+00  0.00000000E+00  0.00000000E+00
  0.00000000E+00  0.00000000E+00  0.00000000E+00
  0.00000000E+00  0.00000000E+00  0.00000000E+00
  0.00000000E+00  0.00000000E+00  0.00000000E+00
  0.00000000E+00  0.00000000E+00  0.00000000E+00
  0.00000000E+00  0.00000000E+00  0.00000000E+00
  0.00000000E+00  0.00000000E+00  0.00000000E+00
  0.00000000E+00  0.00000000E+00  0.00000000E+00
  0.00000000E+00  0.00000000E+00  0.00000000E+00
  0.00000000E+00  0.00000000E+00  0.00000000E+00
  0.00000000E+00  0.00000000E+00  0.00000000E+00
  0.00000000E+00  0.00000000E+00  0.00000000E+00
  0.00000000E+00  0.00000000E+00  0.00000000E+00
  0.00000000E+00  0.00000000E+00  0.00000000E+00
  0.00000000E+00  0.00000000E+00  0.00000000E+00
  0.00000000E+00  0.00000000E+00  0.00000000E+00
  0.00000000E+00  0.00000000E+00  0.00000000E+00
  0.00000000E+00  0.00000000E+00  0.00000000E+00
  0.00000000E+00  0.00000000E+00  0.00000000E+00
  0.00000000E+00  0.00000000E+00  0.00000000E+00
  0.00000000E+00  0.00000000E+00  0.00000000E+00
  0.00000000E+00  0.00000000E+00  0.00000000E+00
  0.00000000E+00  0.00000000E+00  0.00000000E+00
  0.00000000E+00  0.00000000E+00  0.00000000E+00
