Ge Rb F
1.0
4.484565 -0.000000 -0.000000
0.000000 4.484565 -0.000000
0.000000 0.000000 4.484565
F Ge Rb
3 1 1
direct
0.500000 -0.000000 -0.000000 F
-0.000000 0.500000 -0.000000 F
-0.000000 0.000000 0.500000 F
0.000000 0.000000 0.000000 Ge
0.500000 0.500000 0.500000 Rb

0.000000 0.000000 0.000000
0.000000 0.000000 0.000000
0.000000 0.000000 0.000000
0.000000 0.000000 0.000000
0.000000 0.000000 0.000000
