Na Hg Cl
1.0
5.306871 0.000000 0.000000
0.000000 5.306871 0.000000
0.000000 0.000000 5.306871
Cl Hg Na
3 1 1
direct
0.500000 0.500000 0.000000 Cl
0.500000 0.000000 0.500000 Cl
0.000000 0.500000 0.500000 Cl
0.500000 0.500000 0.500000 Hg
0.000000 0.000000 0.000000 Na

0.000000 0.000000 0.000000
0.000000 0.000000 0.000000
0.000000 0.000000 0.000000
0.000000 0.000000 0.000000
0.000000 0.000000 0.000000
