Sn Rb Cl
1.0
-0.000000 5.578785 5.578785
5.578785 -0.000000 5.578785
5.578785 5.578785 -0.000000
Cl Rb Sn
6 2 2
direct
0.749889 0.250111 0.250111 Cl
0.250111 0.749889 0.250111 Cl
0.749889 0.749889 0.250111 Cl
0.250111 0.250111 0.749889 Cl
0.749889 0.250111 0.749889 Cl
0.250111 0.749889 0.749889 Cl
0.250000 0.250000 0.250000 Rb
0.750000 0.750000 0.750000 Rb
0.000000 -0.000000 -0.000000 Sn
0.500000 0.500000 0.500000 Sn

0.000000 0.000000 0.000000
0.000000 0.000000 0.000000
0.000000 0.000000 0.000000
0.000000 0.000000 0.000000
0.000000 0.000000 0.000000
0.000000 0.000000 0.000000
0.000000 0.000000 0.000000
0.000000 0.000000 0.000000
0.000000 0.000000 0.000000
0.000000 0.000000 0.000000
