Na F Cd
1.0
4.429640 0.000000 0.000000
0.000000 4.429640 0.000000
0.000000 0.000000 4.429640
Cd F Na
1 3 1
direct
0.000000 0.000000 0.000000 Cd
0.500000 0.000000 0.000000 F
0.000000 0.500000 0.000000 F
0.000000 0.000000 0.500000 F
0.500000 0.500000 0.500000 Na

0.000000 0.000000 0.000000
0.000000 0.000000 0.000000
0.000000 0.000000 0.000000
0.000000 0.000000 0.000000
0.000000 0.000000 0.000000
