Br In K
1.0
5.708820 0.000000 0.000000
0.000000 5.708820 0.000000
0.000000 0.000000 5.708820
Br In K
3 1 1
direct
0.500000 0.000000 0.000000 Br
0.000000 0.500000 0.000000 Br
0.000000 0.000000 0.500000 Br
0.000000 0.000000 0.000000 In
0.500000 0.500000 0.500000 K

0.000000 0.000000 0.000000
0.000000 0.000000 0.000000
0.000000 0.000000 0.000000
0.000000 0.000000 0.000000
0.000000 0.000000 0.000000
