Cs Be F
1.0
4.036026 0.000000 0.000000
0.000000 4.036026 0.000000
0.000000 0.000000 4.036026
Be Cs F
1 1 3
direct
0.500000 0.500000 0.500000 Be
0.000000 0.000000 0.000000 Cs
0.500000 0.500000 0.000000 F
0.500000 0.000000 0.500000 F
0.000000 0.500000 0.500000 F

0.000000 0.000000 0.000000
0.000000 0.000000 0.000000
0.000000 0.000000 0.000000
0.000000 0.000000 0.000000
0.000000 0.000000 0.000000
