F Ag Cd
1.0
4.415361 0.000000 0.000000
0.000000 4.415361 0.000000
0.000000 0.000000 4.415361
Ag Cd F
1 1 3
direct
0.000000 0.000000 0.000000 Ag
0.500000 0.500000 0.500000 Cd
0.500000 0.500000 0.000000 F
0.500000 0.000000 0.500000 F
0.000000 0.500000 0.500000 F

0.000000 0.000000 0.000000
0.000000 0.000000 0.000000
0.000000 0.000000 0.000000
0.000000 0.000000 0.000000
0.000000 0.000000 0.000000
