Zn Rb Cl
1.0
5.010693 0.000000 0.000000
0.000000 5.010693 0.000000
0.000000 0.000000 5.010693
Cl Rb Zn
3 1 1
direct
0.500000 0.500000 0.000000 Cl
0.500000 0.000000 0.500000 Cl
0.000000 0.500000 0.500000 Cl
0.000000 0.000000 0.000000 Rb
0.500000 0.500000 0.500000 Zn

0.000000 0.000000 0.000000
0.000000 0.000000 0.000000
0.000000 0.000000 0.000000
0.000000 0.000000 0.000000
0.000000 0.000000 0.000000
