Be K F
1.0
3.738802 0.000000 0.000000
0.000000 3.738802 0.000000
0.000000 0.000000 3.738802
Be F K
1 3 1
direct
0.000000 0.000000 0.000000 Be
0.500000 0.000000 0.000000 F
0.000000 0.500000 0.000000 F
0.000000 0.000000 0.500000 F
0.500000 0.500000 0.500000 K

0.000000 0.000000 0.000000
0.000000 0.000000 0.000000
0.000000 0.000000 0.000000
0.000000 0.000000 0.000000
0.000000 0.000000 0.000000
