Na Hg F
1.0
4.568159 0.000000 0.000000
0.000000 4.568159 0.000000
0.000000 0.000000 4.568159
F Hg Na
3 1 1
direct
0.500000 0.000000 0.000000 F
0.000000 0.500000 0.000000 F
0.000000 0.000000 0.500000 F
0.000000 0.000000 0.000000 Hg
0.500000 0.500000 0.500000 Na

0.000000 0.000000 0.000000
0.000000 0.000000 0.000000
0.000000 0.000000 0.000000
0.000000 0.000000 0.000000
0.000000 0.000000 0.000000
