Cs Br Ba
1.0
6.383005 -0.000000 0.000000
-0.000000 6.383005 -0.000000
-0.000000 0.000000 6.383005
Ba Br Cs
1 3 1
direct
-0.000000 -0.000000 -0.000000 Ba
0.500000 0.000000 0.000000 Br
0.000000 0.500000 0.000000 Br
-0.000000 0.000000 0.500000 Br
0.500000 0.500000 0.500000 Cs

0.000000 0.000000 0.000000
0.000000 0.000000 0.000000
0.000000 0.000000 0.000000
0.000000 0.000000 0.000000
0.000000 0.000000 0.000000
