Cl Cs Ge
1.0
5.339929 0.000000 0.000000
0.000000 5.339929 0.000000
0.000000 0.000000 5.339929
Cl Cs Ge
3 1 1
direct
0.500000 0.500000 0.000000 Cl
0.500000 0.000000 0.500000 Cl
0.000000 0.500000 0.500000 Cl
0.000000 0.000000 0.000000 Cs
0.500000 0.500000 0.500000 Ge

0.000000 0.000000 0.000000
0.000000 0.000000 0.000000
0.000000 0.000000 0.000000
0.000000 0.000000 0.000000
0.000000 0.000000 0.000000
