K Hg F
1.0
4.600482 0.000000 0.000000
0.000000 4.600482 0.000000
0.000000 0.000000 4.600482
F Hg K
3 1 1
direct
0.500000 0.500000 0.000000 F
0.500000 0.000000 0.500000 F
0.000000 0.500000 0.500000 F
0.500000 0.500000 0.500000 Hg
0.000000 0.000000 0.000000 K

0.000000 0.000000 0.000000
0.000000 0.000000 0.000000
0.000000 0.000000 0.000000
0.000000 0.000000 0.000000
0.000000 0.000000 0.000000
