K Ge Cl
1.0
5.263857 0.000000 0.000000
0.000000 5.263857 0.000000
0.000000 0.000000 5.263857
Cl Ge K
3 1 1
direct
0.500000 0.500000 0.000000 Cl
0.500000 0.000000 0.500000 Cl
0.000000 0.500000 0.500000 Cl
0.500000 0.500000 0.500000 Ge
0.000000 0.000000 0.000000 K

0.000000 0.000000 0.000000
0.000000 0.000000 0.000000
0.000000 0.000000 0.000000
0.000000 0.000000 0.000000
0.000000 0.000000 0.000000
