Cl Hg Rb
1.0
5.364015 0.000000 0.000000
0.000000 5.364015 0.000000
0.000000 0.000000 5.364015
Cl Hg Rb
3 1 1
direct
0.500000 0.000000 0.000000 Cl
0.000000 0.500000 0.000000 Cl
0.000000 0.000000 0.500000 Cl
0.000000 0.000000 0.000000 Hg
0.500000 0.500000 0.500000 Rb

0.000000 0.000000 0.000000
0.000000 0.000000 0.000000
0.000000 0.000000 0.000000
0.000000 0.000000 0.000000
0.000000 0.000000 0.000000
