I Hg Rb
1.0
6.056983 0.000000 0.000000
0.000000 6.056983 0.000000
0.000000 0.000000 6.056983
Hg I Rb
1 3 1
direct
0.000000 0.000000 0.000000 Hg
0.500000 0.000000 0.000000 I
0.000000 0.500000 0.000000 I
0.000000 0.000000 0.500000 I
0.500000 0.500000 0.500000 Rb

0.000000 0.000000 0.000000
0.000000 0.000000 0.000000
0.000000 0.000000 0.000000
0.000000 0.000000 0.000000
0.000000 0.000000 0.000000
