Be Rb F
1.0
3.858575 0.000000 0.000000
0.000000 3.858575 0.000000
0.000000 0.000000 3.858575
Be F Rb
1 3 1
direct
0.500000 0.500000 0.500000 Be
0.500000 0.500000 0.000000 F
0.500000 0.000000 0.500000 F
0.000000 0.500000 0.500000 F
0.000000 0.000000 0.000000 Rb

0.000000 0.000000 0.000000
0.000000 0.000000 0.000000
0.000000 0.000000 0.000000
0.000000 0.000000 0.000000
0.000000 0.000000 0.000000
