Ge Cs F
1.0
4.553282 0.000000 0.000000
0.000000 4.553282 0.000000
0.000000 0.000000 4.553282
Cs F Ge
1 3 1
direct
0.000000 0.000000 0.000000 Cs
0.500000 0.500000 0.000000 F
0.500000 0.000000 0.500000 F
0.000000 0.500000 0.500000 F
0.500000 0.500000 0.500000 Ge

0.000000 0.000000 0.000000
0.000000 0.000000 0.000000
0.000000 0.000000 0.000000
0.000000 0.000000 0.000000
0.000000 0.000000 0.000000
