Cs I Hg
1.0
6.089861 0.000000 0.000000
0.000000 6.089861 0.000000
0.000000 0.000000 6.089861
Cs Hg I
1 1 3
direct
0.000000 0.000000 0.000000 Cs
0.500000 0.500000 0.500000 Hg
0.500000 0.500000 0.000000 I
0.500000 0.000000 0.500000 I
0.000000 0.500000 0.500000 I

0.000000 0.000000 0.000000
0.000000 0.000000 0.000000
0.000000 0.000000 0.000000
0.000000 0.000000 0.000000
0.000000 0.000000 0.000000
