Cs Ba F
1.0
5.105815 0.000000 0.000000
0.000000 5.105815 0.000000
0.000000 0.000000 5.105815
Ba Cs F
1 1 3
direct
0.000000 0.000000 0.000000 Ba
0.500000 0.500000 0.500000 Cs
0.500000 0.000000 0.000000 F
0.000000 0.500000 0.000000 F
0.000000 0.000000 0.500000 F

0.000000 0.000000 0.000000
0.000000 0.000000 0.000000
0.000000 0.000000 0.000000
0.000000 0.000000 0.000000
0.000000 0.000000 0.000000
