Pb Na F
1.0
4.785624 0.000000 0.000000
0.000000 4.785624 -0.000000
-0.000000 -0.000000 4.785624
F Na Pb
3 1 1
direct
0.500000 0.500000 0.000000 F
0.500000 0.000000 0.500000 F
0.000000 0.500000 0.500000 F
0.000000 0.000000 0.000000 Na
0.500000 0.500000 0.500000 Pb

0.000000 0.000000 0.000000
0.000000 0.000000 0.000000
0.000000 0.000000 0.000000
0.000000 0.000000 0.000000
0.000000 0.000000 0.000000
