Tl Sn Cl
1.0
0.000000 5.549804 5.549804
5.549804 0.000000 5.549804
5.549804 5.549804 -0.000000
Cl Sn Tl
6 2 2
direct
0.749888 0.250112 0.250112 Cl
0.250112 0.749888 0.250112 Cl
0.749888 0.749888 0.250112 Cl
0.250112 0.250112 0.749888 Cl
0.749888 0.250112 0.749888 Cl
0.250112 0.749888 0.749888 Cl
0.000000 0.000000 -0.000000 Sn
0.500000 0.500000 0.500000 Sn
0.250000 0.250000 0.250000 Tl
0.750000 0.750000 0.750000 Tl

0.000000 0.000000 0.000000
0.000000 0.000000 0.000000
0.000000 0.000000 0.000000
0.000000 0.000000 0.000000
0.000000 0.000000 0.000000
0.000000 0.000000 0.000000
0.000000 0.000000 0.000000
0.000000 0.000000 0.000000
0.000000 0.000000 0.000000
0.000000 0.000000 0.000000
