Cs Pd Cl
1.0
5.057357 0.000000 0.000000
0.000000 5.057357 0.000000
0.000000 0.000000 5.057357
Cl Cs Pd
3 1 1
direct
0.500000 0.500000 0.000000 Cl
0.500000 0.000000 0.500000 Cl
0.000000 0.500000 0.500000 Cl
0.000000 0.000000 0.000000 Cs
0.500000 0.500000 0.500000 Pd

0.000000 0.000000 0.000000
0.000000 0.000000 0.000000
0.000000 0.000000 0.000000
0.000000 0.000000 0.000000
0.000000 0.000000 0.000000
