Cs Ge Br
1.0
5.604283 0.000000 0.000000
0.000000 5.604283 0.000000
0.000000 0.000000 5.604283
Br Cs Ge
3 1 1
direct
0.500000 0.500000 0.000000 Br
0.500000 0.000000 0.500000 Br
0.000000 0.500000 0.500000 Br
0.000000 0.000000 0.000000 Cs
0.500000 0.500000 0.500000 Ge

0.000000 0.000000 0.000000
0.000000 0.000000 0.000000
0.000000 0.000000 0.000000
0.000000 0.000000 0.000000
0.000000 0.000000 0.000000
