Cs Br Cl
1.0
5.448554 0.000000 0.000000
0.000000 5.448554 0.000000
0.000000 0.000000 5.448554
Br Cl Cs
1 3 1
direct
0.000000 0.000000 0.000000 Br
0.500000 0.000000 0.000000 Cl
0.000000 0.500000 0.000000 Cl
0.000000 0.000000 0.500000 Cl
0.500000 0.500000 0.500000 Cs

0.000000 0.000000 0.000000
0.000000 0.000000 0.000000
0.000000 0.000000 0.000000
0.000000 0.000000 0.000000
0.000000 0.000000 0.000000
