Mg Ag Cl
1.0
4.914162 0.000000 0.000000
0.000000 4.914162 0.000000
0.000000 0.000000 4.914162
Ag Cl Mg
1 3 1
direct
0.000000 0.000000 0.000000 Ag
0.500000 0.500000 0.000000 Cl
0.500000 0.000000 0.500000 Cl
0.000000 0.500000 0.500000 Cl
0.500000 0.500000 0.500000 Mg

0.000000 0.000000 0.000000
0.000000 0.000000 0.000000
0.000000 0.000000 0.000000
0.000000 0.000000 0.000000
0.000000 0.000000 0.000000
