Cl K Pd
1.0
4.962769 0.000000 0.000000
0.000000 4.962769 0.000000
0.000000 0.000000 4.962769
Cl K Pd
3 1 1
direct
0.500000 0.500000 0.000000 Cl
0.500000 0.000000 0.500000 Cl
0.000000 0.500000 0.500000 Cl
0.000000 0.000000 0.000000 K
0.500000 0.500000 0.500000 Pd

0.000000 0.000000 0.000000
0.000000 0.000000 0.000000
0.000000 0.000000 0.000000
0.000000 0.000000 0.000000
0.000000 0.000000 0.000000
