K Sn Br
1.0
5.842231 0.000000 0.000000
0.000000 5.842231 0.000000
0.000000 0.000000 5.842231
Br K Sn
3 1 1
direct
0.500000 0.500000 0.000000 Br
0.500000 0.000000 0.500000 Br
0.000000 0.500000 0.500000 Br
0.000000 0.000000 0.000000 K
0.500000 0.500000 0.500000 Sn

0.000000 0.000000 0.000000
0.000000 0.000000 0.000000
0.000000 0.000000 0.000000
0.000000 0.000000 0.000000
0.000000 0.000000 0.000000
