Cl K Ba
1.0
6.027426 0.000000 0.000000
0.000000 6.027426 0.000000
0.000000 0.000000 6.027426
Ba Cl K
1 3 1
direct
0.000000 0.000000 0.000000 Ba
0.500000 0.000000 0.000000 Cl
0.000000 0.500000 0.000000 Cl
0.000000 0.000000 0.500000 Cl
0.500000 0.500000 0.500000 K

0.000000 0.000000 0.000000
0.000000 0.000000 0.000000
0.000000 0.000000 0.000000
0.000000 0.000000 0.000000
0.000000 0.000000 0.000000
