I Ge Rb
1.0
5.953475 0.000000 0.000000
0.000000 5.953475 0.000000
0.000000 0.000000 5.953475
Ge I Rb
1 3 1
direct
0.000000 0.000000 0.000000 Ge
0.500000 0.000000 0.000000 I
0.000000 0.500000 0.000000 I
0.000000 0.000000 0.500000 I
0.500000 0.500000 0.500000 Rb

0.000000 0.000000 0.000000
0.000000 0.000000 0.000000
0.000000 0.000000 0.000000
0.000000 0.000000 0.000000
0.000000 0.000000 0.000000
