F Li Cd
1.0
4.415292 0.000000 0.000000
0.000000 4.415292 0.000000
0.000000 0.000000 4.415292
Cd F Li
1 3 1
direct
0.500000 0.500000 0.500000 Cd
0.500000 0.500000 0.000000 F
0.500000 0.000000 0.500000 F
0.000000 0.500000 0.500000 F
0.000000 0.000000 0.000000 Li

0.000000 0.000000 0.000000
0.000000 0.000000 0.000000
0.000000 0.000000 0.000000
0.000000 0.000000 0.000000
0.000000 0.000000 0.000000
