Tl Hg Cl
1.0
5.326434 0.000000 0.000000
0.000000 5.326434 0.000000
0.000000 0.000000 5.326434
Cl Hg Tl
3 1 1
direct
0.500000 0.000000 0.000000 Cl
0.000000 0.500000 0.000000 Cl
0.000000 0.000000 0.500000 Cl
0.000000 0.000000 0.000000 Hg
0.500000 0.500000 0.500000 Tl

0.000000 0.000000 0.000000
0.000000 0.000000 0.000000
0.000000 0.000000 0.000000
0.000000 0.000000 0.000000
0.000000 0.000000 0.000000
