Ge Rb Cl
1.0
5.292281 0.000000 0.000000
0.000000 5.292281 0.000000
0.000000 0.000000 5.292281
Cl Ge Rb
3 1 1
direct
0.500000 0.000000 0.000000 Cl
0.000000 0.500000 0.000000 Cl
0.000000 0.000000 0.500000 Cl
0.000000 0.000000 0.000000 Ge
0.500000 0.500000 0.500000 Rb

0.000000 0.000000 0.000000
0.000000 0.000000 0.000000
0.000000 0.000000 0.000000
0.000000 0.000000 0.000000
0.000000 0.000000 0.000000
