Na Cl Cd
1.0
5.224519 0.000000 0.000000
0.000000 5.224519 0.000000
0.000000 0.000000 5.224519
Cd Cl Na
1 3 1
direct
0.000000 0.000000 0.000000 Cd
0.500000 0.000000 0.000000 Cl
0.000000 0.500000 0.000000 Cl
0.000000 0.000000 0.500000 Cl
0.500000 0.500000 0.500000 Na

0.000000 0.000000 0.000000
0.000000 0.000000 0.000000
0.000000 0.000000 0.000000
0.000000 0.000000 0.000000
0.000000 0.000000 0.000000
