Ba Rb F
1.0
5.124149 0.000000 0.000000
0.000000 5.124149 0.000000
-0.000000 -0.000000 5.124149
Ba F Rb
1 3 1
direct
0.500001 0.500001 0.500001 Ba
0.500001 0.500001 0.000000 F
0.500001 0.000000 0.500001 F
0.000000 0.500001 0.500001 F
0.000000 0.000000 0.000000 Rb

0.000000 0.000000 0.000000
0.000000 0.000000 0.000000
0.000000 0.000000 0.000000
0.000000 0.000000 0.000000
0.000000 0.000000 0.000000
