Pb Rb F
1.0
4.835131 0.000000 0.000000
0.000000 4.835131 0.000000
0.000000 0.000000 4.835131
F Pb Rb
3 1 1
direct
0.500001 0.500001 0.000000 F
0.500001 0.000000 0.500001 F
0.000000 0.500001 0.500001 F
0.500001 0.500001 0.500001 Pb
0.000000 0.000000 0.000000 Rb

0.000000 0.000000 0.000000
0.000000 0.000000 0.000000
0.000000 0.000000 0.000000
0.000000 0.000000 0.000000
0.000000 0.000000 0.000000
