In Rb Br
1.0
5.731537 0.000000 0.000000
0.000000 5.731537 0.000000
0.000000 0.000000 5.731537
Br In Rb
3 1 1
direct
0.500000 0.500000 0.000000 Br
0.500000 0.000000 0.500000 Br
0.000000 0.500000 0.500000 Br
0.500000 0.500000 0.500000 In
0.000000 0.000000 0.000000 Rb

0.000000 0.000000 0.000000
0.000000 0.000000 0.000000
0.000000 0.000000 0.000000
0.000000 0.000000 0.000000
0.000000 0.000000 0.000000
