Cl Ag Cd
1.0
5.179515 0.000000 0.000000
0.000000 5.179515 0.000000
0.000000 0.000000 5.179515
Ag Cd Cl
1 1 3
direct
0.000000 0.000000 0.000000 Ag
0.500000 0.500000 0.500000 Cd
0.500000 0.500000 0.000000 Cl
0.500000 0.000000 0.500000 Cl
0.000000 0.500000 0.500000 Cl

0.000000 0.000000 0.000000
0.000000 0.000000 0.000000
0.000000 0.000000 0.000000
0.000000 0.000000 0.000000
0.000000 0.000000 0.000000
