Cs Hg Br
1.0
5.685993 0.000000 0.000000
0.000000 5.685993 0.000000
0.000000 0.000000 5.685993
Br Cs Hg
3 1 1
direct
0.500001 0.500001 0.000000 Br
0.500001 0.000000 0.500001 Br
0.000000 0.500001 0.500001 Br
0.000000 0.000000 0.000000 Cs
0.500001 0.500001 0.500001 Hg

0.000000 0.000000 0.000000
0.000000 0.000000 0.000000
0.000000 0.000000 0.000000
0.000000 0.000000 0.000000
0.000000 0.000000 0.000000
