Zn Ag Cl
1.0
4.871937 0.000000 0.000000
0.000000 4.871937 0.000000
0.000000 0.000000 4.871937
Ag Cl Zn
1 3 1
direct
0.000000 0.000000 0.000000 Ag
0.500000 0.500000 0.000000 Cl
0.500000 0.000000 0.500000 Cl
0.000000 0.500000 0.500000 Cl
0.500000 0.500000 0.500000 Zn

0.000000 0.000000 0.000000
0.000000 0.000000 0.000000
0.000000 0.000000 0.000000
0.000000 0.000000 0.000000
0.000000 0.000000 0.000000
