K Ge F
1.0
4.444967 -0.000000 0.000000
-0.000000 4.444967 -0.000000
-0.000000 -0.000000 4.444967
F Ge K
3 1 1
direct
0.500000 0.500000 0.000000 F
0.500000 0.000000 0.500000 F
0.000000 0.500000 0.500000 F
0.500000 0.500000 0.500000 Ge
0.000000 0.000000 0.000000 K

0.000000 0.000000 0.000000
0.000000 0.000000 0.000000
0.000000 0.000000 0.000000
0.000000 0.000000 0.000000
0.000000 0.000000 0.000000
