I Tl Sn
1.0
6.203046 0.000000 0.000000
0.000000 6.203046 0.000000
0.000000 0.000000 6.203046
I Sn Tl
3 1 1
direct
0.500000 0.000000 0.000000 I
0.000000 0.500000 0.000000 I
0.000000 0.000000 0.500000 I
0.000000 0.000000 0.000000 Sn
0.500000 0.500000 0.500000 Tl

0.000000 0.000000 0.000000
0.000000 0.000000 0.000000
0.000000 0.000000 0.000000
0.000000 0.000000 0.000000
0.000000 0.000000 0.000000
