K Zn Cl
1.0
4.970301 0.000000 0.000000
0.000000 4.970301 0.000000
0.000000 0.000000 4.970301
Cl K Zn
3 1 1
direct
0.500000 0.500000 0.000000 Cl
0.500000 0.000000 0.500000 Cl
0.000000 0.500000 0.500000 Cl
0.000000 0.000000 0.000000 K
0.500000 0.500000 0.500000 Zn

0.000000 0.000000 0.000000
0.000000 0.000000 0.000000
0.000000 0.000000 0.000000
0.000000 0.000000 0.000000
0.000000 0.000000 0.000000
