Cs I Ba
1.0
6.782520 0.000000 0.000000
0.000000 6.782520 0.000000
0.000000 0.000000 6.782520
Ba Cs I
1 1 3
direct
0.000000 0.000000 0.000000 Ba
0.499999 0.499999 0.499999 Cs
0.499999 0.000000 0.000000 I
0.000000 0.499999 0.000000 I
0.000000 0.000000 0.499999 I

0.000000 0.000000 0.000000
0.000000 0.000000 0.000000
0.000000 0.000000 0.000000
0.000000 0.000000 0.000000
0.000000 0.000000 0.000000
