Na Zn Cl
1.0
4.912670 0.000000 0.000000
0.000000 4.912670 0.000000
0.000000 0.000000 4.912670
Cl Na Zn
3 1 1
direct
0.500000 0.500000 0.000000 Cl
0.500000 0.000000 0.500000 Cl
0.000000 0.500000 0.500000 Cl
0.000000 0.000000 0.000000 Na
0.500000 0.500000 0.500000 Zn

0.000000 0.000000 0.000000
0.000000 0.000000 0.000000
0.000000 0.000000 0.000000
0.000000 0.000000 0.000000
0.000000 0.000000 0.000000
