Pd Ag F
1.0
4.240687 0.000000 0.000000
0.000000 4.240687 0.000000
0.000000 0.000000 4.240687
Ag F Pd
1 3 1
direct
0.000000 0.000000 0.000000 Ag
0.500000 0.500000 0.000000 F
0.500000 0.000000 0.500000 F
0.000000 0.500000 0.500000 F
0.500000 0.500000 0.500000 Pd

0.000000 0.000000 0.000000
0.000000 0.000000 0.000000
0.000000 0.000000 0.000000
0.000000 0.000000 0.000000
0.000000 0.000000 0.000000
