Cs Mg Cl
1.0
5.127711 0.000000 0.000000
0.000000 5.127711 0.000000
0.000000 0.000000 5.127711
Cl Cs Mg
3 1 1
direct
0.500000 0.500000 0.000000 Cl
0.500000 0.000000 0.500000 Cl
0.000000 0.500000 0.500000 Cl
0.000000 0.000000 0.000000 Cs
0.500000 0.500000 0.500000 Mg

0.000000 0.000000 0.000000
0.000000 0.000000 0.000000
0.000000 0.000000 0.000000
0.000000 0.000000 0.000000
0.000000 0.000000 0.000000
