Li Ba F
1.0
4.049056 0.000000 0.000000
0.000000 4.049056 0.000000
0.000000 0.000000 4.049056
Ba F Li
1 3 1
direct
0.000000 0.000000 0.000000 Ba
0.500001 0.500001 0.000000 F
0.500001 0.000000 0.500001 F
0.000000 0.500001 0.500001 F
0.500001 0.500001 0.500001 Li

0.000000 0.000000 0.000000
0.000000 0.000000 0.000000
0.000000 0.000000 0.000000
0.000000 0.000000 0.000000
0.000000 0.000000 0.000000
