Cs I Ca
1.0
6.229812 0.000000 0.000000
0.000000 6.229812 0.000000
0.000000 0.000000 6.229812
Ca Cs I
1 1 3
direct
0.000000 0.000000 0.000000 Ca
0.500000 0.500000 0.500000 Cs
0.500000 0.000000 0.000000 I
0.000000 0.500000 0.000000 I
0.000000 0.000000 0.500000 I

0.000000 0.000000 0.000000
0.000000 0.000000 0.000000
0.000000 0.000000 0.000000
0.000000 0.000000 0.000000
0.000000 0.000000 0.000000
