Ca Tl Cl
1.0
5.391326 0.000000 0.000000
0.000000 5.391326 0.000000
0.000000 0.000000 5.391326
Ca Cl Tl
1 3 1
direct
0.000000 0.000000 0.000000 Ca
0.500000 0.000000 0.000000 Cl
0.000000 0.500000 0.000000 Cl
0.000000 0.000000 0.500000 Cl
0.500000 0.500000 0.500000 Tl

0.000000 0.000000 0.000000
0.000000 0.000000 0.000000
0.000000 0.000000 0.000000
0.000000 0.000000 0.000000
0.000000 0.000000 0.000000
