I Ge In
1.0
5.878649 0.000000 0.000000
0.000000 5.878649 0.000000
0.000000 0.000000 5.878649
Ge I In
1 3 1
direct
0.000000 0.000000 0.000000 Ge
0.500000 0.000000 0.000000 I
0.000000 0.500000 0.000000 I
0.000000 0.000000 0.500000 I
0.500000 0.500000 0.500000 In

0.000000 0.000000 0.000000
0.000000 0.000000 0.000000
0.000000 0.000000 0.000000
0.000000 0.000000 0.000000
0.000000 0.000000 0.000000
