In Sn Cl
1.0
5.557554 0.000000 0.000000
0.000000 5.557554 0.000000
0.000000 0.000000 5.557554
Cl In Sn
3 1 1
direct
0.500000 0.500000 0.000000 Cl
0.500000 0.000000 0.500000 Cl
0.000000 0.500000 0.500000 Cl
0.000000 0.000000 0.000000 In
0.500000 0.500000 0.500000 Sn

0.000000 0.000000 0.000000
0.000000 0.000000 0.000000
0.000000 0.000000 0.000000
0.000000 0.000000 0.000000
0.000000 0.000000 0.000000
