Zn Ag F
1.0
4.071675 0.000000 0.000000
0.000000 4.071675 0.000000
0.000000 0.000000 4.071675
Ag F Zn
1 3 1
direct
0.000000 0.000000 0.000000 Ag
0.500001 0.500001 0.000000 F
0.500001 0.000000 0.500001 F
0.000000 0.500001 0.500001 F
0.500001 0.500001 0.500001 Zn

0.000000 0.000000 0.000000
0.000000 0.000000 0.000000
0.000000 0.000000 0.000000
0.000000 0.000000 0.000000
0.000000 0.000000 0.000000
