I Sn Rb
1.0
6.253966 0.000000 0.000000
0.000000 6.253966 0.000000
0.000000 0.000000 6.253966
I Rb Sn
3 1 1
direct
0.500000 0.000000 0.000000 I
0.000000 0.500000 0.000000 I
0.000000 0.000000 0.500000 I
0.500000 0.500000 0.500000 Rb
0.000000 0.000000 0.000000 Sn

0.000000 0.000000 0.000000
0.000000 0.000000 0.000000
0.000000 0.000000 0.000000
0.000000 0.000000 0.000000
0.000000 0.000000 0.000000
