Cs I Cd
1.0
6.048698 0.000000 0.000000
0.000000 6.048698 0.000000
0.000000 0.000000 6.048698
Cd Cs I
1 1 3
direct
0.000000 0.000000 0.000000 Cd
0.500000 0.500000 0.500000 Cs
0.500000 0.000000 0.000000 I
0.000000 0.500000 0.000000 I
0.000000 0.000000 0.500000 I

0.000000 0.000000 0.000000
0.000000 0.000000 0.000000
0.000000 0.000000 0.000000
0.000000 0.000000 0.000000
0.000000 0.000000 0.000000
