Cs F Cd
1.0
4.558884 0.000000 0.000000
0.000000 4.558884 0.000000
0.000000 0.000000 4.558884
Cd Cs F
1 1 3
direct
0.500001 0.500001 0.500001 Cd
0.000000 0.000000 0.000000 Cs
0.500001 0.500001 0.000000 F
0.500001 0.000000 0.500001 F
0.000000 0.500001 0.500001 F

0.000000 0.000000 0.000000
0.000000 0.000000 0.000000
0.000000 0.000000 0.000000
0.000000 0.000000 0.000000
0.000000 0.000000 0.000000
