Ca Rb Cl
1.0
5.430566 0.000000 0.000000
0.000000 5.430566 0.000000
0.000000 0.000000 5.430566
Ca Cl Rb
1 3 1
direct
0.000000 0.000000 0.000000 Ca
0.500000 0.000000 0.000000 Cl
0.000000 0.500000 0.000000 Cl
0.000000 0.000000 0.500000 Cl
0.500000 0.500000 0.500000 Rb

0.000000 0.000000 0.000000
0.000000 0.000000 0.000000
0.000000 0.000000 0.000000
0.000000 0.000000 0.000000
0.000000 0.000000 0.000000
