Cs Zn F
1.0
4.291521 0.000000 0.000000
0.000000 4.291521 0.000000
0.000000 0.000000 4.291521
Cs F Zn
1 3 1
direct
0.000000 0.000000 0.000000 Cs
0.500000 0.500000 0.000000 F
0.500000 0.000000 0.500000 F
0.000000 0.500000 0.500000 F
0.500000 0.500000 0.500000 Zn

0.000000 0.000000 0.000000
0.000000 0.000000 0.000000
0.000000 0.000000 0.000000
0.000000 0.000000 0.000000
0.000000 0.000000 0.000000
