I Ge Tl
1.0
5.891099 0.000000 0.000000
0.000000 5.891099 0.000000
0.000000 0.000000 5.891099
Ge I Tl
1 3 1
direct
0.000000 0.000000 0.000000 Ge
0.500000 0.000000 0.000000 I
0.000000 0.500000 0.000000 I
0.000000 0.000000 0.500000 I
0.500000 0.500000 0.500000 Tl

0.000000 0.000000 0.000000
0.000000 0.000000 0.000000
0.000000 0.000000 0.000000
0.000000 0.000000 0.000000
0.000000 0.000000 0.000000
