F Rb Zn
1.0
4.990954 0.000000 0.000000
0.000000 4.990954 0.000000
0.000000 0.000000 4.990954
F Rb Zn
3 1 1
direct
0.500000 0.500000 0.000000 F
0.500000 0.000000 0.500000 F
0.000000 0.500000 0.500000 F
0.500000 0.500000 0.500000 Rb
0.000000 0.000000 0.000000 Zn

0.000000 0.000000 0.000000
0.000000 0.000000 0.000000
0.000000 0.000000 0.000000
0.000000 0.000000 0.000000
0.000000 0.000000 0.000000
