Na Zn F
1.0
4.052862 0.000000 0.000000
0.000000 4.052862 0.000000
0.000000 0.000000 4.052862
F Na Zn
3 1 1
direct
0.500001 0.500001 0.000000 F
0.500001 0.000000 0.500001 F
0.000000 0.500001 0.500001 F
0.000000 0.000000 0.000000 Na
0.500001 0.500001 0.500001 Zn

0.000000 0.000000 0.000000
0.000000 0.000000 0.000000
0.000000 0.000000 0.000000
0.000000 0.000000 0.000000
0.000000 0.000000 0.000000
