Co Ag F
1.0
4.538127 0.000000 0.000000
0.000000 4.538127 0.000000
0.000000 0.000000 4.538127
Cs Na F
1 1 3
direct
0.000000 0.000000 0.000000 Cs
0.500000 0.500000 0.500000 Na
0.500000 0.500000 0.000000 F
0.500000 0.000000 0.500000 F
0.000000 0.500000 0.500000 F

0.000000 0.000000 0.000000
0.000000 0.000000 0.000000
0.000000 0.000000 0.000000
0.000000 0.000000 0.000000
0.000000 0.000000 0.000000
