Tl Br Cd
1.0
5.534189 0.000000 0.000000
0.000000 5.534189 0.000000
0.000000 0.000000 5.534189
Br Cd Tl
3 1 1
direct
0.500000 0.500000 0.000000 Br
0.500000 0.000000 0.500000 Br
0.000000 0.500000 0.500000 Br
0.500000 0.500000 0.500000 Cd
0.000000 0.000000 0.000000 Tl

0.000000 0.000000 0.000000
0.000000 0.000000 0.000000
0.000000 0.000000 0.000000
0.000000 0.000000 0.000000
0.000000 0.000000 0.000000
