Sr Rb Br
1.0
6.007460 0.000000 0.000000
0.000000 6.007460 0.000000
0.000000 0.000000 6.007460
Br Rb Sr
3 1 1
direct
0.500000 0.500000 0.000000 Br
0.500000 0.000000 0.500000 Br
0.000000 0.500000 0.500000 Br
0.000000 0.000000 0.000000 Rb
0.500000 0.500000 0.500000 Sr

0.000000 0.000000 0.000000
0.000000 0.000000 0.000000
0.000000 0.000000 0.000000
0.000000 0.000000 0.000000
0.000000 0.000000 0.000000
