Pb Rb Cl
1.0
5.695426 0.000000 0.000000
0.000000 5.695426 0.000000
0.000000 0.000000 5.695426
Cl Pb Rb
3 1 1
direct
0.499999 0.000000 0.000000 Cl
0.000000 0.499999 0.000000 Cl
0.000000 0.000000 0.499999 Cl
0.000000 0.000000 0.000000 Pb
0.499999 0.499999 0.499999 Rb

0.000000 0.000000 0.000000
0.000000 0.000000 0.000000
0.000000 0.000000 0.000000
0.000000 0.000000 0.000000
0.000000 0.000000 0.000000
