Tl F Cd
1.0
4.479490 0.000000 0.000000
0.000000 4.479490 0.000000
0.000000 0.000000 4.479490
Cd F Tl
1 3 1
direct
0.500001 0.500001 0.500001 Cd
0.500001 0.500001 0.000000 F
0.500001 0.000000 0.500001 F
0.000000 0.500001 0.500001 F
0.000000 0.000000 0.000000 Tl

0.000000 0.000000 0.000000
0.000000 0.000000 0.000000
0.000000 0.000000 0.000000
0.000000 0.000000 0.000000
0.000000 0.000000 0.000000
