Rb Br Sn
1.0
5.857102 0.000000 0.000000
0.000000 5.857102 0.000000
0.000000 0.000000 5.857102
Br Rb Sn
3 1 1
direct
0.500001 0.500001 0.000000 Br
0.500001 0.000000 0.500001 Br
0.000000 0.500001 0.500001 Br
0.000000 0.000000 0.000000 Rb
0.500001 0.500001 0.500001 Sn

0.000000 0.000000 0.000000
0.000000 0.000000 0.000000
0.000000 0.000000 0.000000
0.000000 0.000000 0.000000
0.000000 0.000000 0.000000
