Ba Rb Cl
1.0
6.037439 0.000000 0.000000
0.000000 6.037439 0.000000
0.000000 0.000000 6.037439
Ba Cl Rb
1 3 1
direct
0.000000 0.000000 0.000000 Ba
0.500001 0.000000 0.000000 Cl
0.000000 0.500001 0.000000 Cl
0.000000 0.000000 0.500001 Cl
0.500001 0.500001 0.500001 Rb

0.000000 0.000000 0.000000
0.000000 0.000000 0.000000
0.000000 0.000000 0.000000
0.000000 0.000000 0.000000
0.000000 0.000000 0.000000
