Na Mg F
1.0
3.937180 0.000000 0.000000
0.000000 3.937180 0.000000
0.000000 0.000000 3.937180
F Mg Na
3 1 1
direct
0.500000 0.500000 0.000000 F
0.500000 0.000000 0.500000 F
0.000000 0.500000 0.500000 F
0.500000 0.500000 0.500000 Mg
0.000000 0.000000 0.000000 Na

0.000000 0.000000 0.000000
0.000000 0.000000 0.000000
0.000000 0.000000 0.000000
0.000000 0.000000 0.000000
0.000000 0.000000 0.000000
