Cs I Mg
1.0
5.914426 0.000000 0.000000
0.000000 5.914426 0.000000
0.000000 0.000000 5.914426
Cs I Mg
1 3 1
direct
0.000000 0.000000 0.000000 Cs
0.500000 0.500000 0.000000 I
0.500000 0.000000 0.500000 I
0.000000 0.500000 0.500000 I
0.500000 0.500000 0.500000 Mg

0.000000 0.000000 0.000000
0.000000 0.000000 0.000000
0.000000 0.000000 0.000000
0.000000 0.000000 0.000000
0.000000 0.000000 0.000000
