Cs Sr F
1.0
4.829841 0.000000 0.000000
0.000000 4.829841 0.000000
0.000000 0.000000 4.829841
Cs F Sr
1 3 1
direct
0.000000 0.000000 0.000000 Cs
0.499999 0.499999 0.000000 F
0.499999 0.000000 0.499999 F
0.000000 0.499999 0.499999 F
0.499999 0.499999 0.499999 Sr

0.000000 0.000000 0.000000
0.000000 0.000000 0.000000
0.000000 0.000000 0.000000
0.000000 0.000000 0.000000
0.000000 0.000000 0.000000
