Cs Cl Ba
1.0
6.054109 0.000000 0.000000
0.000000 6.054109 0.000000
0.000000 0.000000 6.054109
Ba Cl Cs
1 3 1
direct
0.000000 0.000000 0.000000 Ba
0.500000 0.000000 0.000000 Cl
0.000000 0.500000 0.000000 Cl
0.000000 0.000000 0.500000 Cl
0.500000 0.500000 0.500000 Cs

0.000000 0.000000 0.000000
0.000000 0.000000 0.000000
0.000000 0.000000 0.000000
0.000000 0.000000 0.000000
0.000000 0.000000 0.000000
