Ca Br In
1.0
5.689957 0.000000 0.000000
0.000000 5.689957 0.000000
0.000000 0.000000 5.689957
Br Ca In
3 1 1
direct
0.500000 0.000000 0.000000 Br
0.000000 0.500000 0.000000 Br
0.000000 0.000000 0.500000 Br
0.000000 0.000000 0.000000 Ca
0.500000 0.500000 0.500000 In

0.000000 0.000000 0.000000
0.000000 0.000000 0.000000
0.000000 0.000000 0.000000
0.000000 0.000000 0.000000
0.000000 0.000000 0.000000
