Br Cs Tl
1.0
5.886932 0.000000 0.000000
0.000000 5.886932 0.000000
0.000000 0.000000 5.886932
Br Cs Tl
3 1 1
direct
0.500000 0.500000 0.000000 Br
0.500000 0.000000 0.500000 Br
0.000000 0.500000 0.500000 Br
0.000000 0.000000 0.000000 Cs
0.500000 0.500000 0.500000 Tl

0.000000 0.000000 0.000000
0.000000 0.000000 0.000000
0.000000 0.000000 0.000000
0.000000 0.000000 0.000000
0.000000 0.000000 0.000000
