Pb Tl Br
1.0
5.930872 0.000000 0.000000
0.000000 5.930872 0.000000
0.000000 0.000000 5.930872
Br Pb Tl
3 1 1
direct
0.500000 0.000000 0.000000 Br
0.000000 0.500000 0.000000 Br
0.000000 0.000000 0.500000 Br
0.000000 0.000000 0.000000 Pb
0.500000 0.500000 0.500000 Tl

0.000000 0.000000 0.000000
0.000000 0.000000 0.000000
0.000000 0.000000 0.000000
0.000000 0.000000 0.000000
0.000000 0.000000 0.000000
