Cs Pb Br
1.0
5.989522 0.000000 0.000000
0.000000 5.989522 0.000000
0.000000 0.000000 5.989522
Br Cs Pb
3 1 1
direct
0.499999 0.499999 0.000000 Br
0.499999 0.000000 0.499999 Br
0.000000 0.499999 0.499999 Br
0.000000 0.000000 0.000000 Cs
0.499999 0.499999 0.499999 Pb

0.000000 0.000000 0.000000
0.000000 0.000000 0.000000
0.000000 0.000000 0.000000
0.000000 0.000000 0.000000
0.000000 0.000000 0.000000
