Sr Li F
1.0
3.879673 0.000000 0.000000
0.000000 3.879673 0.000000
0.000000 0.000000 3.879673
F Li Sr
3 1 1
direct
0.500000 0.500000 0.000000 F
0.500000 0.000000 0.500000 F
0.000000 0.500000 0.500000 F
0.500000 0.500000 0.500000 Li
0.000000 0.000000 0.000000 Sr

0.000000 0.000000 0.000000
0.000000 0.000000 0.000000
0.000000 0.000000 0.000000
0.000000 0.000000 0.000000
0.000000 0.000000 0.000000
