I Pb Rb
1.0
6.370461 0.000000 0.000000
0.000000 6.370461 0.000000
0.000000 0.000000 6.370461
I Pb Rb
3 1 1
direct
0.500000 0.000000 0.000000 I
0.000000 0.500000 0.000000 I
0.000000 0.000000 0.500000 I
0.000000 0.000000 0.000000 Pb
0.500000 0.500000 0.500000 Rb

0.000000 0.000000 0.000000
0.000000 0.000000 0.000000
0.000000 0.000000 0.000000
0.000000 0.000000 0.000000
0.000000 0.000000 0.000000
