Cs Mg Br
1.0
5.445205 0.000000 0.000000
0.000000 5.445205 0.000000
0.000000 0.000000 5.445205
Br Cs Mg
3 1 1
direct
0.500000 0.500000 0.000000 Br
0.500000 0.000000 0.500000 Br
0.000000 0.500000 0.500000 Br
0.000000 0.000000 0.000000 Cs
0.500000 0.500000 0.500000 Mg

0.000000 0.000000 0.000000
0.000000 0.000000 0.000000
0.000000 0.000000 0.000000
0.000000 0.000000 0.000000
0.000000 0.000000 0.000000
