F Tl Ge
1.0
4.460287 0.000000 0.000000
0.000000 4.460287 0.000000
0.000000 0.000000 4.460287
F Ge Tl
3 1 1
direct
0.500000 0.500000 0.000000 F
0.500000 0.000000 0.500000 F
0.000000 0.500000 0.500000 F
0.500000 0.500000 0.500000 Ge
0.000000 0.000000 0.000000 Tl

0.000000 0.000000 0.000000
0.000000 0.000000 0.000000
0.000000 0.000000 0.000000
0.000000 0.000000 0.000000
0.000000 0.000000 0.000000
