Cs Hg F
1.0
4.514602 0.000000 0.000000
0.000000 4.514602 0.000000
0.000000 -0.000000 4.514602
Cs F Hg
1 3 1
direct
-0.000000 -0.000000 -0.000000 Cs
0.500001 0.500001 0.000000 F
0.500001 0.000000 0.500001 F
0.000000 0.500001 0.500001 F
0.500001 0.500001 0.500001 Hg

0.000000 0.000000 0.000000
0.000000 0.000000 0.000000
0.000000 0.000000 0.000000
0.000000 0.000000 0.000000
0.000000 0.000000 0.000000
