I Pb Tl
1.0
6.321875 0.000000 0.000000
0.000000 6.321875 0.000000
0.000000 0.000000 6.321875
I Pb Tl
3 1 1
direct
0.500000 0.000000 0.000000 I
0.000000 0.500000 0.000000 I
0.000000 0.000000 0.500000 I
0.000000 0.000000 0.000000 Pb
0.500000 0.500000 0.500000 Tl

0.000000 0.000000 0.000000
0.000000 0.000000 0.000000
0.000000 0.000000 0.000000
0.000000 0.000000 0.000000
0.000000 0.000000 0.000000
