Zn Rb Br
1.0
5.325521 0.000000 0.000000
0.000000 5.325521 0.000000
0.000000 0.000000 5.325521
Br Rb Zn
3 1 1
direct
0.500000 0.500000 0.000000 Br
0.500000 0.000000 0.500000 Br
0.000000 0.500000 0.500000 Br
0.000000 0.000000 0.000000 Rb
0.500000 0.500000 0.500000 Zn

0.000000 0.000000 0.000000
0.000000 0.000000 0.000000
0.000000 0.000000 0.000000
0.000000 0.000000 0.000000
0.000000 0.000000 0.000000
