Cs Ge I
1.0
5.998260 -0.000000 0.000000
0.000000 5.998260 0.000000
0.000000 0.000000 5.998260
Cs Ge I
1 1 3
direct
0.000000 0.000000 0.000000 Cs
0.500000 0.500000 0.500000 Ge
0.500000 0.500000 -0.000000 I
0.500000 -0.000000 0.500000 I
-0.000000 0.500000 0.500000 I

0.000000 0.000000 0.000000
0.000000 0.000000 0.000000
0.000000 0.000000 0.000000
0.000000 0.000000 0.000000
0.000000 0.000000 0.000000
