Cs Sn Br
1.0
5.885420 0.000000 0.000000
0.000000 5.885420 0.000000
0.000000 0.000000 5.885420
Br Cs Sn
3 1 1
direct
0.500001 0.500001 0.000000 Br
0.500001 0.000000 0.500001 Br
0.000000 0.500001 0.500001 Br
0.000000 0.000000 0.000000 Cs
0.500001 0.500001 0.500001 Sn

0.000000 0.000000 0.000000
0.000000 0.000000 0.000000
0.000000 0.000000 0.000000
0.000000 0.000000 0.000000
0.000000 0.000000 0.000000
