Ge Tl Br
1.0
5.514099 0.000000 0.000000
0.000000 5.514099 0.000000
0.000000 0.000000 5.514099
Br Ge Tl
3 1 1
direct
0.500000 0.000000 0.000000 Br
0.000000 0.500000 0.000000 Br
0.000000 0.000000 0.500000 Br
0.000000 0.000000 0.000000 Ge
0.500000 0.500000 0.500000 Tl

0.000000 0.000000 0.000000
0.000000 0.000000 0.000000
0.000000 0.000000 0.000000
0.000000 0.000000 0.000000
0.000000 0.000000 0.000000
