Na Mg Cl
1.0
4.957742 0.000000 0.000000
0.000000 4.957742 0.000000
0.000000 0.000000 4.957742
Cl Mg Na
3 1 1
direct
0.500000 0.000000 0.000000 Cl
0.000000 0.500000 0.000000 Cl
0.000000 0.000000 0.500000 Cl
0.000000 0.000000 0.000000 Mg
0.500000 0.500000 0.500000 Na

0.000000 0.000000 0.000000
0.000000 0.000000 0.000000
0.000000 0.000000 0.000000
0.000000 0.000000 0.000000
0.000000 0.000000 0.000000
