Sr Cl Cs
1.0
5.724789 0.000000 -0.000000
0.000000 5.724789 0.000000
0.000000 0.000000 5.724789
Cl Cs Sr
3 1 1
direct
0.500000 0.500000 -0.000000 Cl
0.500000 0.000000 0.500000 Cl
0.000000 0.500000 0.500000 Cl
-0.000000 -0.000000 0.000000 Cs
0.500000 0.500000 0.500000 Sr

0.000000 0.000000 0.000000
0.000000 0.000000 0.000000
0.000000 0.000000 0.000000
0.000000 0.000000 0.000000
0.000000 0.000000 0.000000
