Cs Mg F
1.0
4.248079 0.000000 0.000000
0.000000 4.248079 0.000000
0.000000 0.000000 4.248079
Cs F Mg
1 3 1
direct
0.000000 0.000000 0.000000 Cs
0.499998 0.499998 0.000000 F
0.499998 0.000000 0.499998 F
0.000000 0.499998 0.499998 F
0.499998 0.499998 0.499998 Mg

0.000000 0.000000 0.000000
0.000000 0.000000 0.000000
0.000000 0.000000 0.000000
0.000000 0.000000 0.000000
0.000000 0.000000 0.000000
