I Tl Cd
1.0
5.950066 0.000000 0.000000
0.000000 5.950066 0.000000
0.000000 0.000000 5.950066
Cd I Tl
1 3 1
direct
0.000000 0.000000 0.000000 Cd
0.500000 0.000000 0.000000 I
0.000000 0.500000 0.000000 I
0.000000 0.000000 0.500000 I
0.500000 0.500000 0.500000 Tl

0.000000 0.000000 0.000000
0.000000 0.000000 0.000000
0.000000 0.000000 0.000000
0.000000 0.000000 0.000000
0.000000 0.000000 0.000000
