Mg Ag F
1.0
3.976355 0.000000 0.000000
0.000000 3.976355 0.000000
0.000000 0.000000 3.976355
Ag F Mg
1 3 1
direct
0.000000 0.000000 0.000000 Ag
0.500000 0.500000 0.000000 F
0.500000 0.000000 0.500000 F
0.000000 0.500000 0.500000 F
0.500000 0.500000 0.500000 Mg

0.000000 0.000000 0.000000
0.000000 0.000000 0.000000
0.000000 0.000000 0.000000
0.000000 0.000000 0.000000
0.000000 0.000000 0.000000
