Cs I Sr
1.0
6.474423 -0.000000 0.000000
0.000000 6.474423 0.000000
-0.000000 -0.000000 6.474423
Cs I Sr
1 3 1
direct
-0.000000 -0.000000 -0.000000 Cs
0.500000 0.500000 0.000000 I
0.500000 0.000000 0.500000 I
0.000000 0.500000 0.500000 I
0.500000 0.500000 0.500000 Sr

0.000000 0.000000 0.000000
0.000000 0.000000 0.000000
0.000000 0.000000 0.000000
0.000000 0.000000 0.000000
0.000000 0.000000 0.000000
