Cs Cl Cd
1.0
5.333284 0.000000 0.000000
0.000000 5.333284 0.000000
0.000000 0.000000 5.333284
Cd Cl Cs
1 3 1
direct
0.499999 0.499999 0.499999 Cd
0.499999 0.499999 0.000000 Cl
0.499999 0.000000 0.499999 Cl
0.000000 0.499999 0.499999 Cl
0.000000 0.000000 0.000000 Cs

0.000000 0.000000 0.000000
0.000000 0.000000 0.000000
0.000000 0.000000 0.000000
0.000000 0.000000 0.000000
0.000000 0.000000 0.000000
