Cs Ca Cl
1.0
5.465829 0.000000 -0.000000
-0.000000 5.465829 -0.000000
0.000000 0.000000 5.465829
Ca Cl Cs
1 3 1
direct
-0.000000 -0.000000 -0.000000 Ca
0.500000 -0.000000 -0.000000 Cl
-0.000000 0.500000 -0.000000 Cl
-0.000000 -0.000000 0.500000 Cl
0.500000 0.500000 0.500000 Cs

0.000000 0.000000 0.000000
0.000000 0.000000 0.000000
0.000000 0.000000 0.000000
0.000000 0.000000 0.000000
0.000000 0.000000 0.000000
