Cl In Cd
1.0
5.249021 0.000000 0.000000
0.000000 5.249021 0.000000
0.000000 0.000000 5.249021
Cd Cl In
1 3 1
direct
0.000000 0.000000 0.000000 Cd
0.500000 0.000000 0.000000 Cl
0.000000 0.500000 0.000000 Cl
0.000000 0.000000 0.500000 Cl
0.500000 0.500000 0.500000 In

0.000000 0.000000 0.000000
0.000000 0.000000 0.000000
0.000000 0.000000 0.000000
0.000000 0.000000 0.000000
0.000000 0.000000 0.000000
