Cl Tl Mg
1.0
5.016847 0.000000 0.000000
0.000000 5.016847 0.000000
0.000000 0.000000 5.016847
Cl Mg Tl
3 1 1
direct
0.500000 0.000000 0.000000 Cl
0.000000 0.500000 0.000000 Cl
0.000000 0.000000 0.500000 Cl
0.000000 0.000000 0.000000 Mg
0.500000 0.500000 0.500000 Tl

0.000000 0.000000 0.000000
0.000000 0.000000 0.000000
0.000000 0.000000 0.000000
0.000000 0.000000 0.000000
0.000000 0.000000 0.000000
