Pb Tl Cl
1.0
5.666952 0.000000 0.000000
0.000000 5.666952 0.000000
0.000000 0.000000 5.666952
Cl Pb Tl
3 1 1
direct
0.500000 0.500000 0.000000 Cl
0.500000 0.000000 0.500000 Cl
0.000000 0.500000 0.500000 Cl
0.500000 0.500000 0.500000 Pb
0.000000 0.000000 0.000000 Tl

0.000000 0.000000 0.000000
0.000000 0.000000 0.000000
0.000000 0.000000 0.000000
0.000000 0.000000 0.000000
0.000000 0.000000 0.000000
