F In Cd
1.0
4.481789 0.000000 0.000000
0.000000 4.481789 0.000000
0.000000 0.000000 4.481789
Cd F In
1 3 1
direct
0.500000 0.500000 0.500000 Cd
0.500000 0.500000 0.000000 F
0.500000 0.000000 0.500000 F
0.000000 0.500000 0.500000 F
0.000000 0.000000 0.000000 In

0.000000 0.000000 0.000000
0.000000 0.000000 0.000000
0.000000 0.000000 0.000000
0.000000 0.000000 0.000000
0.000000 0.000000 0.000000
