Sr Rb F
1.0
4.790369 0.000000 0.000000
0.000000 4.790369 0.000000
0.000000 0.000000 4.790369
F Rb Sr
3 1 1
direct
0.500000 0.500000 0.000000 F
0.500000 0.000000 0.500000 F
0.000000 0.500000 0.500000 F
0.000000 0.000000 0.000000 Rb
0.500000 0.500000 0.500000 Sr

0.000000 0.000000 0.000000
0.000000 0.000000 0.000000
0.000000 0.000000 0.000000
0.000000 0.000000 0.000000
0.000000 0.000000 0.000000
