Sn Br In
1.0
5.815613 0.000000 0.000000
0.000000 5.815613 0.000000
0.000000 0.000000 5.815613
Br In Sn
3 1 1
direct
0.500000 0.500000 0.000000 Br
0.500000 0.000000 0.500000 Br
0.000000 0.500000 0.500000 Br
0.000000 0.000000 0.000000 In
0.500000 0.500000 0.500000 Sn

0.000000 0.000000 0.000000
0.000000 0.000000 0.000000
0.000000 0.000000 0.000000
0.000000 0.000000 0.000000
0.000000 0.000000 0.000000
