I Ca Tl
1.0
6.140773 0.000000 0.000000
0.000000 6.140773 0.000000
0.000000 0.000000 6.140773
Ca I Tl
1 3 1
direct
0.000000 0.000000 0.000000 Ca
0.500000 0.000000 0.000000 I
0.000000 0.500000 0.000000 I
0.000000 0.000000 0.500000 I
0.500000 0.500000 0.500000 Tl

0.000000 0.000000 0.000000
0.000000 0.000000 0.000000
0.000000 0.000000 0.000000
0.000000 0.000000 0.000000
0.000000 0.000000 0.000000
