Cs Pb F
1.0
4.864919 0.000000 0.000000
0.000000 4.864919 0.000000
0.000000 0.000000 4.864919
Cs F Pb
1 3 1
direct
0.500000 0.500000 0.500000 Cs
0.500000 0.000000 0.000000 F
0.000000 0.500000 0.000000 F
0.000000 0.000000 0.500000 F
0.000000 0.000000 0.000000 Pb

0.000000 0.000000 0.000000
0.000000 0.000000 0.000000
0.000000 0.000000 0.000000
0.000000 0.000000 0.000000
0.000000 0.000000 0.000000
