Li Sn F
1.0
3.877503 0.000000 0.000000
0.000000 3.877503 0.000000
0.000000 0.000000 3.877503
F Li Sn
3 1 1
direct
0.500000 0.000000 0.000000 F
0.000000 0.500000 0.000000 F
0.000000 0.000000 0.500000 F
0.000000 0.000000 0.000000 Li
0.500000 0.500000 0.500000 Sn

0.000000 0.000000 0.000000
0.000000 0.000000 0.000000
0.000000 0.000000 0.000000
0.000000 0.000000 0.000000
0.000000 0.000000 0.000000
