In Ga Cl
1.0
5.116681 0.000000 0.000000
0.000000 5.116681 0.000000
-0.000000 -0.000000 5.116681
In Ga Cl
1 1 3
direct
0.000000 0.000000 0.000000 In
0.500000 0.500000 0.500000 Ga
0.500000 0.500000 -0.000000 Cl
0.500000 -0.000000 0.500000 Cl
-0.000000 0.500000 0.500000 Cl

0.000000 0.000000 0.000000
0.000000 0.000000 0.000000
0.000000 0.000000 0.000000
0.000000 0.000000 0.000000
0.000000 0.000000 0.000000
