Ba Br Li
1.0
5.220949 0.000000 0.000000
0.000000 5.220949 0.000000
0.000000 0.000000 5.220949
Ba Br Li
1 3 1
direct
0.000000 0.000000 0.000000 Ba
0.500000 0.500000 0.000000 Br
0.500000 0.000000 0.500000 Br
0.000000 0.500000 0.500000 Br
0.500000 0.500000 0.500000 Li

0.000000 0.000000 0.000000
0.000000 0.000000 0.000000
0.000000 0.000000 0.000000
0.000000 0.000000 0.000000
0.000000 0.000000 0.000000
