Pb In Cl
1.0
5.665379 0.000000 0.000000
0.000000 5.665379 0.000000
0.000000 0.000000 5.665379
Cl In Pb
3 1 1
direct
0.500000 0.500000 0.000000 Cl
0.500000 0.000000 0.500000 Cl
0.000000 0.500000 0.500000 Cl
0.000000 0.000000 0.000000 In
0.500000 0.500000 0.500000 Pb

0.000000 0.000000 0.000000
0.000000 0.000000 0.000000
0.000000 0.000000 0.000000
0.000000 0.000000 0.000000
0.000000 0.000000 0.000000
