Rb Br Cl
1.0
5.407655 -0.000000 -0.000000
-0.000000 5.407655 -0.000000
0.000000 0.000000 5.407655
Rb Br Cl
1 1 3
direct
0.000000 -0.000000 0.000000 Rb
0.500000 0.500000 0.500000 Br
0.500000 0.500000 0.000000 Cl
0.500000 -0.000000 0.500000 Cl
0.000000 0.500000 0.500000 Cl

0.000000 0.000000 0.000000
0.000000 0.000000 0.000000
0.000000 0.000000 0.000000
0.000000 0.000000 0.000000
0.000000 0.000000 0.000000
