Rb Mg  I
1.0
5.874797 0.000000 0.000000
0.000000 5.874797 0.000000
0.000000 0.000000 5.874797
Rb Mg I
1 1 3
direct
0.000000 0.000000 0.000000 Rb
0.500000 0.500000 0.500000 Mg
0.500000 0.500000 0.000000 I
0.500000 0.000000 0.500000 I
0.000000 0.500000 0.500000 I

0.000000 0.000000 0.000000
0.000000 0.000000 0.000000
0.000000 0.000000 0.000000
0.000000 0.000000 0.000000
0.000000 0.000000 0.000000
