In Cs  F
1.0
4.893076 0.000000 0.000000
0.000000 4.893076 0.000000
0.000000 0.000000 4.893076
In Cs F
1 1 3
direct
0.000000 0.000000 0.000000 In
0.500000 0.500000 0.500000 Cs
0.500000 0.500000 0.000000 F
0.500000 0.000000 0.500000 F
0.000000 0.500000 0.500000 F

0.000000 0.000000 0.000000
0.000000 0.000000 0.000000
0.000000 0.000000 0.000000
0.000000 0.000000 0.000000
0.000000 0.000000 0.000000
