F Mg Tl
1.0
4.110781 0.000000 0.000000
0.000000 4.110781 0.000000
0.000000 0.000000 4.110781
F Mg Tl
3 1 1
direct
0.500000 0.000000 0.000000 F
0.000000 0.500000 0.000000 F
0.000000 0.000000 0.500000 F
0.000000 0.000000 0.000000 Mg
0.500000 0.500000 0.500000 Tl

0.000000 0.000000 0.000000
0.000000 0.000000 0.000000
0.000000 0.000000 0.000000
0.000000 0.000000 0.000000
0.000000 0.000000 0.000000
