Li Ba Cl
1.0
4.912617 0.000000 0.000000
0.000000 4.912617 0.000000
0.000000 0.000000 4.912617
Ba Cl Li
1 3 1
direct
0.000000 0.000000 0.000000 Ba
0.500000 0.500000 0.000000 Cl
0.500000 0.000000 0.500000 Cl
0.000000 0.500000 0.500000 Cl
0.500000 0.500000 0.500000 Li

0.000000 0.000000 0.000000
0.000000 0.000000 0.000000
0.000000 0.000000 0.000000
0.000000 0.000000 0.000000
0.000000 0.000000 0.000000
