Ca Ag Cl
1.0
5.136462 0.000000 0.000000
0.000000 5.136462 0.000000
0.000000 0.000000 5.136462
Ca Ag Cl
1 1 3
direct
0.000000 0.000000 0.000000 Ca
0.500000 0.500000 0.500000 Ag
0.500000 0.500000 0.000000 Cl
0.500000 0.000000 0.500000 Cl
0.000000 0.500000 0.500000 Cl

0.000000 0.000000 0.000000
0.000000 0.000000 0.000000
0.000000 0.000000 0.000000
0.000000 0.000000 0.000000
0.000000 0.000000 0.000000
