Sr In Br
1.0
5.819368 0.000000 -0.000000
0.000000 5.819368 0.000000
0.000000 -0.000000 5.819368
Sr In Br
1 1 3
direct
-0.000000 -0.000000 -0.000000 Sr
0.500000 0.500000 0.500000 In
0.500000 0.500000 0.000000 Br
0.500000 0.000000 0.500000 Br
0.000000 0.500000 0.500000 Br

0.000000 0.000000 0.000000
0.000000 0.000000 0.000000
0.000000 0.000000 0.000000
0.000000 0.000000 0.000000
0.000000 0.000000 0.000000
