I Pb In
1.0
6.315623 0.000000 0.000000
0.000000 6.315623 0.000000
0.000000 0.000000 6.315623
I In Pb
3 1 1
direct
0.500000 0.500000 0.000000 I
0.500000 0.000000 0.500000 I
0.000000 0.500000 0.500000 I
0.000000 0.000000 0.000000 In
0.500000 0.500000 0.500000 Pb

0.000000 0.000000 0.000000
0.000000 0.000000 0.000000
0.000000 0.000000 0.000000
0.000000 0.000000 0.000000
0.000000 0.000000 0.000000
