F Rb Cd
1.0
4.502347 0.000000 0.000000
0.000000 4.502347 0.000000
0.000000 0.000000 4.502347
Cd F Rb
1 3 1
direct
0.500000 0.500000 0.500000 Cd
0.500000 0.500000 0.000000 F
0.500000 0.000000 0.500000 F
0.000000 0.500000 0.500000 F
0.000000 0.000000 0.000000 Rb

0.000000 0.000000 0.000000
0.000000 0.000000 0.000000
0.000000 0.000000 0.000000
0.000000 0.000000 0.000000
0.000000 0.000000 0.000000
