Tl In Cl
1.0
5.413012 -0.000000 0.000000
0.000000 5.413012 0.000000
0.000000 -0.000000 5.413012
Tl In Cl
1 1 3
direct
0.000000 0.000000 0.000000 Tl
0.500000 0.500000 0.500000 In
0.500000 0.500000 -0.000000 Cl
0.500000 -0.000000 0.500000 Cl
-0.000000 0.500000 0.500000 Cl

0.000000 0.000000 0.000000
0.000000 0.000000 0.000000
0.000000 0.000000 0.000000
0.000000 0.000000 0.000000
0.000000 0.000000 0.000000
