Cs Ti Br
1.0
4.791422 0.000000 0.000000
0.000000 4.791422 0.000000
0.000000 0.000000 4.791422
Cs Tl F
1 1 3
direct
0.000000 0.000000 0.000000 Cs
0.500000 0.500000 0.500000 Tl
0.500000 0.500000 0.000000 F
0.500000 0.000000 0.500000 F
0.000000 0.500000 0.500000 F

0.000000 0.000000 0.000000
0.000000 0.000000 0.000000
0.000000 0.000000 0.000000
0.000000 0.000000 0.000000
0.000000 0.000000 0.000000
