Ca In F
1.0
4.500246 0.000000 0.000000
0.000000 4.500246 0.000000
0.000000 0.000000 4.500246
Ca F In
1 3 1
direct
0.000000 0.000000 0.000000 Ca
0.500000 0.000000 0.000000 F
0.000000 0.500000 0.000000 F
0.000000 0.000000 0.500000 F
0.500000 0.500000 0.500000 In

0.000000 0.000000 0.000000
0.000000 0.000000 0.000000
0.000000 0.000000 0.000000
0.000000 0.000000 0.000000
0.000000 0.000000 0.000000
