Mg Tl Br
1.0
5.772686 0.000000 0.000000
0.000000 5.772686 0.000000
0.000000 0.000000 5.772686
Mg Tl Br
1 1 3
direct
0.000000 0.000000 0.000000 Mg
0.500000 0.500000 0.500000 Tl
0.500000 0.500000 0.000000 Br
0.500000 0.000000 0.500000 Br
0.000000 0.500000 0.500000 Br

0.000000 0.000000 0.000000
0.000000 0.000000 0.000000
0.000000 0.000000 0.000000
0.000000 0.000000 0.000000
0.000000 0.000000 0.000000
