Ca Rb Br
1.0
5.740272 0.000000 0.000000
0.000000 5.740272 0.000000
0.000000 0.000000 5.740272
Br Ca Rb
3 1 1
direct
0.500000 0.000000 0.000000 Br
0.000000 0.500000 0.000000 Br
0.000000 0.000000 0.500000 Br
0.000000 0.000000 0.000000 Ca
0.500000 0.500000 0.500000 Rb

0.000000 0.000000 0.000000
0.000000 0.000000 0.000000
0.000000 0.000000 0.000000
0.000000 0.000000 0.000000
0.000000 0.000000 0.000000
