In Sn F
1.0
4.701200 0.000000 0.000000
0.000000 4.701200 0.000000
0.000000 0.000000 4.701200
F In Sn
3 1 1
direct
0.500000 0.500000 0.000000 F
0.500000 0.000000 0.500000 F
0.000000 0.500000 0.500000 F
0.000000 0.000000 0.000000 In
0.500000 0.500000 0.500000 Sn

0.000000 0.000000 0.000000
0.000000 0.000000 0.000000
0.000000 0.000000 0.000000
0.000000 0.000000 0.000000
0.000000 0.000000 0.000000
