Cs Sn Cl
1.0
5.620443 0.000000 0.000000
0.000000 5.620443 0.000000
0.000000 0.000000 5.620443
Cl Cs Sn
3 1 1
direct
0.500001 0.500001 0.000000 Cl
0.500001 0.000000 0.500001 Cl
0.000000 0.500001 0.500001 Cl
0.000000 0.000000 0.000000 Cs
0.500001 0.500001 0.500001 Sn

0.000000 0.000000 0.000000
0.000000 0.000000 0.000000
0.000000 0.000000 0.000000
0.000000 0.000000 0.000000
0.000000 0.000000 0.000000
