Tl Pd  I
1.0
5.566058 0.000000 0.000000
0.000000 5.566058 0.000000
0.000000 0.000000 5.566058
Tl Pd I
1 1 3
direct
0.000000 0.000000 0.000000 Tl
0.500000 0.500000 0.500000 Pd
0.500000 0.500000 0.000000 I
0.500000 0.000000 0.500000 I
0.000000 0.500000 0.500000 I

0.000000 0.000000 0.000000
0.000000 0.000000 0.000000
0.000000 0.000000 0.000000
0.000000 0.000000 0.000000
0.000000 0.000000 0.000000
