Rb Sr Cl
1.0
5.702436 0.000000 0.000000
0.000000 5.702436 0.000000
0.000000 0.000000 5.702436
Cl Rb Sr
3 1 1
direct
0.500000 0.500000 0.000000 Cl
0.500000 0.000000 0.500000 Cl
0.000000 0.500000 0.500000 Cl
0.000000 0.000000 0.000000 Rb
0.500000 0.500000 0.500000 Sr

0.000000 0.000000 0.000000
0.000000 0.000000 0.000000
0.000000 0.000000 0.000000
0.000000 0.000000 0.000000
0.000000 0.000000 0.000000
