Ca Rb F
1.0
4.518133 0.000000 0.000000
0.000000 4.518133 0.000000
0.000000 0.000000 4.518133
Ca F Rb
1 3 1
direct
0.500001 0.500001 0.500001 Ca
0.500001 0.500001 0.000000 F
0.500001 0.000000 0.500001 F
0.000000 0.500001 0.500001 F
0.000000 0.000000 0.000000 Rb

0.000000 0.000000 0.000000
0.000000 0.000000 0.000000
0.000000 0.000000 0.000000
0.000000 0.000000 0.000000
0.000000 0.000000 0.000000
