Li Ga Br
1.0
5.364255 0.000000 0.000000
0.000000 5.364255 0.000000
0.000000 0.000000 5.364255
Li Ga Br
1 1 3
direct
0.000000 0.000000 0.000000 Li
0.500000 0.500000 0.500000 Ga
0.500000 0.500000 0.000000 Br
0.500000 0.000000 0.500000 Br
0.000000 0.500000 0.500000 Br

0.000000 0.000000 0.000000
0.000000 0.000000 0.000000
0.000000 0.000000 0.000000
0.000000 0.000000 0.000000
0.000000 0.000000 0.000000
