Sr Tl F
1.0
4.767633 0.000000 0.000000
0.000000 4.767633 0.000000
0.000000 0.000000 4.767633
F Sr Tl
3 1 1
direct
0.500000 0.000000 0.000000 F
0.000000 0.500000 0.000000 F
0.000000 0.000000 0.500000 F
0.000000 0.000000 0.000000 Sr
0.500000 0.500000 0.500000 Tl

0.000000 0.000000 0.000000
0.000000 0.000000 0.000000
0.000000 0.000000 0.000000
0.000000 0.000000 0.000000
0.000000 0.000000 0.000000
