Hg Bi Cl
1.0
5.456253 0.000000 0.000000
0.000000 5.456253 0.000000
0.000000 0.000000 5.456253
Hg Bi Cl
1 1 3
direct
0.000000 0.000000 0.000000 Hg
0.500000 0.500000 0.500000 Bi
0.500000 0.500000 0.000000 Cl
0.500000 0.000000 0.500000 Cl
0.000000 0.500000 0.500000 Cl

0.000000 0.000000 0.000000
0.000000 0.000000 0.000000
0.000000 0.000000 0.000000
0.000000 0.000000 0.000000
0.000000 0.000000 0.000000
