In Br Cd
1.0
5.530328 0.000000 0.000000
0.000000 5.530328 0.000000
0.000000 0.000000 5.530328
Br Cd In
3 1 1
direct
0.500000 0.500000 0.000000 Br
0.500000 0.000000 0.500000 Br
0.000000 0.500000 0.500000 Br
0.500000 0.500000 0.500000 Cd
0.000000 0.000000 0.000000 In

0.000000 0.000000 0.000000
0.000000 0.000000 0.000000
0.000000 0.000000 0.000000
0.000000 0.000000 0.000000
0.000000 0.000000 0.000000
