Cs Be Cl
1.0
4.847143 0.000000 0.000000
0.000000 4.847143 0.000000
0.000000 0.000000 4.847143
Cs Be Cl
1 1 3
direct
0.000000 0.000000 0.000000 Cs
0.500000 0.500000 0.500000 Be
0.500000 0.500000 0.000000 Cl
0.500000 0.000000 0.500000 Cl
0.000000 0.500000 0.500000 Cl

0.000000 0.000000 0.000000
0.000000 0.000000 0.000000
0.000000 0.000000 0.000000
0.000000 0.000000 0.000000
0.000000 0.000000 0.000000
