Na Sn Br
1.0
5.806563 0.000000 0.000000
0.000000 5.806563 0.000000
0.000000 0.000000 5.806563
Na Sn Br
1 1 3
direct
0.000000 0.000000 0.000000 Na
0.500000 0.500000 0.500000 Sn
0.500000 0.500000 0.000000 Br
0.500000 0.000000 0.500000 Br
0.000000 0.500000 0.500000 Br

0.000000 0.000000 0.000000
0.000000 0.000000 0.000000
0.000000 0.000000 0.000000
0.000000 0.000000 0.000000
0.000000 0.000000 0.000000
