Ge Br In
1.0
5.506339 0.000000 0.000000
0.000000 5.506339 0.000000
0.000000 0.000000 5.506339
Br Ge In
3 1 1
direct
0.500000 0.500000 0.000000 Br
0.500000 0.000000 0.500000 Br
0.000000 0.500000 0.500000 Br
0.500000 0.500000 0.500000 Ge
0.000000 0.000000 0.000000 In

0.000000 0.000000 0.000000
0.000000 0.000000 0.000000
0.000000 0.000000 0.000000
0.000000 0.000000 0.000000
0.000000 0.000000 0.000000
