Cs I Pb
1.0
6.389020 0.000000 0.000000
0.000000 6.389020 0.000000
0.000000 0.000000 6.389020
Cs I Pb
1 3 1
direct
0.499999 0.499999 0.499999 Cs
0.499999 0.000000 0.000000 I
0.000000 0.499999 0.000000 I
0.000000 0.000000 0.499999 I
0.000000 0.000000 0.000000 Pb

0.000000 0.000000 0.000000
0.000000 0.000000 0.000000
0.000000 0.000000 0.000000
0.000000 0.000000 0.000000
0.000000 0.000000 0.000000
