Ca Tl F
1.0
4.496688 0.000000 0.000000
0.000000 4.496688 0.000000
0.000000 0.000000 4.496688
Ca F Tl
1 3 1
direct
0.000000 0.000000 0.000000 Ca
0.500000 0.000000 0.000000 F
0.000000 0.500000 0.000000 F
0.000000 0.000000 0.500000 F
0.500000 0.500000 0.500000 Tl

0.000000 0.000000 0.000000
0.000000 0.000000 0.000000
0.000000 0.000000 0.000000
0.000000 0.000000 0.000000
0.000000 0.000000 0.000000
