Tl Sn Br
1.0
5.818671 0.000000 0.000000
0.000000 5.818671 0.000000
0.000000 0.000000 5.818671
Br Sn Tl
3 1 1
direct
0.500000 0.500000 0.000000 Br
0.500000 0.000000 0.500000 Br
0.000000 0.500000 0.500000 Br
0.500000 0.500000 0.500000 Sn
0.000000 0.000000 0.000000 Tl

0.000000 0.000000 0.000000
0.000000 0.000000 0.000000
0.000000 0.000000 0.000000
0.000000 0.000000 0.000000
0.000000 0.000000 0.000000
