I Tl Hg
1.0
5.992320 0.000000 0.000000
0.000000 5.992320 0.000000
0.000000 0.000000 5.992320
Hg I Tl
1 3 1
direct
0.000000 0.000000 0.000000 Hg
0.500000 0.000000 0.000000 I
0.000000 0.500000 0.000000 I
0.000000 0.000000 0.500000 I
0.500000 0.500000 0.500000 Tl

0.000000 0.000000 0.000000
0.000000 0.000000 0.000000
0.000000 0.000000 0.000000
0.000000 0.000000 0.000000
0.000000 0.000000 0.000000
