Nb Te Br
1.0
5.699349 0.000000 0.000000
0.000000 5.699349 0.000000
0.000000 0.000000 5.699349
Nb Te Br
1 1 3
direct
0.000000 0.000000 0.000000 Nb
0.500000 0.500000 0.500000 Te
0.500000 0.500000 0.000000 Br
0.500000 0.000000 0.500000 Br
0.000000 0.500000 0.500000 Br

0.000000 0.000000 0.000000
0.000000 0.000000 0.000000
0.000000 0.000000 0.000000
0.000000 0.000000 0.000000
0.000000 0.000000 0.000000
