Cs Hg Cl
1.0
5.400032 -0.000000 -0.000000
0.000000 5.400032 -0.000000
0.000000 0.000000 5.400032
Cl Cs Hg
3 1 1
direct
0.500000 0.500000 0.000000 Cl
0.500000 0.000000 0.500000 Cl
0.000000 0.500000 0.500000 Cl
-0.000000 0.000000 0.000000 Cs
0.500000 0.500000 0.500000 Hg

0.000000 0.000000 0.000000
0.000000 0.000000 0.000000
0.000000 0.000000 0.000000
0.000000 0.000000 0.000000
0.000000 0.000000 0.000000
