Cd In  I
1.0
5.925535 0.000000 0.000000
0.000000 5.925535 0.000000
0.000000 0.000000 5.925535
Cd In I
1 1 3
direct
0.000000 0.000000 0.000000 Cd
0.500000 0.500000 0.500000 In
0.500000 0.500000 0.000000 I
0.500000 0.000000 0.500000 I
0.000000 0.500000 0.500000 I

0.000000 0.000000 0.000000
0.000000 0.000000 0.000000
0.000000 0.000000 0.000000
0.000000 0.000000 0.000000
0.000000 0.000000 0.000000
