Cs Br Cd
1.0
5.621209 0.000000 0.000000
0.000000 5.621209 0.000000
0.000000 0.000000 5.621209
Br Cd Cs
3 1 1
direct
0.500000 0.500000 0.000000 Br
0.500000 0.000000 0.500000 Br
0.000000 0.500000 0.500000 Br
0.500000 0.500000 0.500000 Cd
0.000000 0.000000 0.000000 Cs

0.000000 0.000000 0.000000
0.000000 0.000000 0.000000
0.000000 0.000000 0.000000
0.000000 0.000000 0.000000
0.000000 0.000000 0.000000
