Cs Zn Br
1.0
5.382511 0.000000 0.000000
0.000000 5.382511 0.000000
0.000000 0.000000 5.382511
Br Cs Zn
3 1 1
direct
0.500000 0.500000 0.000000 Br
0.500000 0.000000 0.500000 Br
0.000000 0.500000 0.500000 Br
0.000000 0.000000 0.000000 Cs
0.500000 0.500000 0.500000 Zn

0.000000 0.000000 0.000000
0.000000 0.000000 0.000000
0.000000 0.000000 0.000000
0.000000 0.000000 0.000000
0.000000 0.000000 0.000000
