Mg Rb F
1.0
4.121981 0.000000 0.000000
0.000000 4.121981 0.000000
0.000000 0.000000 4.121981
F Mg Rb
3 1 1
direct
0.499999 0.499999 0.000000 F
0.499999 0.000000 0.499999 F
0.000000 0.499999 0.499999 F
0.499999 0.499999 0.499999 Mg
0.000000 0.000000 0.000000 Rb

0.000000 0.000000 0.000000
0.000000 0.000000 0.000000
0.000000 0.000000 0.000000
0.000000 0.000000 0.000000
0.000000 0.000000 0.000000
