Ge In Cl
1.0
5.252234 0.000000 0.000000
0.000000 5.252234 0.000000
0.000000 0.000000 5.252234
Cl Ge In
3 1 1
direct
0.500000 0.500000 0.000000 Cl
0.500000 0.000000 0.500000 Cl
0.000000 0.500000 0.500000 Cl
0.500000 0.500000 0.500000 Ge
0.000000 0.000000 0.000000 In

0.000000 0.000000 0.000000
0.000000 0.000000 0.000000
0.000000 0.000000 0.000000
0.000000 0.000000 0.000000
0.000000 0.000000 0.000000
