Cs Pb Cl
1.0
5.721001 0.000000 0.000000
0.000000 5.721001 0.000000
0.000000 0.000000 5.721001
Cl Cs Pb
3 1 1
direct
0.500001 0.500001 0.000000 Cl
0.500001 0.000000 0.500001 Cl
0.000000 0.500001 0.500001 Cl
0.000000 0.000000 0.000000 Cs
0.500001 0.500001 0.500001 Pb

0.000000 0.000000 0.000000
0.000000 0.000000 0.000000
0.000000 0.000000 0.000000
0.000000 0.000000 0.000000
0.000000 0.000000 0.000000
