Ag Ge Cl
1.0
5.170470 0.000000 0.000000
0.000000 5.170470 0.000000
0.000000 0.000000 5.170470
Ag Ge Cl
1 1 3
direct
0.000000 0.000000 0.000000 Ag
0.500000 0.500000 0.500000 Ge
0.500000 0.500000 0.000000 Cl
0.500000 0.000000 0.500000 Cl
0.000000 0.500000 0.500000 Cl

0.000000 0.000000 0.000000
0.000000 0.000000 0.000000
0.000000 0.000000 0.000000
0.000000 0.000000 0.000000
0.000000 0.000000 0.000000
