Cs In Cl
1.0
5.481238 0.000000 0.000000
0.000000 5.481238 0.000000
0.000000 0.000000 5.481238
Cs In Cl
1 1 3
direct
0.000000 0.000000 0.000000 Cs
0.500000 0.500000 0.500000 In
0.500000 0.500000 0.000000 Cl
0.500000 0.000000 0.500000 Cl
0.000000 0.500000 0.500000 Cl

0.000000 0.000000 0.000000
0.000000 0.000000 0.000000
0.000000 0.000000 0.000000
0.000000 0.000000 0.000000
0.000000 0.000000 0.000000
