Tl Zn Br
1.0
5.264228 0.000000 0.000000
0.000000 5.264228 0.000000
0.000000 0.000000 5.264228
Tl Zn Br
1 1 3
direct
0.000000 0.000000 0.000000 Tl
0.500000 0.500000 0.500000 Zn
0.500000 0.500000 0.000000 Br
0.500000 0.000000 0.500000 Br
0.000000 0.500000 0.500000 Br

0.000000 0.000000 0.000000
0.000000 0.000000 0.000000
0.000000 0.000000 0.000000
0.000000 0.000000 0.000000
0.000000 0.000000 0.000000
