Cs Sn  F
1.0
4.784094 -0.000000 -0.000000
0.000000 4.784094 -0.000000
-0.000000 0.000000 4.784094
Cs Sn F
1 1 3
direct
-0.000000 -0.000000 0.000000 Cs
0.500000 0.500000 0.500000 Sn
0.500000 0.500000 -0.000000 F
0.500000 0.000000 0.500000 F
0.000000 0.500000 0.500000 F

0.000000 0.000000 0.000000
0.000000 0.000000 0.000000
0.000000 0.000000 0.000000
0.000000 0.000000 0.000000
0.000000 0.000000 0.000000
