Nb Te  I
1.0
5.997215 0.000000 0.000000
0.000000 5.997215 0.000000
0.000000 -0.000000 5.997215
Nb Te I
1 1 3
direct
0.000000 -0.000000 0.000000 Nb
0.500000 0.500000 0.500000 Te
0.500000 0.500000 0.000000 I
0.500000 -0.000000 0.500000 I
0.000000 0.500000 0.500000 I

0.000000 0.000000 0.000000
0.000000 0.000000 0.000000
0.000000 0.000000 0.000000
0.000000 0.000000 0.000000
0.000000 0.000000 0.000000
