Na Ge Cl
1.0
5.215940 0.000000 0.000000
0.000000 5.215940 0.000000
0.000000 0.000000 5.215940
Na Ge Cl
1 1 3
direct
0.000000 0.000000 0.000000 Na
0.500000 0.500000 0.500000 Ge
0.500000 0.500000 0.000000 Cl
0.500000 0.000000 0.500000 Cl
0.000000 0.500000 0.500000 Cl

0.000000 0.000000 0.000000
0.000000 0.000000 0.000000
0.000000 0.000000 0.000000
0.000000 0.000000 0.000000
0.000000 0.000000 0.000000
