Pb Li F
1.0
3.901569 0.000000 0.000000
0.000000 3.901569 0.000000
0.000000 0.000000 3.901569
F Li Pb
3 1 1
direct
0.500000 0.500000 0.000000 F
0.500000 0.000000 0.500000 F
0.000000 0.500000 0.500000 F
0.500000 0.500000 0.500000 Li
0.000000 0.000000 0.000000 Pb

0.000000 0.000000 0.000000
0.000000 0.000000 0.000000
0.000000 0.000000 0.000000
0.000000 0.000000 0.000000
0.000000 0.000000 0.000000
