Cl Rb Cd
1.0
5.287238 0.000000 0.000000
0.000000 5.287238 0.000000
0.000000 0.000000 5.287238
Cd Cl Rb
1 3 1
direct
0.000000 0.000000 0.000000 Cd
0.500000 0.000000 0.000000 Cl
0.000000 0.500000 0.000000 Cl
0.000000 0.000000 0.500000 Cl
0.500000 0.500000 0.500000 Rb

0.000000 0.000000 0.000000
0.000000 0.000000 0.000000
0.000000 0.000000 0.000000
0.000000 0.000000 0.000000
0.000000 0.000000 0.000000
