Ca In  I
1.0
6.183865 0.000000 -0.000000
0.000000 6.183865 0.000000
-0.000000 0.000000 6.183865
Ca In I
1 1 3
direct
-0.000000 0.000000 0.000000 Ca
0.500000 0.500000 0.500000 In
0.500000 0.500000 0.000000 I
0.500000 0.000000 0.500000 I
0.000000 0.500000 0.500000 I

0.000000 0.000000 0.000000
0.000000 0.000000 0.000000
0.000000 0.000000 0.000000
0.000000 0.000000 0.000000
0.000000 0.000000 0.000000
