Na Ca F
1.0
4.432410 0.000000 0.000000
0.000000 4.432410 0.000000
0.000000 0.000000 4.432410
Ca F Na
1 3 1
direct
0.500000 0.500000 0.500000 Ca
0.500000 0.500000 0.000000 F
0.500000 0.000000 0.500000 F
0.000000 0.500000 0.500000 F
0.000000 0.000000 0.000000 Na

0.000000 0.000000 0.000000
0.000000 0.000000 0.000000
0.000000 0.000000 0.000000
0.000000 0.000000 0.000000
0.000000 0.000000 0.000000
