I Sn In
1.0
6.192217 0.000000 -0.000000
0.000000 6.192217 -0.000000
0.000000 -0.000000 6.192217
I In Sn
3 1 1
direct
0.500000 0.500000 -0.000000 I
0.500000 -0.000000 0.500000 I
-0.000000 0.500000 0.500000 I
0.000000 0.000000 0.000000 In
0.500000 0.500000 0.500000 Sn

0.000000 0.000000 0.000000
0.000000 0.000000 0.000000
0.000000 0.000000 0.000000
0.000000 0.000000 0.000000
0.000000 0.000000 0.000000
