Li Ga  I
1.0
5.799325 0.000000 0.000000
0.000000 5.799325 0.000000
0.000000 0.000000 5.799325
Li Ga I
1 1 3
direct
0.000000 0.000000 0.000000 Li
0.500000 0.500000 0.500000 Ga
0.500000 0.500000 0.000000 I
0.500000 0.000000 0.500000 I
0.000000 0.500000 0.500000 I

0.000000 0.000000 0.000000
0.000000 0.000000 0.000000
0.000000 0.000000 0.000000
0.000000 0.000000 0.000000
0.000000 0.000000 0.000000
