I Rb Cd
1.0
6.018539 0.000000 0.000000
0.000000 6.018539 0.000000
0.000000 0.000000 6.018539
Cd I Rb
1 3 1
direct
0.000000 0.000000 0.000000 Cd
0.500000 0.000000 0.000000 I
0.000000 0.500000 0.000000 I
0.000000 0.000000 0.500000 I
0.500000 0.500000 0.500000 Rb

0.000000 0.000000 0.000000
0.000000 0.000000 0.000000
0.000000 0.000000 0.000000
0.000000 0.000000 0.000000
0.000000 0.000000 0.000000
