Tl Br Rb
1.0
5.858965 0.000000 0.000000
0.000000 5.858965 0.000000
0.000000 0.000000 5.858965
Br Rb Tl
3 1 1
direct
0.500000 0.500000 0.000000 Br
0.500000 0.000000 0.500000 Br
0.000000 0.500000 0.500000 Br
0.000000 0.000000 0.000000 Rb
0.500000 0.500000 0.500000 Tl

0.000000 0.000000 0.000000
0.000000 0.000000 0.000000
0.000000 0.000000 0.000000
0.000000 0.000000 0.000000
0.000000 0.000000 0.000000
