Tl Sn F
1.0
4.697022 0.000000 0.000000
0.000000 4.697022 0.000000
0.000000 0.000000 4.697022
F Sn Tl
3 1 1
direct
0.500000 0.000000 0.000000 F
0.000000 0.500000 0.000000 F
0.000000 0.000000 0.500000 F
0.000000 0.000000 0.000000 Sn
0.500000 0.500000 0.500000 Tl

0.000000 0.000000 0.000000
0.000000 0.000000 0.000000
0.000000 0.000000 0.000000
0.000000 0.000000 0.000000
0.000000 0.000000 0.000000
