In Hg  I
1.0
5.983402 0.000000 0.000000
0.000000 5.983402 0.000000
0.000000 0.000000 5.983402
In Hg I
1 1 3
direct
0.000000 0.000000 0.000000 In
0.500000 0.500000 0.500000 Hg
0.500000 0.500000 0.000000 I
0.500000 0.000000 0.500000 I
0.000000 0.500000 0.500000 I

0.000000 0.000000 0.000000
0.000000 0.000000 0.000000
0.000000 0.000000 0.000000
0.000000 0.000000 0.000000
0.000000 0.000000 0.000000
