Tl Hg Br
1.0
5.602036 0.000000 0.000000
0.000000 5.602036 0.000000
0.000000 0.000000 5.602036
Br Hg Tl
3 1 1
direct
0.500000 0.500000 0.000000 Br
0.500000 0.000000 0.500000 Br
0.000000 0.500000 0.500000 Br
0.500000 0.500000 0.500000 Hg
0.000000 0.000000 0.000000 Tl

0.000000 0.000000 0.000000
0.000000 0.000000 0.000000
0.000000 0.000000 0.000000
0.000000 0.000000 0.000000
0.000000 0.000000 0.000000
