Tl In  F
1.0
4.522985 0.000000 0.000000
0.000000 4.522985 0.000000
0.000000 0.000000 4.522985
Tl In F
1 1 3
direct
0.000000 0.000000 0.000000 Tl
0.500000 0.500000 0.500000 In
0.500000 0.500000 0.000000 F
0.500000 0.000000 0.500000 F
0.000000 0.500000 0.500000 F

0.000000 0.000000 0.000000
0.000000 0.000000 0.000000
0.000000 0.000000 0.000000
0.000000 0.000000 0.000000
0.000000 0.000000 0.000000
