Rb Sr  I
1.0
6.445879 0.000000 -0.000000
-0.000000 6.445879 -0.000000
0.000000 0.000000 6.445879
Rb Sr I
1 1 3
direct
-0.000000 -0.000000 -0.000000 Rb
0.500000 0.500000 0.500000 Sr
0.500000 0.500000 -0.000000 I
0.500000 -0.000000 0.500000 I
-0.000000 0.500000 0.500000 I

0.000000 0.000000 0.000000
0.000000 0.000000 0.000000
0.000000 0.000000 0.000000
0.000000 0.000000 0.000000
0.000000 0.000000 0.000000
