Rb Ga  F
1.0
4.326734 0.000000 0.000000
0.000000 4.326734 0.000000
0.000000 0.000000 4.326734
Rb Ga F
1 1 3
direct
0.000000 0.000000 0.000000 Rb
0.500000 0.500000 0.500000 Ga
0.500000 0.500000 0.000000 F
0.500000 0.000000 0.500000 F
0.000000 0.500000 0.500000 F

0.000000 0.000000 0.000000
0.000000 0.000000 0.000000
0.000000 0.000000 0.000000
0.000000 0.000000 0.000000
0.000000 0.000000 0.000000
