Sr Tl Cl
1.0
5.697978 0.000000 0.000000
0.000000 5.697978 0.000000
0.000000 0.000000 5.697978
Sr Tl Cl
1 1 3
direct
0.000000 0.000000 0.000000 Sr
0.500000 0.500000 0.500000 Tl
0.500000 0.500000 0.000000 Cl
0.500000 0.000000 0.500000 Cl
0.000000 0.500000 0.500000 Cl

0.000000 0.000000 0.000000
0.000000 0.000000 0.000000
0.000000 0.000000 0.000000
0.000000 0.000000 0.000000
0.000000 0.000000 0.000000
