Rb Br Cd
1.0
5.582894 0.000000 0.000000
0.000000 5.582894 0.000000
0.000000 0.000000 5.582894
Br Cd Rb
3 1 1
direct
0.500000 0.000000 0.000000 Br
0.000000 0.500000 0.000000 Br
0.000000 0.000000 0.500000 Br
0.000000 0.000000 0.000000 Cd
0.500000 0.500000 0.500000 Rb

0.000000 0.000000 0.000000
0.000000 0.000000 0.000000
0.000000 0.000000 0.000000
0.000000 0.000000 0.000000
0.000000 0.000000 0.000000
