Cs I Sn
1.0
6.271848 0.000000 0.000000
0.000000 6.271848 0.000000
0.000000 0.000000 6.271848
Cs I Sn
1 3 1
direct
0.499999 0.499999 0.499999 Cs
0.499999 0.000000 0.000000 I
0.000000 0.499999 0.000000 I
0.000000 0.000000 0.499999 I
0.000000 0.000000 0.000000 Sn

0.000000 0.000000 0.000000
0.000000 0.000000 0.000000
0.000000 0.000000 0.000000
0.000000 0.000000 0.000000
0.000000 0.000000 0.000000
