Cl Tl Cd
1.0
5.249631 0.000000 0.000000
0.000000 5.249631 0.000000
0.000000 0.000000 5.249631
Cd Cl Tl
1 3 1
direct
0.500000 0.500000 0.500000 Cd
0.500000 0.500000 0.000000 Cl
0.500000 0.000000 0.500000 Cl
0.000000 0.500000 0.500000 Cl
0.000000 0.000000 0.000000 Tl

0.000000 0.000000 0.000000
0.000000 0.000000 0.000000
0.000000 0.000000 0.000000
0.000000 0.000000 0.000000
0.000000 0.000000 0.000000
