Cs In Br
1.0
5.764334 0.000000 0.000000
0.000000 5.764334 0.000000
0.000000 0.000000 5.764334
Cs In Br
1 1 3
direct
0.000000 0.000000 0.000000 Cs
0.500000 0.500000 0.500000 In
0.500000 0.500000 0.000000 Br
0.500000 0.000000 0.500000 Br
0.000000 0.500000 0.500000 Br

0.000000 0.000000 0.000000
0.000000 0.000000 0.000000
0.000000 0.000000 0.000000
0.000000 0.000000 0.000000
0.000000 0.000000 0.000000
