Cs Sr Br
1.0
6.031703 0.000000 0.000000
0.000000 6.031703 0.000000
0.000000 0.000000 6.031703
Br Cs Sr
3 1 1
direct
0.499999 0.499999 0.000000 Br
0.499999 0.000000 0.499999 Br
0.000000 0.499999 0.499999 Br
0.000000 0.000000 0.000000 Cs
0.499999 0.499999 0.499999 Sr

0.000000 0.000000 0.000000
0.000000 0.000000 0.000000
0.000000 0.000000 0.000000
0.000000 0.000000 0.000000
0.000000 0.000000 0.000000
