Cs I Zn
1.0
5.827690 0.000000 0.000000
0.000000 5.827690 0.000000
0.000000 0.000000 5.827690
Cs I Zn
1 3 1
direct
0.000000 0.000000 0.000000 Cs
0.500000 0.500000 0.000000 I
0.500000 0.000000 0.500000 I
0.000000 0.500000 0.500000 I
0.500000 0.500000 0.500000 Zn

0.000000 0.000000 0.000000
0.000000 0.000000 0.000000
0.000000 0.000000 0.000000
0.000000 0.000000 0.000000
0.000000 0.000000 0.000000
