Pb In F
1.0
4.813697 0.000000 0.000000
0.000000 4.813697 0.000000
0.000000 0.000000 4.813697
F In Pb
3 1 1
direct
0.500000 0.500000 0.000000 F
0.500000 0.000000 0.500000 F
0.000000 0.500000 0.500000 F
0.000000 0.000000 0.000000 In
0.500000 0.500000 0.500000 Pb

0.000000 0.000000 0.000000
0.000000 0.000000 0.000000
0.000000 0.000000 0.000000
0.000000 0.000000 0.000000
0.000000 0.000000 0.000000
