Cs Al Cl
1.0
5.184121 -0.000000 -0.000000
-0.000000 5.184121 0.000000
-0.000000 -0.000000 5.184121
Cs Al Cl
1 1 3
direct
-0.000000 -0.000000 0.000000 Cs
0.500000 0.500000 0.500000 Al
0.500000 0.500000 -0.000000 Cl
0.500000 0.000000 0.500000 Cl
0.000000 0.500000 0.500000 Cl

0.000000 0.000000 0.000000
0.000000 0.000000 0.000000
0.000000 0.000000 0.000000
0.000000 0.000000 0.000000
0.000000 0.000000 0.000000
