Cs Ca Br
1.0
5.768867 -0.000000 -0.000000
-0.000000 5.768867 -0.000000
0.000000 -0.000000 5.768867
Br Ca Cs
3 1 1
direct
0.500000 0.500000 0.000000 Br
0.500000 0.000000 0.500000 Br
-0.000000 0.500000 0.500000 Br
0.500000 0.500000 0.500000 Ca
0.000000 0.000000 0.000000 Cs

0.000000 0.000000 0.000000
0.000000 0.000000 0.000000
0.000000 0.000000 0.000000
0.000000 0.000000 0.000000
0.000000 0.000000 0.000000
