Mg In Br
1.0
5.623717 -0.000000 -0.000000
-0.000000 5.623717 0.000000
0.000000 0.000000 5.623717
Mg In Br
1 1 3
direct
0.000000 0.000000 0.000000 Mg
0.500000 0.500000 0.500000 In
0.500000 0.500000 0.000000 Br
0.500000 0.000000 0.500000 Br
0.000000 0.500000 0.500000 Br

0.000000 0.000000 0.000000
0.000000 0.000000 0.000000
0.000000 0.000000 0.000000
0.000000 0.000000 0.000000
0.000000 0.000000 0.000000
